
     Program PWSCF v.7.4 starts on 19May2026 at 17:36:11 

     This program is part of the open-source Quantum ESPRESSO suite
     for quantum simulation of materials; please cite
         "P. Giannozzi et al., J. Phys.:Condens. Matter 21 395502 (2009);
         "P. Giannozzi et al., J. Phys.:Condens. Matter 29 465901 (2017);
         "P. Giannozzi et al., J. Chem. Phys. 152 154105 (2020);
          URL http://www.quantum-espresso.org", 
     in publications or presentations arising from this work. More details at
     http://www.quantum-espresso.org/quote

     Parallel version (MPI), running on    12 processors

     MPI processes distributed on     1 nodes
     133562 MiB available memory on the printing compute node when the environment starts
 
     Reading input from c.scf.in

     Current dimensions of program PWSCF are:
     Max number of different atomic species (ntypx) = 10
     Max number of k-points (npk) =  40000
     Max angular momentum in pseudopotentials (lmaxx) =  4
read_pp_mesh; mismatch in mesh size, discarding the one in header
     Message from routine setup:
     using ibrav=0 with symmetry is DISCOURAGED, use correct ibrav instead
 
     R & G space division:  proc/nbgrp/npool/nimage =      12
     Subspace diagonalization in iterative solution of the eigenvalue problem:
     a serial algorithm will be used

 
     Parallelization info
     --------------------
     sticks:   dense  smooth     PW     G-vecs:    dense   smooth      PW
     Min          49      49     14                 7111     7111    1110
     Max          50      50     15                 7132     7132    1134
     Sum         595     595    169                85433    85433   13473
 
     Using Slab Decomposition
 


     bravais-lattice index     =            0
     lattice parameter (alat)  =       4.6588  a.u.
     unit-cell volume          =     632.2598 (a.u.)^3
     number of atoms/cell      =            2
     number of atomic types    =            1
     number of electrons       =         8.00
     number of Kohn-Sham states=            8
     kinetic-energy cutoff     =     100.0000  Ry
     charge density cutoff     =     400.0000  Ry
     scf convergence threshold =      1.0E-09
     mixing beta               =       0.7000
     number of iterations used =            8  plain     mixing
     Exchange-correlation= SLA PW NOGX NOGC
                           (   1   4   0   0   0   0   0)

     celldm(1)=   4.658789  celldm(2)=   0.000000  celldm(3)=   0.000000
     celldm(4)=   0.000000  celldm(5)=   0.000000  celldm(6)=   0.000000

     crystal axes: (cart. coord. in units of alat)
               a(1) = (   1.000000   0.000000   0.000000 )  
               a(2) = (  -0.500000   0.866025   0.000000 )  
               a(3) = (   0.000000   0.000000   7.220143 )  

     reciprocal axes: (cart. coord. in units 2 pi/alat)
               b(1) = (  1.000000  0.577350  0.000000 )  
               b(2) = (  0.000000  1.154701  0.000000 )  
               b(3) = (  0.000000  0.000000  0.138501 )  


     PseudoPot. # 1 for C  read from file:
     ../../../pseudopotentzialak/C.upf
     MD5 check sum: 1b594deb0bcc8b4bffb8cfaf75c62b92
     Pseudo is Projector augmented-wave + core cor, Zval =  4.0
     Generated using ATOMPAW code
     Shape of augmentation charge: SINC**2
     Using radial grid of 2342 points,  4 beta functions with: 
                l(1) =   0
                l(2) =   0
                l(3) =   1
                l(4) =   1
     Q(r) pseudized with 0 coefficients 


     atomic species   valence    mass     pseudopotential
     C                 4.00    12.01070     C ( 1.00)

     24 Sym. Ops., with inversion, found



   Cartesian axes

     site n.     atom                  positions (alat units)
         1        C      tau(   1) = (  -0.0000000   0.5773503   3.6100717  )
         2        C      tau(   2) = (   0.5000000   0.2886751   3.6100717  )

     number of k points=    80  Marzari-Vanderbilt smearing, width (Ry)=  0.0200
                       cart. coord. in units 2pi/alat
        k(    1) = (   0.0000000   0.0000000   0.0000000), wk =   0.0025510
        k(    2) = (   0.0000000   0.0412393   0.0000000), wk =   0.0153061
        k(    3) = (   0.0000000   0.0824786   0.0000000), wk =   0.0153061
        k(    4) = (   0.0000000   0.1237179   0.0000000), wk =   0.0153061
        k(    5) = (   0.0000000   0.1649572   0.0000000), wk =   0.0153061
        k(    6) = (   0.0000000   0.2061965   0.0000000), wk =   0.0153061
        k(    7) = (   0.0000000   0.2474358   0.0000000), wk =   0.0153061
        k(    8) = (   0.0000000   0.2886751   0.0000000), wk =   0.0153061
        k(    9) = (   0.0000000   0.3299144   0.0000000), wk =   0.0153061
        k(   10) = (   0.0000000   0.3711537   0.0000000), wk =   0.0153061
        k(   11) = (   0.0000000   0.4123930   0.0000000), wk =   0.0153061
        k(   12) = (   0.0000000   0.4536324   0.0000000), wk =   0.0153061
        k(   13) = (   0.0000000   0.4948717   0.0000000), wk =   0.0153061
        k(   14) = (   0.0000000   0.5361110   0.0000000), wk =   0.0153061
        k(   15) = (   0.0000000  -0.5773503   0.0000000), wk =   0.0076531
        k(   16) = (   0.0357143   0.0618590   0.0000000), wk =   0.0153061
        k(   17) = (   0.0357143   0.1030983   0.0000000), wk =   0.0306122
        k(   18) = (   0.0357143   0.1443376   0.0000000), wk =   0.0306122
        k(   19) = (   0.0357143   0.1855769   0.0000000), wk =   0.0306122
        k(   20) = (   0.0357143   0.2268162   0.0000000), wk =   0.0306122
        k(   21) = (   0.0357143   0.2680555   0.0000000), wk =   0.0306122
        k(   22) = (   0.0357143   0.3092948   0.0000000), wk =   0.0306122
        k(   23) = (   0.0357143   0.3505341   0.0000000), wk =   0.0306122
        k(   24) = (   0.0357143   0.3917734   0.0000000), wk =   0.0306122
        k(   25) = (   0.0357143   0.4330127   0.0000000), wk =   0.0306122
        k(   26) = (   0.0357143   0.4742520   0.0000000), wk =   0.0306122
        k(   27) = (   0.0357143   0.5154913   0.0000000), wk =   0.0306122
        k(   28) = (   0.0357143   0.5567306   0.0000000), wk =   0.0306122
        k(   29) = (   0.0714286   0.1237179   0.0000000), wk =   0.0153061
        k(   30) = (   0.0714286   0.1649572   0.0000000), wk =   0.0306122
        k(   31) = (   0.0714286   0.2061965   0.0000000), wk =   0.0306122
        k(   32) = (   0.0714286   0.2474358   0.0000000), wk =   0.0306122
        k(   33) = (   0.0714286   0.2886751   0.0000000), wk =   0.0306122
        k(   34) = (   0.0714286   0.3299144   0.0000000), wk =   0.0306122
        k(   35) = (   0.0714286   0.3711537   0.0000000), wk =   0.0306122
        k(   36) = (   0.0714286   0.4123930   0.0000000), wk =   0.0306122
        k(   37) = (   0.0714286   0.4536324   0.0000000), wk =   0.0306122
        k(   38) = (   0.0714286   0.4948717   0.0000000), wk =   0.0306122
        k(   39) = (   0.0714286   0.5361110   0.0000000), wk =   0.0306122
        k(   40) = (   0.0714286   0.5773503   0.0000000), wk =   0.0153061
        k(   41) = (   0.1071429   0.1855769   0.0000000), wk =   0.0153061
        k(   42) = (   0.1071429   0.2268162   0.0000000), wk =   0.0306122
        k(   43) = (   0.1071429   0.2680555   0.0000000), wk =   0.0306122
        k(   44) = (   0.1071429   0.3092948   0.0000000), wk =   0.0306122
        k(   45) = (   0.1071429   0.3505341   0.0000000), wk =   0.0306122
        k(   46) = (   0.1071429   0.3917734   0.0000000), wk =   0.0306122
        k(   47) = (   0.1071429   0.4330127   0.0000000), wk =   0.0306122
        k(   48) = (   0.1071429   0.4742520   0.0000000), wk =   0.0306122
        k(   49) = (   0.1071429   0.5154913   0.0000000), wk =   0.0306122
        k(   50) = (   0.1071429   0.5567306   0.0000000), wk =   0.0306122
        k(   51) = (   0.1428571   0.2474358   0.0000000), wk =   0.0153061
        k(   52) = (   0.1428571   0.2886751   0.0000000), wk =   0.0306122
        k(   53) = (   0.1428571   0.3299144   0.0000000), wk =   0.0306122
        k(   54) = (   0.1428571   0.3711537   0.0000000), wk =   0.0306122
        k(   55) = (   0.1428571   0.4123930   0.0000000), wk =   0.0306122
        k(   56) = (   0.1428571   0.4536324   0.0000000), wk =   0.0306122
        k(   57) = (   0.1428571   0.4948717   0.0000000), wk =   0.0306122
        k(   58) = (   0.1428571   0.5361110   0.0000000), wk =   0.0306122
        k(   59) = (   0.1428571   0.5773503   0.0000000), wk =   0.0153061
        k(   60) = (   0.1785714   0.3092948   0.0000000), wk =   0.0153061
        k(   61) = (   0.1785714   0.3505341   0.0000000), wk =   0.0306122
        k(   62) = (   0.1785714   0.3917734   0.0000000), wk =   0.0306122
        k(   63) = (   0.1785714   0.4330127   0.0000000), wk =   0.0306122
        k(   64) = (   0.1785714   0.4742520   0.0000000), wk =   0.0306122
        k(   65) = (   0.1785714   0.5154913   0.0000000), wk =   0.0306122
        k(   66) = (   0.1785714   0.5567306   0.0000000), wk =   0.0306122
        k(   67) = (   0.2142857   0.3711537   0.0000000), wk =   0.0153061
        k(   68) = (   0.2142857   0.4123930   0.0000000), wk =   0.0306122
        k(   69) = (   0.2142857   0.4536324   0.0000000), wk =   0.0306122
        k(   70) = (   0.2142857   0.4948717   0.0000000), wk =   0.0306122
        k(   71) = (   0.2142857   0.5361110   0.0000000), wk =   0.0306122
        k(   72) = (   0.2142857   0.5773503   0.0000000), wk =   0.0153061
        k(   73) = (   0.2500000   0.4330127   0.0000000), wk =   0.0153061
        k(   74) = (   0.2500000   0.4742520   0.0000000), wk =   0.0306122
        k(   75) = (   0.2500000   0.5154913   0.0000000), wk =   0.0306122
        k(   76) = (   0.2500000   0.5567306   0.0000000), wk =   0.0306122
        k(   77) = (   0.2857143   0.4948717   0.0000000), wk =   0.0153061
        k(   78) = (   0.2857143   0.5361110   0.0000000), wk =   0.0306122
        k(   79) = (   0.2857143   0.5773503   0.0000000), wk =   0.0153061
        k(   80) = (   0.3214286   0.5567306   0.0000000), wk =   0.0153061

     Dense  grid:    85433 G-vectors     FFT dimensions: (  30,  30, 216)

     Estimated max dynamical RAM per process >      18.42 MB

     Estimated total dynamical RAM >     221.01 MB
 ----2D----2D----2D----2D----2D----2D----2D----2D----2D----2D----2D----2D
  The code is running with the 2D cutoff
  Please refer to:
  Sohier, T., Calandra, M., & Mauri, F. (2017), 
  Density functional perturbation theory for gated two-dimensional heterostructu
 res:
  Theoretical developments and application to flexural phonons in graphene.
  Physical Review B, 96(7), 75448. https://doi.org/10.1103/PhysRevB.96.075448
 ----2D----2D----2D----2D----2D----2D----2D----2D----2D----2D----2D----2D

     Check: negative core charge=   -0.000011

     Initial potential from superposition of free atoms

     starting charge       7.9999, renormalised to       8.0000

     negative rho (up, down):  4.591E-06 0.000E+00
     Starting wfcs are   16 randomized atomic wfcs
     Checking if some PAW data can be deallocated... 

     total cpu time spent up to now is        0.5 secs

     per-process dynamical memory:    50.3 Mb

     Self-consistent Calculation

     iteration #  1     ecut=   100.00 Ry     beta= 0.70
     Davidson diagonalization with overlap
     ethr =  1.00E-02,  avg # of iterations =  6.2

     negative rho (up, down):  2.556E-05 0.000E+00

     total cpu time spent up to now is        1.0 secs

     total energy              =     -35.60785581 Ry
     estimated scf accuracy    <       0.20448579 Ry

     iteration #  2     ecut=   100.00 Ry     beta= 0.70
     Davidson diagonalization with overlap
     ethr =  2.56E-03,  avg # of iterations =  4.6

     negative rho (up, down):  3.474E-05 0.000E+00

     total cpu time spent up to now is        1.4 secs

     total energy              =     -35.64036440 Ry
     estimated scf accuracy    <       0.00271655 Ry

     iteration #  3     ecut=   100.00 Ry     beta= 0.70
     Davidson diagonalization with overlap
     ethr =  3.40E-05,  avg # of iterations =  9.3

     negative rho (up, down):  4.428E-05 0.000E+00

     total cpu time spent up to now is        2.0 secs

     total energy              =     -35.64068046 Ry
     estimated scf accuracy    <       0.00013486 Ry

     iteration #  4     ecut=   100.00 Ry     beta= 0.70
     Davidson diagonalization with overlap
     c_bands:  1 eigenvalues not converged
     c_bands:  1 eigenvalues not converged
     ethr =  1.69E-06,  avg # of iterations =  5.0

     negative rho (up, down):  4.548E-05 0.000E+00

     total cpu time spent up to now is        2.4 secs

     total energy              =     -35.64069035 Ry
     estimated scf accuracy    <       0.00000067 Ry

     iteration #  5     ecut=   100.00 Ry     beta= 0.70
     Davidson diagonalization with overlap
     ethr =  8.41E-09,  avg # of iterations =  3.6

     negative rho (up, down):  4.548E-05 0.000E+00

     total cpu time spent up to now is        2.8 secs

     total energy              =     -35.64069112 Ry
     estimated scf accuracy    <       0.00000006 Ry

     iteration #  6     ecut=   100.00 Ry     beta= 0.70
     Davidson diagonalization with overlap
     ethr =  7.41E-10,  avg # of iterations =  1.4

     negative rho (up, down):  4.548E-05 0.000E+00

     total cpu time spent up to now is        3.1 secs

     total energy              =     -35.64069112 Ry
     estimated scf accuracy    <          1.2E-09 Ry

     iteration #  7     ecut=   100.00 Ry     beta= 0.70
     Davidson diagonalization with overlap
     ethr =  1.46E-11,  avg # of iterations =  2.7

     negative rho (up, down):  4.548E-05 0.000E+00

     total cpu time spent up to now is        3.4 secs

     End of self-consistent calculation

          k = 0.0000 0.0000 0.0000 ( 10757 PWs)   bands (ev):

   -23.8599 -12.1914  -7.5980  -7.5980  -1.2542  -0.4982   0.4160   1.1277

          k = 0.0000 0.0412 0.0000 ( 10737 PWs)   bands (ev):

   -23.8299 -12.1553  -7.7195  -7.6637  -1.2134  -0.4566   0.4575   1.1688

          k = 0.0000 0.0825 0.0000 ( 10735 PWs)   bands (ev):

   -23.7400 -12.0471  -8.0704  -7.8508  -1.0910  -0.3320   0.5818   1.2922

          k = 0.0000 0.1237 0.0000 ( 10747 PWs)   bands (ev):

   -23.5903 -11.8675  -8.6158  -8.1329  -0.8869  -0.1245   0.7891   1.4974

          k = 0.0000 0.1650 0.0000 ( 10723 PWs)   bands (ev):

   -23.3812 -11.6173  -9.3114  -8.4775  -0.6012   0.1658   1.0793   1.7842

          k = 0.0000 0.2062 0.0000 ( 10705 PWs)   bands (ev):

   -23.1132 -11.2977 -10.1144  -8.8535  -0.2340   0.5384   1.4523   2.1512

          k = 0.0000 0.2474 0.0000 ( 10711 PWs)   bands (ev):

   -22.7867 -10.9879 -10.9110  -9.2354   0.2144   0.9919   1.9077   2.5916

          k = 0.0000 0.2887 0.0000 ( 10685 PWs)   bands (ev):

   -22.4027 -11.9027 -10.4601  -9.6035   0.7433   1.5187   2.4440   2.6230

          k = 0.0000 0.3299 0.0000 ( 10691 PWs)   bands (ev):

   -21.9621 -12.8360  -9.9496  -9.9432   1.3519   1.6049   2.2035   3.0475

          k = 0.0000 0.3712 0.0000 ( 10681 PWs)   bands (ev):

   -21.4664 -13.7702 -10.2440  -9.3868   0.6445   2.0374   2.8739   3.2305

          k = 0.0000 0.4124 0.0000 ( 10681 PWs)   bands (ev):

   -20.9177 -14.6912 -10.4984  -8.7838  -0.3301   2.7762   3.1565   3.6515

          k = 0.0000 0.4536 0.0000 ( 10673 PWs)   bands (ev):

   -20.3194 -15.5869 -10.7009  -8.1632  -1.2563   2.9993   3.6872   4.5105

          k = 0.0000 0.4949 0.0000 ( 10662 PWs)   bands (ev):

   -19.6791 -16.4437 -10.8480  -7.5702  -2.0757   2.9417   4.5962   5.4454

          k = 0.0000 0.5361 0.0000 ( 10656 PWs)   bands (ev):

   -19.0245 -17.2297 -10.9371  -7.0986  -2.6862   2.9011   5.5859   6.4486

          k = 0.0000-0.5774 0.0000 ( 10652 PWs)   bands (ev):

   -18.5937 -17.7045 -10.9670  -6.9071  -2.9245   2.8871   6.5996   6.6873

          k = 0.0357 0.0619 0.0000 ( 10731 PWs)   bands (ev):

   -23.7699 -12.0832  -7.9505  -7.7953  -1.1318  -0.3736   0.5404   1.2511

          k = 0.0357 0.1031 0.0000 ( 10717 PWs)   bands (ev):

   -23.6502 -11.9393  -8.3863  -8.0423  -0.9685  -0.2075   0.7063   1.4154

          k = 0.0357 0.1443 0.0000 ( 10709 PWs)   bands (ev):

   -23.4708 -11.7243  -8.9932  -8.3696  -0.7235   0.0415   0.9550   1.6614

          k = 0.0357 0.1856 0.0000 ( 10733 PWs)   bands (ev):

   -23.2322 -11.4394  -9.7307  -8.7421  -0.3970   0.3730   1.2867   1.9886

          k = 0.0357 0.2268 0.0000 ( 10726 PWs)   bands (ev):

   -22.9350 -11.0861 -10.5596  -9.1306   0.0108   0.7863   1.7010   2.3944

          k = 0.0357 0.2681 0.0000 ( 10695 PWs)   bands (ev):

   -22.5797 -11.4469 -10.6671  -9.5126   0.4996   1.2787   2.1975   2.8310

          k = 0.0357 0.3093 0.0000 ( 10699 PWs)   bands (ev):

   -22.1674 -12.3661 -10.1860  -9.8714   1.0687   1.8010   2.1772   2.7735

          k = 0.0357 0.3505 0.0000 ( 10682 PWs)   bands (ev):

   -21.6993 -13.2965 -10.1950  -9.6484   1.1145   1.7166   2.5469   3.3498

          k = 0.0357 0.3918 0.0000 ( 10682 PWs)   bands (ev):

   -21.1770 -14.2218 -10.4749  -9.0637   0.1388   2.4386   3.2806   3.3147

          k = 0.0357 0.4330 0.0000 ( 10685 PWs)   bands (ev):

   -20.6032 -15.1288 -10.7048  -8.4482  -0.8129   3.1086   3.3527   4.0990

          k = 0.0357 0.4743 0.0000 ( 10651 PWs)   bands (ev):

   -19.9829 -16.0050 -10.8806  -7.8333  -1.6916   3.1032   4.1603   4.9952

          k = 0.0357 0.5155 0.0000 ( 10645 PWs)   bands (ev):

   -19.3293 -16.8319 -10.9992  -7.2842  -2.4218   3.0522   5.1112   5.9631

          k = 0.0357 0.5567 0.0000 ( 10668 PWs)   bands (ev):

   -18.7157 -17.5330 -11.0590  -6.9299  -2.8682   3.0246   6.1336   6.9842

          k = 0.0714 0.1237 0.0000 ( 10717 PWs)   bands (ev):

   -23.5007 -11.7601  -8.8615  -8.3569  -0.7643   0.0000   0.9136   1.6205

          k = 0.0714 0.1650 0.0000 ( 10722 PWs)   bands (ev):

   -23.2918 -11.5104  -9.4783  -8.7444  -0.4785   0.2902   1.2039   1.9072

          k = 0.0714 0.2062 0.0000 ( 10721 PWs)   bands (ev):

   -23.0241 -11.1916 -10.2134  -9.1583  -0.1112   0.6627   1.5772   2.2743

          k = 0.0714 0.2474 0.0000 ( 10708 PWs)   bands (ev):

   -22.6980 -11.0352 -10.8058  -9.5683   0.3373   1.1163   2.0332   2.7152

          k = 0.0714 0.2887 0.0000 ( 10714 PWs)   bands (ev):

   -22.3145 -11.9124 -10.3559  -9.9558   0.8665   1.6431   2.5004   2.5709

          k = 0.0714 0.3299 0.0000 ( 10706 PWs)   bands (ev):

   -21.8746 -12.8188 -10.3085  -9.8464   1.4756   1.5214   2.3010   3.1873

          k = 0.0714 0.3712 0.0000 ( 10686 PWs)   bands (ev):

   -21.3798 -13.7337 -10.6177  -9.2846   0.5695   2.1629   2.9875   3.7160

          k = 0.0714 0.4124 0.0000 ( 10687 PWs)   bands (ev):

   -20.8323 -14.6409 -10.8773  -8.6823  -0.3843   2.9219   3.6500   3.7643

          k = 0.0714 0.4536 0.0000 ( 10670 PWs)   bands (ev):

   -20.2355 -15.5265 -11.0832  -8.0616  -1.2940   3.4990   3.8284   4.6191

          k = 0.0714 0.4949 0.0000 ( 10660 PWs)   bands (ev):

   -19.5972 -16.3757 -11.2322  -7.4667  -2.1032   3.4627   4.7149   5.5455

          k = 0.0714 0.5361 0.0000 ( 10644 PWs)   bands (ev):

   -18.9453 -17.1559 -11.3223  -6.9914  -2.7104   3.4233   5.6999   6.5291

          k = 0.0714 0.5774 0.0000 ( 10652 PWs)   bands (ev):

   -18.5177 -17.6265 -11.3525  -6.7974  -2.9488   3.4094   6.7032   6.7982

          k = 0.1071 0.1856 0.0000 ( 10723 PWs)   bands (ev):

   -23.0538 -11.2268 -10.0635  -9.2028  -0.1518   0.6215   1.5359   2.2341

          k = 0.1071 0.2268 0.0000 ( 10725 PWs)   bands (ev):

   -22.7572 -10.8753 -10.7514  -9.6785   0.2562   1.0347   1.9508   2.6408

          k = 0.1071 0.2681 0.0000 ( 10722 PWs)   bands (ev):

   -22.4029 -11.5304 -10.4582 -10.1269   0.7452   1.5278   2.4483   2.7441

          k = 0.1071 0.3093 0.0000 ( 10708 PWs)   bands (ev):

   -21.9919 -12.3733 -10.5299  -9.9793   1.3146   1.8290   2.1372   3.0277

          k = 0.1071 0.3505 0.0000 ( 10692 PWs)   bands (ev):

   -21.5253 -13.2510 -10.8816  -9.4440   0.9283   1.9634   2.7733   3.6860

          k = 0.1071 0.3918 0.0000 ( 10677 PWs)   bands (ev):

   -21.0051 -14.1397 -11.1789  -8.8612  -0.0022   2.6898   3.5081   4.2621

          k = 0.1071 0.4330 0.0000 ( 10677 PWs)   bands (ev):

   -20.4340 -15.0208 -11.4196  -8.2465  -0.9142   3.4877   4.2043   4.3197

          k = 0.1071 0.4743 0.0000 ( 10659 PWs)   bands (ev):

   -19.8172 -15.8784 -11.6017  -7.6298  -1.7647   4.0771   4.4178   5.2010

          k = 0.1071 0.5155 0.0000 ( 10655 PWs)   bands (ev):

   -19.1683 -16.6914 -11.7239  -7.0747  -2.4810   4.0462   5.3438   6.1355

          k = 0.1071 0.5567 0.0000 ( 10634 PWs)   bands (ev):

   -18.5613 -17.3815 -11.7853  -6.7122  -2.9257   4.0198   6.3543   7.0510

          k = 0.1429 0.2474 0.0000 ( 10741 PWs)   bands (ev):

   -22.4324 -11.3587 -10.4924 -10.2305   0.7048   1.4884   2.4073   2.8388

          k = 0.1429 0.2887 0.0000 ( 10719 PWs)   bands (ev):

   -22.0506 -12.0541 -10.7440 -10.0460   1.2340   1.9943   2.0587   2.9464

          k = 0.1429 0.3299 0.0000 ( 10693 PWs)   bands (ev):

   -21.6128 -12.8313 -11.1833  -9.5402   1.1730   1.8430   2.6402   3.5675

          k = 0.1429 0.3712 0.0000 ( 10682 PWs)   bands (ev):

   -21.1208 -13.6605 -11.5454  -8.9819   0.2923   2.5308   3.3329   4.2681

          k = 0.1429 0.4124 0.0000 ( 10668 PWs)   bands (ev):

   -20.5767 -14.5109 -11.8363  -8.3822  -0.5915   3.2955   4.1000   4.9593

          k = 0.1429 0.4536 0.0000 ( 10670 PWs)   bands (ev):

   -19.9846 -15.3579 -12.0604  -7.7613  -1.4467   4.1315   4.9331   4.9339

          k = 0.1429 0.4949 0.0000 ( 10635 PWs)   bands (ev):

   -19.3524 -16.1801 -12.2197  -7.1607  -2.2223   4.8211   5.0916   5.8104

          k = 0.1429 0.5361 0.0000 ( 10649 PWs)   bands (ev):

   -18.7089 -16.9405 -12.3152  -6.6724  -2.8187   4.8067   6.0396   6.6559

          k = 0.1429 0.5774 0.0000 ( 10638 PWs)   bands (ev):

   -18.2900 -17.3989 -12.3470  -6.4690  -3.0586   4.7938   7.0057   7.1247

          k = 0.1786 0.3093 0.0000 ( 10685 PWs)   bands (ev):

   -21.6420 -12.6356 -11.3420  -9.5724   1.2611   1.8028   2.5943   3.5269

          k = 0.1786 0.3505 0.0000 ( 10676 PWs)   bands (ev):

   -21.1787 -13.3048 -11.8514  -9.0428   0.4552   2.4508   3.2432   4.1891

          k = 0.1786 0.3918 0.0000 ( 10689 PWs)   bands (ev):

   -20.6628 -14.0549 -12.2482  -8.4650  -0.3708   3.1764   3.9644   4.9315

          k = 0.1786 0.4330 0.0000 ( 10665 PWs)   bands (ev):

   -20.0972 -14.8492 -12.5450  -7.8530  -1.1950   3.9771   4.7469   5.7250

          k = 0.1786 0.4743 0.0000 ( 10652 PWs)   bands (ev):

   -19.4877 -15.6514 -12.7579  -7.2332  -1.9826   4.8472   5.5605   5.7891

          k = 0.1786 0.5155 0.0000 ( 10636 PWs)   bands (ev):

   -18.8485 -16.4277 -12.8963  -6.6641  -2.6682   5.6706   5.8501   6.3087

          k = 0.1786 0.5567 0.0000 ( 10637 PWs)   bands (ev):

   -18.2538 -17.0932 -12.9646  -6.2800  -3.1121   5.6902   6.7561   6.7864

          k = 0.2143 0.3712 0.0000 ( 10673 PWs)   bands (ev):

   -20.6915 -13.8344 -12.4559  -8.4929  -0.2918   3.1364   3.9184   4.8923

          k = 0.2143 0.4124 0.0000 ( 10671 PWs)   bands (ev):

   -20.1538 -14.4589 -12.9286  -7.9000  -1.0543   3.8977   4.6504   5.6749

          k = 0.2143 0.4536 0.0000 ( 10651 PWs)   bands (ev):

   -19.5699 -15.1657 -13.2580  -7.2810  -1.8118   4.7308   5.3989   6.5227

          k = 0.2143 0.4949 0.0000 ( 10645 PWs)   bands (ev):

   -18.9487 -15.9053 -13.4714  -6.6703  -2.5257   5.6274   6.0409   6.7096

          k = 0.2143 0.5361 0.0000 ( 10634 PWs)   bands (ev):

   -18.3191 -16.6165 -13.5921  -6.1527  -3.1072   6.3809   6.5322   6.7097

          k = 0.2143 0.5774 0.0000 ( 10626 PWs)   bands (ev):

   -17.9110 -17.0534 -13.6313  -5.9249  -3.3568   6.4611   6.6323   7.4734

          k = 0.2500 0.4330 0.0000 ( 10673 PWs)   bands (ev):

   -19.5975 -14.9230 -13.5069  -7.2976  -1.7496   4.6913   5.3423   6.4962

          k = 0.2500 0.4743 0.0000 ( 10653 PWs)   bands (ev):

   -19.0003 -15.4908 -13.9149  -6.6771  -2.4394   5.5498   5.8920   7.3808

          k = 0.2500 0.5155 0.0000 ( 10629 PWs)   bands (ev):

   -18.3771 -16.1338 -14.1538  -6.0826  -3.0804   6.1172   6.4575   7.6068

          k = 0.2500 0.5567 0.0000 ( 10626 PWs)   bands (ev):

   -17.7980 -16.7358 -14.2620  -5.6436  -3.5428   6.1482   7.3523   7.5893

          k = 0.2857 0.4949 0.0000 ( 10631 PWs)   bands (ev):

   -18.3983 -15.8833 -14.4299  -6.0606  -3.0665   6.0227   6.4193   7.8840

          k = 0.2857 0.5361 0.0000 ( 10619 PWs)   bands (ev):

   -17.7909 -16.3768 -14.7312  -5.4825  -3.6484   5.9670   7.3003   8.2853

          k = 0.2857 0.5774 0.0000 ( 10630 PWs)   bands (ev):

   -17.3820 -16.7554 -14.8247  -5.1702  -3.9617   5.9306   8.0095   8.0972

          k = 0.3214 0.5567 0.0000 ( 10620 PWs)   bands (ev):

   -17.2353 -16.7049 -15.0783  -4.8986  -4.2132   5.8486   8.0363   8.3831

     the Fermi energy is    -4.6899 ev

!    total energy              =     -35.64069112 Ry
     total all-electron energy =       -35.640691 Ry
     estimated scf accuracy    <          6.6E-11 Ry
     smearing contrib. (-TS)   =       0.00005319 Ry
     internal energy E=F+TS    =     -35.64074431 Ry

     The total energy is F=E-TS. E is the sum of the following terms:
     one-electron contribution =    -313.01941864 Ry
     hartree contribution      =     157.35629817 Ry
     xc contribution           =      -8.89628683 Ry
     ewald contribution        =     140.37048933 Ry
     one-center paw contrib.   =     -11.45182634 Ry

     convergence has been achieved in   7 iterations

     Writing all to output data dir ./tmp/graphene.save/ :
     XML data file, charge density, pseudopotentials, collected wavefunctions
 
     init_run     :      0.37s CPU      0.41s WALL (       1 calls)
     electrons    :      2.84s CPU      2.93s WALL (       1 calls)

     Called by init_run:
     wfcinit      :      0.27s CPU      0.30s WALL (       1 calls)
     potinit      :      0.01s CPU      0.01s WALL (       1 calls)
     hinit0       :      0.03s CPU      0.04s WALL (       1 calls)

     Called by electrons:
     c_bands      :      2.40s CPU      2.47s WALL (       7 calls)
     sum_band     :      0.39s CPU      0.40s WALL (       7 calls)
     v_of_rho     :      0.01s CPU      0.01s WALL (       8 calls)
     newd         :      0.02s CPU      0.02s WALL (       8 calls)
     PAW_pot      :      0.02s CPU      0.03s WALL (       8 calls)
     mix_rho      :      0.00s CPU      0.00s WALL (       7 calls)

     Called by c_bands:
     init_us_2    :      0.06s CPU      0.06s WALL (    1200 calls)
     cegterg      :      2.30s CPU      2.37s WALL (     560 calls)

     Called by *egterg:
     cdiaghg      :      0.13s CPU      0.14s WALL (    3177 calls)
     h_psi        :      2.11s CPU      2.19s WALL (    3257 calls)
     s_psi        :      0.03s CPU      0.03s WALL (    3257 calls)
     g_psi        :      0.01s CPU      0.01s WALL (    2617 calls)

     Called by h_psi:
     h_psi:calbec :      0.07s CPU      0.07s WALL (    3257 calls)
     vloc_psi     :      1.99s CPU      2.07s WALL (    3257 calls)
     add_vuspsi   :      0.03s CPU      0.03s WALL (    3257 calls)

     General routines
     calbec       :      0.08s CPU      0.08s WALL (    3817 calls)
     fft          :      0.01s CPU      0.01s WALL (      32 calls)
     ffts         :      0.00s CPU      0.00s WALL (       7 calls)
     fftw         :      2.01s CPU      2.09s WALL (   34532 calls)
 
     Parallel routines
 
     PWSCF        :      3.33s CPU      3.51s WALL

 
   This run was terminated on:  17:36:14  19May2026            

=------------------------------------------------------------------------------=
   JOB DONE.
=------------------------------------------------------------------------------=
