
     Program PWSCF v.7.4 starts on 12May2026 at 13: 0:37 

     This program is part of the open-source Quantum ESPRESSO suite
     for quantum simulation of materials; please cite
         "P. Giannozzi et al., J. Phys.:Condens. Matter 21 395502 (2009);
         "P. Giannozzi et al., J. Phys.:Condens. Matter 29 465901 (2017);
         "P. Giannozzi et al., J. Chem. Phys. 152 154105 (2020);
          URL http://www.quantum-espresso.org", 
     in publications or presentations arising from this work. More details at
     http://www.quantum-espresso.org/quote

     Parallel version (MPI), running on    12 processors

     MPI processes distributed on     1 nodes
     166309 MiB available memory on the printing compute node when the environment starts
 
     Reading input from ./scratch_runs/atom02_y_plus/atom02_y_plus.in

     Current dimensions of program PWSCF are:
     Max number of different atomic species (ntypx) = 10
     Max number of k-points (npk) =  40000
     Max angular momentum in pseudopotentials (lmaxx) =  4
read_pp_mesh; mismatch in mesh size, discarding the one in header
     Message from routine setup:
     using ibrav=0 with symmetry is DISCOURAGED, use correct ibrav instead
 
     R & G space division:  proc/nbgrp/npool/nimage =      12
     Subspace diagonalization in iterative solution of the eigenvalue problem:
     a serial algorithm will be used

 
     Parallelization info
     --------------------
     sticks:   dense  smooth     PW     G-vecs:    dense   smooth      PW
     Min         199     199     54                28481    28481    4042
     Max         200     200     55                28494    28494    4059
     Sum        2395    2395    649               341861   341861   48543
 
     Using Slab Decomposition
 


     bravais-lattice index     =            0
     lattice parameter (alat)  =       9.3176  a.u.
     unit-cell volume          =    2529.0393 (a.u.)^3
     number of atoms/cell      =            8
     number of atomic types    =            1
     number of electrons       =        32.00
     number of Kohn-Sham states=           20
     kinetic-energy cutoff     =     100.0000  Ry
     charge density cutoff     =     400.0000  Ry
     scf convergence threshold =      1.0E-16
     mixing beta               =       0.7000
     number of iterations used =            8  plain     mixing
     Exchange-correlation= SLA PW NOGX NOGC
                           (   1   4   0   0   0   0   0)

     celldm(1)=   9.317578  celldm(2)=   0.000000  celldm(3)=   0.000000
     celldm(4)=   0.000000  celldm(5)=   0.000000  celldm(6)=   0.000000

     crystal axes: (cart. coord. in units of alat)
               a(1) = (   1.000000   0.000000   0.000000 )  
               a(2) = (  -0.500000   0.866025   0.000000 )  
               a(3) = (   0.000000   0.000000   3.610072 )  

     reciprocal axes: (cart. coord. in units 2 pi/alat)
               b(1) = (  1.000000  0.577350  0.000000 )  
               b(2) = (  0.000000  1.154701  0.000000 )  
               b(3) = (  0.000000  0.000000  0.277003 )  


     PseudoPot. # 1 for C  read from file:
     ./C.upf
     MD5 check sum: 1b594deb0bcc8b4bffb8cfaf75c62b92
     Pseudo is Projector augmented-wave + core cor, Zval =  4.0
     Generated using ATOMPAW code
     Shape of augmentation charge: SINC**2
     Using radial grid of 2342 points,  4 beta functions with: 
                l(1) =   0
                l(2) =   0
                l(3) =   1
                l(4) =   1
     Q(r) pseudized with 0 coefficients 


     atomic species   valence    mass     pseudopotential
     C                 4.00    12.01070     C ( 1.00)

      4 Sym. Ops. (no inversion) found



   Cartesian axes

     site n.     atom                  positions (alat units)
         1        C      tau(   1) = (   0.0000000   0.0000000   1.8050358  )
         2        C      tau(   2) = (   0.0000004   0.2896890   1.8050358  )
         3        C      tau(   3) = (   0.5000000   0.0000000   1.8050358  )
         4        C      tau(   4) = (   0.5000004   0.2886749   1.8050358  )
         5        C      tau(   5) = (  -0.2499999   0.4330127   1.8050358  )
         6        C      tau(   6) = (  -0.2499995   0.7216876   1.8050358  )
         7        C      tau(   7) = (   0.2499999   0.4330127   1.8050358  )
         8        C      tau(   8) = (   0.2500005   0.7216876   1.8050358  )

     number of k points=    57  Marzari-Vanderbilt smearing, width (Ry)=  0.0200
                       cart. coord. in units 2pi/alat
        k(    1) = (   0.0000000   0.0000000   0.0000000), wk =   0.0102041
        k(    2) = (   0.0000000   0.0824786   0.0000000), wk =   0.0204082
        k(    3) = (   0.0000000   0.1649572   0.0000000), wk =   0.0204082
        k(    4) = (   0.0000000   0.2474358   0.0000000), wk =   0.0204082
        k(    5) = (   0.0000000   0.3299144   0.0000000), wk =   0.0204082
        k(    6) = (   0.0000000   0.4123930   0.0000000), wk =   0.0204082
        k(    7) = (   0.0000000   0.4948717   0.0000000), wk =   0.0204082
        k(    8) = (   0.0000000  -0.5773503   0.0000000), wk =   0.0102041
        k(    9) = (   0.0714286   0.1237179   0.0000000), wk =   0.0408163
        k(   10) = (   0.0714286   0.2061965   0.0000000), wk =   0.0408163
        k(   11) = (   0.0714286   0.2886751   0.0000000), wk =   0.0408163
        k(   12) = (   0.0714286   0.3711537   0.0000000), wk =   0.0408163
        k(   13) = (   0.0714286   0.4536324   0.0000000), wk =   0.0408163
        k(   14) = (   0.0714286   0.5361110   0.0000000), wk =   0.0408163
        k(   15) = (   0.1428571   0.2474358   0.0000000), wk =   0.0408163
        k(   16) = (   0.1428571   0.3299144   0.0000000), wk =   0.0408163
        k(   17) = (   0.1428571   0.4123930   0.0000000), wk =   0.0408163
        k(   18) = (   0.1428571   0.4948717   0.0000000), wk =   0.0408163
        k(   19) = (   0.1428571   0.5773503   0.0000000), wk =   0.0204082
        k(   20) = (   0.2142857   0.3711537   0.0000000), wk =   0.0408163
        k(   21) = (   0.2142857   0.4536324   0.0000000), wk =   0.0408163
        k(   22) = (   0.2142857   0.5361110   0.0000000), wk =   0.0408163
        k(   23) = (   0.2857143   0.4948717   0.0000000), wk =   0.0408163
        k(   24) = (   0.2857143   0.5773503   0.0000000), wk =   0.0204082
        k(   25) = (  -0.0714286   0.0412393   0.0000000), wk =   0.0408163
        k(   26) = (  -0.1428571   0.0824786   0.0000000), wk =   0.0408163
        k(   27) = (  -0.2142857   0.1237179   0.0000000), wk =   0.0408163
        k(   28) = (  -0.2857143   0.1649572   0.0000000), wk =   0.0408163
        k(   29) = (  -0.3571429   0.2061965   0.0000000), wk =   0.0408163
        k(   30) = (  -0.4285714   0.2474358   0.0000000), wk =   0.0408163
        k(   31) = (   0.5000000  -0.2886751   0.0000000), wk =   0.0204082
        k(   32) = (   0.1428571   0.0000000   0.0000000), wk =   0.0204082
        k(   33) = (  -0.1428571   0.1649572   0.0000000), wk =   0.0408163
        k(   34) = (   0.2142857   0.0412393   0.0000000), wk =   0.0408163
        k(   35) = (  -0.2142857   0.2061965   0.0000000), wk =   0.0408163
        k(   36) = (   0.2857143   0.0824786   0.0000000), wk =   0.0408163
        k(   37) = (  -0.2857143   0.2474358   0.0000000), wk =   0.0408163
        k(   38) = (   0.3571429   0.1237179   0.0000000), wk =   0.0408163
        k(   39) = (  -0.3571429   0.2886751   0.0000000), wk =   0.0408163
        k(   40) = (   0.4285714   0.1649572   0.0000000), wk =   0.0408163
        k(   41) = (  -0.4285714   0.3299144   0.0000000), wk =   0.0408163
        k(   42) = (   0.5000000   0.2061965   0.0000000), wk =   0.0408163
        k(   43) = (   0.2857143   0.0000000   0.0000000), wk =   0.0204082
        k(   44) = (  -0.2142857   0.2886751   0.0000000), wk =   0.0408163
        k(   45) = (   0.3571429   0.0412393   0.0000000), wk =   0.0408163
        k(   46) = (  -0.2857143   0.3299144   0.0000000), wk =   0.0408163
        k(   47) = (   0.4285714   0.0824786   0.0000000), wk =   0.0408163
        k(   48) = (  -0.3571429   0.3711537   0.0000000), wk =   0.0408163
        k(   49) = (   0.5000000   0.1237179   0.0000000), wk =   0.0408163
        k(   50) = (  -0.4285714   0.4123930   0.0000000), wk =   0.0408163
        k(   51) = (   0.4285714   0.0000000   0.0000000), wk =   0.0204082
        k(   52) = (  -0.2857143   0.4123930   0.0000000), wk =   0.0408163
        k(   53) = (   0.5000000   0.0412393   0.0000000), wk =   0.0408163
        k(   54) = (  -0.3571429   0.4536324   0.0000000), wk =   0.0408163
        k(   55) = (   0.5714286   0.0824786   0.0000000), wk =   0.0408163
        k(   56) = (   0.5714286   0.0000000   0.0000000), wk =   0.0204082
        k(   57) = (  -0.3571429   0.5361110   0.0000000), wk =   0.0408163

     Dense  grid:   341861 G-vectors     FFT dimensions: (  60,  60, 216)

     Estimated max dynamical RAM per process >     111.71 MB

     Estimated total dynamical RAM >       1.31 GB
 ----2D----2D----2D----2D----2D----2D----2D----2D----2D----2D----2D----2D
  The code is running with the 2D cutoff
  Please refer to:
  Sohier, T., Calandra, M., & Mauri, F. (2017), 
  Density functional perturbation theory for gated two-dimensional heterostructu
 res:
  Theoretical developments and application to flexural phonons in graphene.
  Physical Review B, 96(7), 75448. https://doi.org/10.1103/PhysRevB.96.075448
 ----2D----2D----2D----2D----2D----2D----2D----2D----2D----2D----2D----2D

     Check: negative core charge=   -0.000011

     Initial potential from superposition of free atoms

     starting charge      31.9997, renormalised to      32.0000

     negative rho (up, down):  1.837E-05 0.000E+00
     Starting wfcs are   64 randomized atomic wfcs
     Checking if some PAW data can be deallocated... 

     total cpu time spent up to now is        3.1 secs

     per-process dynamical memory:   136.7 Mb

     Self-consistent Calculation

     iteration #  1     ecut=   100.00 Ry     beta= 0.70
     Davidson diagonalization with overlap
     ethr =  1.00E-02,  avg # of iterations =  2.1

     negative rho (up, down):  1.016E-04 0.000E+00

     total cpu time spent up to now is        6.1 secs

     total energy              =    -142.44937436 Ry
     estimated scf accuracy    <       0.78476563 Ry

     iteration #  2     ecut=   100.00 Ry     beta= 0.70
     Davidson diagonalization with overlap
     ethr =  2.45E-03,  avg # of iterations =  3.0

     negative rho (up, down):  1.436E-04 0.000E+00

     total cpu time spent up to now is        9.0 secs

     total energy              =    -142.56129174 Ry
     estimated scf accuracy    <       0.00990568 Ry

     iteration #  3     ecut=   100.00 Ry     beta= 0.70
     Davidson diagonalization with overlap
     ethr =  3.10E-05,  avg # of iterations = 10.4

     negative rho (up, down):  1.746E-04 0.000E+00

     total cpu time spent up to now is       12.8 secs

     total energy              =    -142.56252501 Ry
     estimated scf accuracy    <       0.00067801 Ry

     iteration #  4     ecut=   100.00 Ry     beta= 0.70
     Davidson diagonalization with overlap
     c_bands:  1 eigenvalues not converged
     c_bands:  1 eigenvalues not converged
     c_bands:  3 eigenvalues not converged
     c_bands:  3 eigenvalues not converged
     ethr =  2.12E-06,  avg # of iterations =  5.4

     negative rho (up, down):  1.783E-04 0.000E+00

     total cpu time spent up to now is       16.3 secs

     total energy              =    -142.56264830 Ry
     estimated scf accuracy    <       0.00029197 Ry

     iteration #  5     ecut=   100.00 Ry     beta= 0.70
     Davidson diagonalization with overlap
     ethr =  9.12E-07,  avg # of iterations =  2.2

     negative rho (up, down):  1.804E-04 0.000E+00

     total cpu time spent up to now is       18.8 secs

     total energy              =    -142.56270625 Ry
     estimated scf accuracy    <       0.00000284 Ry

     iteration #  6     ecut=   100.00 Ry     beta= 0.70
     Davidson diagonalization with overlap
     ethr =  8.87E-09,  avg # of iterations =  4.4

     negative rho (up, down):  1.818E-04 0.000E+00

     total cpu time spent up to now is       22.2 secs

     total energy              =    -142.56270837 Ry
     estimated scf accuracy    <       0.00000104 Ry

     iteration #  7     ecut=   100.00 Ry     beta= 0.70
     Davidson diagonalization with overlap
     ethr =  3.24E-09,  avg # of iterations =  2.0

     negative rho (up, down):  1.819E-04 0.000E+00

     total cpu time spent up to now is       24.8 secs

     total energy              =    -142.56270843 Ry
     estimated scf accuracy    <       0.00000021 Ry

     iteration #  8     ecut=   100.00 Ry     beta= 0.70
     Davidson diagonalization with overlap
     ethr =  6.59E-10,  avg # of iterations =  2.2

     negative rho (up, down):  1.819E-04 0.000E+00

     total cpu time spent up to now is       27.7 secs

     total energy              =    -142.56270848 Ry
     estimated scf accuracy    <          7.5E-09 Ry

     iteration #  9     ecut=   100.00 Ry     beta= 0.70
     Davidson diagonalization with overlap
     ethr =  2.34E-11,  avg # of iterations =  2.7

     negative rho (up, down):  1.819E-04 0.000E+00

     total cpu time spent up to now is       30.5 secs

     total energy              =    -142.56270848 Ry
     estimated scf accuracy    <          6.5E-09 Ry

     iteration # 10     ecut=   100.00 Ry     beta= 0.70
     Davidson diagonalization with overlap
     ethr =  2.04E-11,  avg # of iterations =  2.0

     negative rho (up, down):  1.819E-04 0.000E+00

     total cpu time spent up to now is       32.9 secs

     total energy              =    -142.56270848 Ry
     estimated scf accuracy    <          6.6E-10 Ry

     iteration # 11     ecut=   100.00 Ry     beta= 0.70
     Davidson diagonalization with overlap
     ethr =  2.05E-12,  avg # of iterations =  2.3

     negative rho (up, down):  1.819E-04 0.000E+00

     total cpu time spent up to now is       35.7 secs

     total energy              =    -142.56270848 Ry
     estimated scf accuracy    <          2.2E-11 Ry

     iteration # 12     ecut=   100.00 Ry     beta= 0.70
     Davidson diagonalization with overlap
     ethr =  1.00E-13,  avg # of iterations =  3.0

     negative rho (up, down):  1.819E-04 0.000E+00

     total cpu time spent up to now is       38.7 secs

     total energy              =    -142.56270848 Ry
     estimated scf accuracy    <          1.4E-12 Ry

     iteration # 13     ecut=   100.00 Ry     beta= 0.70
     Davidson diagonalization with overlap
     ethr =  1.00E-13,  avg # of iterations =  1.0

     negative rho (up, down):  1.819E-04 0.000E+00

     total cpu time spent up to now is       40.9 secs

     total energy              =    -142.56270848 Ry
     estimated scf accuracy    <          1.3E-12 Ry

     iteration # 14     ecut=   100.00 Ry     beta= 0.70
     Davidson diagonalization with overlap
     ethr =  1.00E-13,  avg # of iterations =  1.0

     negative rho (up, down):  1.819E-04 0.000E+00

     total cpu time spent up to now is       43.0 secs

     total energy              =    -142.56270848 Ry
     estimated scf accuracy    <          2.8E-13 Ry

     iteration # 15     ecut=   100.00 Ry     beta= 0.70
     Davidson diagonalization with overlap
     ethr =  1.00E-13,  avg # of iterations =  1.0

     negative rho (up, down):  1.819E-04 0.000E+00

     total cpu time spent up to now is       45.1 secs

     total energy              =    -142.56270848 Ry
     estimated scf accuracy    <          1.4E-14 Ry

     iteration # 16     ecut=   100.00 Ry     beta= 0.70
     Davidson diagonalization with overlap
     ethr =  1.00E-13,  avg # of iterations =  1.0

     negative rho (up, down):  1.819E-04 0.000E+00

     total cpu time spent up to now is       47.3 secs

     total energy              =    -142.56270848 Ry
     estimated scf accuracy    <          7.8E-16 Ry

     iteration # 17     ecut=   100.00 Ry     beta= 0.70
     Davidson diagonalization with overlap
     ethr =  1.00E-13,  avg # of iterations =  1.0

     negative rho (up, down):  1.819E-04 0.000E+00

     total cpu time spent up to now is       49.4 secs

     total energy              =    -142.56270848 Ry
     estimated scf accuracy    <          2.8E-16 Ry

     iteration # 18     ecut=   100.00 Ry     beta= 0.70
     Davidson diagonalization with overlap
     ethr =  1.00E-13,  avg # of iterations =  1.0

     negative rho (up, down):  1.819E-04 0.000E+00

     total cpu time spent up to now is       51.5 secs

     End of self-consistent calculation

          k = 0.0000 0.0000 0.0000 ( 42713 PWs)   bands (ev):

   -23.8598 -18.6006 -18.6006 -18.5802 -17.7156 -17.7039 -17.6933 -12.1913
   -10.9785 -10.9668 -10.9554  -7.6165  -7.5790  -6.9168  -6.9091  -6.8952
    -2.9384  -2.9253  -2.9096  -1.2542

          k = 0.0000 0.0825 0.0000 ( 42729 PWs)   bands (ev):

   -23.8299 -19.0259 -18.7215 -18.7069 -17.5408 -17.5335 -17.2226 -12.1552
   -11.0619 -11.0476 -10.9454  -7.7009  -7.6820  -7.1063  -6.9319  -6.9191
    -2.8813  -2.8690  -2.6730  -1.2134

          k = 0.0000 0.1650 0.0000 ( 42685 PWs)   bands (ev):

   -23.7399 -19.6791 -18.9501 -18.9394 -17.1608 -17.1576 -16.4376 -12.0472
   -11.3246 -11.3114 -10.8566  -8.0530  -7.8681  -7.5758  -6.9933  -6.9811
    -2.7232  -2.7114  -2.0646  -1.0910

          k = 0.0000 0.2474 0.0000 ( 42730 PWs)   bands (ev):

   -23.5903 -20.3191 -19.1724 -19.1638 -16.6949 -16.6941 -15.5809 -11.8676
   -11.7255 -11.7135 -10.7099  -8.6001  -8.1671  -8.1489  -7.0766  -7.0650
    -2.4936  -2.4823  -1.2471  -0.8868

          k = 0.0000 0.3299 0.0000 ( 42674 PWs)   bands (ev):

   -23.3811 -20.9172 -19.3563 -19.3488 -16.1839 -16.1831 -14.6848 -12.2203
   -12.2097 -11.6175 -10.5078  -9.2975  -8.7865  -8.4921  -7.1625  -7.1515
    -2.2346  -2.2238  -0.6011  -0.3224

          k = 0.0000 0.4124 0.0000 ( 42690 PWs)   bands (ev):

   -23.1130 -21.4659 -19.4913 -19.4845 -15.6566 -15.6548 -13.7631 -12.7571
   -12.7476 -11.2981 -10.2540 -10.1022  -9.3886  -8.8668  -7.2349  -7.2244
    -1.9950  -1.9845  -0.2340   0.5383

          k = 0.0000 0.4949 0.0000 ( 42704 PWs)   bands (ev):

   -22.7866 -21.9616 -19.5734 -19.5670 -15.1732 -15.1707 -13.2548 -13.2465
   -12.8277 -10.9772 -10.9117  -9.9540  -9.9509  -9.2473  -7.2827  -7.2725
    -1.8243  -1.8138   0.2144   0.9917

          k = 0.0000-0.5774 0.0000 ( 42716 PWs)   bands (ev):

   -22.4117 -22.3931 -19.6010 -19.5946 -14.9326 -14.9300 -13.5016 -13.4932
   -11.9039 -11.8830 -10.4689 -10.4531  -9.6310  -9.5985  -7.2993  -7.2892
    -1.7621  -1.7517   0.7426   0.7441

          k = 0.0714 0.1237 0.0000 ( 42673 PWs)   bands (ev):

   -23.7699 -19.3345 -19.3245 -18.5153 -17.6316 -16.8370 -16.8234 -12.0831
   -11.3485 -11.0087 -10.9937  -7.9430  -7.8025  -7.2918  -7.2797  -6.7928
    -2.9558  -2.4286  -2.4092  -1.1318

          k = 0.0714 0.2062 0.0000 ( 42662 PWs)   bands (ev):

   -23.6501 -19.9827 -19.5972 -18.5598 -17.3857 -16.3787 -15.9991 -11.9393
   -11.7812 -11.2276 -10.8893  -8.3728  -8.0559  -7.8380  -7.4635  -6.7077
    -2.9329  -2.1095  -1.6816  -0.9685

          k = 0.0714 0.2887 0.0000 ( 42702 PWs)   bands (ev):

   -23.4707 -20.6028 -19.8174 -18.7083 -16.9442 -15.8816 -15.1226 -12.3110
   -11.7245 -11.5969 -10.7139  -8.9794  -8.4515  -8.3839  -7.6268  -6.6679
    -2.8260  -1.7711  -0.8046  -0.7235

          k = 0.0714 0.3712 0.0000 ( 42721 PWs)   bands (ev):

   -23.2321 -21.1765 -19.9849 -18.8483 -16.4315 -15.3619 -14.2151 -12.8917
   -12.0549 -11.4397 -10.4845  -9.7179  -9.0660  -8.7557  -7.7584  -6.6597
    -2.6756  -1.4533  -0.3970   0.1458

          k = 0.0714 0.4536 0.0000 ( 42718 PWs)   bands (ev):

   -22.9348 -21.6988 -20.0976 -18.9487 -15.9101 -14.8547 -13.4659 -13.2888
   -12.5381 -11.0867 -10.5483 -10.2053  -9.6499  -9.1431  -7.8502  -6.6661
    -2.5332  -1.2018   0.0108   0.7862

          k = 0.0714 0.5361 0.0000 ( 42718 PWs)   bands (ev):

   -22.5797 -22.1669 -20.1542 -19.0004 -15.4979 -14.4671 -13.9069 -12.9192
   -12.3575 -11.4369 -10.6680 -10.1869  -9.8829  -9.5235  -7.8973  -6.6729
    -2.4469  -1.0613   0.4996   1.0687

          k = 0.1429 0.2474 0.0000 ( 42695 PWs)   bands (ev):

   -23.5006 -20.2404 -20.2305 -18.2875 -17.4041 -15.5321 -15.5179 -12.3432
   -11.7601 -11.0930 -11.0771  -8.8535  -8.3649  -8.0671  -8.0574  -6.4646
    -3.0653  -1.3004  -1.2843  -0.7643

          k = 0.1429 0.3299 0.0000 ( 42723 PWs)   bands (ev):

   -23.2917 -20.8319 -20.4343 -18.2522 -17.0979 -15.0246 -14.6343 -12.9607
   -11.5105 -11.4142 -10.8864  -9.4674  -8.7557  -8.6849  -8.2441  -6.2753
    -3.1192  -0.9201  -0.4785  -0.3768

          k = 0.1429 0.4124 0.0000 ( 42709 PWs)   bands (ev):

   -23.0239 -21.3794 -20.5771 -18.3183 -16.6210 -14.5159 -13.7268 -13.5873
   -11.8298 -11.1919 -10.6273 -10.2021  -9.2864  -9.1702  -8.3799  -6.1477
    -3.1147  -0.5978  -0.1112   0.5758

          k = 0.1429 0.4949 0.0000 ( 42732 PWs)   bands (ev):

   -22.6979 -21.8742 -20.6631 -18.3766 -16.1394 -14.1480 -14.0620 -12.8107
   -12.2394 -11.0247 -10.8064 -10.3189  -9.8476  -9.5797  -8.4628  -6.0774
    -3.0881  -0.3774   0.3373   1.1163

          k = 0.1429 0.5774 0.0000 ( 42732 PWs)   bands (ev):

   -22.3235 -22.3049 -20.6919 -18.3980 -15.8905 -14.4223 -13.8439 -12.4452
   -11.9135 -11.8925 -10.3646 -10.3488  -9.9825  -9.9510  -8.4907  -6.0554
    -3.0743  -0.2986   0.8657   0.8673

          k = 0.2143 0.3712 0.0000 ( 42703 PWs)   bands (ev):

   -23.0537 -21.0099 -21.0002 -17.9083 -17.0589 -14.1466 -14.1305 -13.6277
   -11.2270 -11.1892 -11.1714 -10.0562  -9.2101  -8.8656  -8.8570  -5.9206
    -3.3628  -0.1518  -0.0088   0.0053

          k = 0.2143 0.4536 0.0000 ( 42725 PWs)   bands (ev):

   -22.7571 -21.5249 -21.1210 -17.7959 -16.7414 -14.2579 -13.6670 -13.2432
   -11.5375 -10.8914 -10.8757 -10.7419  -9.6881  -9.4454  -8.9801  -5.6383
    -3.5498   0.2562   0.2863   0.9338

          k = 0.2143 0.5361 0.0000 ( 42725 PWs)   bands (ev):

   -22.4029 -21.9914 -21.1791 -17.7895 -16.3833 -14.7257 -13.3142 -12.3649
   -11.8406 -11.5206 -10.5406 -10.4590 -10.1367  -9.9801  -9.0410  -5.4764
    -3.6562   0.4489   0.7452   1.3146

          k = 0.2857 0.4949 0.0000 ( 42757 PWs)   bands (ev):

   -22.4324 -21.6175 -21.6080 -17.3791 -16.7608 -14.8220 -12.8416 -12.8215
   -11.3530 -11.1935 -11.1715 -10.4928 -10.2370  -9.5441  -9.5359  -5.1660
    -3.9665   0.7048   1.1657   1.1788

          k = 0.2857 0.5774 0.0000 ( 42743 PWs)   bands (ev):

   -22.0597 -22.0410 -21.6422 -17.2316 -16.7113 -15.0752 -12.6465 -12.0568
   -12.0358 -11.3295 -10.7667 -10.7385 -10.0544 -10.0388  -9.5710  -4.8912
    -4.2213   1.2332   1.2348   1.2552

          k =-0.0714 0.0412 0.0000 ( 42729 PWs)   bands (ev):

   -23.8299 -19.0242 -18.7227 -18.7097 -17.5394 -17.5224 -17.2327 -12.1552
   -11.0687 -11.0539 -10.9323  -7.7317  -7.6510  -7.0951  -6.9393  -6.9244
    -2.8759  -2.8536  -2.6923  -1.2134

          k =-0.1429 0.0825 0.0000 ( 42685 PWs)   bands (ev):

   -23.7400 -19.6793 -18.9525 -18.9385 -17.1628 -17.1454 -16.4463 -12.0471
   -11.3319 -11.3169 -10.8434  -8.0797  -7.8408  -7.5675  -7.0009  -6.9858
    -2.7179  -2.6958  -2.0809  -1.0909

          k =-0.2143 0.1237 0.0000 ( 42730 PWs)   bands (ev):

   -23.5903 -20.3196 -19.1753 -19.1611 -16.6985 -16.6808 -15.5896 -11.8674
   -11.7336 -11.7184 -10.6963  -8.6237  -8.1613  -8.1241  -7.0843  -7.0689
    -2.4884  -2.4665  -1.2606  -0.8868

          k =-0.2857 0.1650 0.0000 ( 42674 PWs)   bands (ev):

   -23.3813 -20.9179 -19.3594 -19.3451 -16.1874 -16.1692 -14.6941 -12.2295
   -12.2145 -11.6171 -10.4936  -9.3182  -8.7824  -8.4696  -7.1703  -7.1546
    -2.2295  -2.2078  -0.6010  -0.3338

          k =-0.3571 0.2062 0.0000 ( 42690 PWs)   bands (ev):

   -23.1132 -21.4666 -19.4946 -19.4803 -15.6586 -15.6398 -13.7735 -12.7677
   -12.7535 -11.2975 -10.2396 -10.1197  -9.3858  -8.8464  -7.2429  -7.2269
    -1.9897  -1.9682  -0.2339   0.6395

          k =-0.4286 0.2474 0.0000 ( 42704 PWs)   bands (ev):

   -22.7868 -21.9622 -19.5768 -19.5625 -15.1724 -15.1527 -13.2675 -13.2557
   -12.8397 -10.9930 -10.9107  -9.9489  -9.9378  -9.2289  -7.2907  -7.2746
    -1.8187  -1.7973   0.2144   0.9920

          k = 0.5000-0.2887 0.0000 ( 42716 PWs)   bands (ev):

   -22.4074 -22.3981 -19.6044 -19.5901 -14.9289 -14.9087 -13.5156 -13.5075
   -11.9123 -11.9019 -10.4636 -10.4557  -9.6059  -9.5893  -7.3073  -7.2912
    -1.7565  -1.7351   0.7434   1.5187

          k = 0.1429 0.0000 0.0000 ( 42673 PWs)   bands (ev):

   -23.7699 -19.3392 -19.3190 -18.5223 -17.6162 -16.8447 -16.8249 -12.0831
   -11.3607 -11.0024 -10.9874  -7.9683  -7.7768  -7.2880  -7.2742  -6.8059
    -2.9348  -2.4337  -2.4207  -1.1318

          k =-0.1429 0.1650 0.0000 ( 42662 PWs)   bands (ev):

   -23.6501 -19.9832 -19.5972 -18.5595 -17.3859 -16.3697 -16.0078 -11.9393
   -11.7814 -11.2405 -10.8759  -8.3851  -8.0432  -7.8308  -7.4722  -6.7082
    -2.9320  -2.0924  -1.6969  -0.9685

          k = 0.2143 0.0412 0.0000 ( 42662 PWs)   bands (ev):

   -23.6502 -19.9832 -19.5968 -18.5642 -17.3727 -16.3786 -16.0075 -11.9392
   -11.7932 -11.2283 -10.8761  -8.4017  -8.0261  -7.8313  -7.4643  -6.7205
    -2.9122  -2.1075  -1.6957  -0.9684

          k =-0.2143 0.2062 0.0000 ( 42702 PWs)   bands (ev):

   -23.4708 -20.6035 -19.8169 -18.7079 -16.9440 -15.8723 -15.1318 -12.3117
   -11.7243 -11.6099 -10.7000  -8.9949  -8.4464  -8.3673  -7.6342  -6.6693
    -2.8235  -1.7552  -0.8176  -0.7235

          k = 0.2857 0.0825 0.0000 ( 42702 PWs)   bands (ev):

   -23.4708 -20.6034 -19.8169 -18.7103 -16.9333 -15.8810 -15.1315 -12.3227
   -11.7241 -11.5982 -10.7004  -9.0054  -8.4469  -8.3563  -7.6283  -6.6796
    -2.8065  -1.7675  -0.8162  -0.7234

          k =-0.2857 0.2474 0.0000 ( 42721 PWs)   bands (ev):

   -23.2322 -21.1772 -19.9843 -18.8479 -16.4305 -15.3517 -14.2253 -12.8934
   -12.0684 -11.4393 -10.4697  -9.7335  -9.0624  -8.7383  -7.7647  -6.6623
    -2.6710  -1.4386  -0.3970   0.1346

          k = 0.3571 0.1237 0.0000 ( 42721 PWs)   bands (ev):

   -23.2323 -21.1771 -19.9844 -18.8490 -16.4211 -15.3600 -14.2247 -12.9036
   -12.0576 -11.4391 -10.4704  -9.7401  -9.0628  -8.7313  -7.7606  -6.6700
    -2.6580  -1.4478  -0.3969   0.1362

          k =-0.3571 0.2887 0.0000 ( 42718 PWs)   bands (ev):

   -22.9350 -21.6995 -20.0969 -18.9483 -15.9068 -14.8426 -13.4699 -13.3005
   -12.5529 -11.0860 -10.5632 -10.1890  -9.6474  -9.1262  -7.8556  -6.6700
    -2.5260  -1.1885   0.0109   0.7863

          k = 0.4286 0.1650 0.0000 ( 42718 PWs)   bands (ev):

   -22.9351 -21.6994 -20.0970 -18.9488 -15.8988 -14.8502 -13.4786 -13.2995
   -12.5438 -11.0858 -10.5673 -10.1903  -9.6478  -9.1216  -7.8531  -6.6747
    -2.5178  -1.1942   0.0109   0.7863

          k =-0.4286 0.3299 0.0000 ( 42718 PWs)   bands (ev):

   -22.5798 -22.1675 -20.1535 -19.0000 -15.4894 -14.4528 -13.9166 -12.9355
   -12.3711 -11.4504 -10.6669 -10.1852  -9.8650  -9.5078  -7.9018  -6.6783
    -2.4369  -1.0496   0.4997   1.2782

          k = 0.5000 0.2062 0.0000 ( 42718 PWs)   bands (ev):

   -22.5799 -22.1674 -20.1535 -19.0002 -15.4852 -14.4567 -13.9210 -12.9311
   -12.3694 -11.4530 -10.6666 -10.1855  -9.8668  -9.5048  -7.9010  -6.6799
    -2.4341  -1.0515   0.4997   1.2766

          k = 0.2857 0.0000 0.0000 ( 42695 PWs)   bands (ev):

   -23.5007 -20.2453 -20.2256 -18.2948 -17.3883 -15.5399 -15.5182 -12.3545
   -11.7598 -11.0874 -11.0710  -8.8776  -8.3396  -8.0675  -8.0527  -6.4776
    -3.0451  -1.3039  -1.2901  -0.7642

          k =-0.2143 0.2887 0.0000 ( 42723 PWs)   bands (ev):

   -23.2918 -20.8326 -20.4335 -18.2520 -17.0976 -15.0146 -14.6444 -12.9612
   -11.5104 -11.4281 -10.8720  -9.4749  -8.7475  -8.6805  -8.2494  -6.2764
    -3.1173  -0.9064  -0.4785  -0.3893

          k = 0.3571 0.0412 0.0000 ( 42723 PWs)   bands (ev):

   -23.2919 -20.8325 -20.4337 -18.2571 -17.0841 -15.0234 -14.6432 -12.9718
   -11.5101 -11.4163 -10.8733  -9.4925  -8.7289  -8.6815  -8.2455  -6.2881
    -3.0995  -0.9158  -0.4784  -0.3863

          k =-0.2857 0.3299 0.0000 ( 42709 PWs)   bands (ev):

   -23.0240 -21.3801 -20.5763 -18.3182 -16.6195 -14.5042 -13.7381 -13.5893
   -11.8447 -11.1916 -10.6118 -10.2129  -9.2832  -9.1581  -8.3845  -6.1507
    -3.1101  -0.5849  -0.1111   0.5649

          k = 0.4286 0.0825 0.0000 ( 42709 PWs)   bands (ev):

   -23.0242 -21.3799 -20.5765 -18.3207 -16.6088 -14.5126 -13.7363 -13.5989
   -11.8342 -11.1912 -10.6139 -10.2246  -9.2841  -9.1455  -8.3820  -6.1595
    -3.0967  -0.5915  -0.1111   0.5683

          k =-0.3571 0.3712 0.0000 ( 42732 PWs)   bands (ev):

   -22.6980 -21.8748 -20.6624 -18.3767 -16.1346 -14.1533 -14.0477 -12.8241
   -12.2563 -11.0365 -10.8057 -10.3014  -9.8454  -9.5662  -8.4667  -6.0826
    -3.0800  -0.3657   0.3373   1.1163

          k = 0.5000 0.1237 0.0000 ( 42732 PWs)   bands (ev):

   -22.6982 -21.8746 -20.6625 -18.3777 -16.1271 -14.1604 -14.0543 -12.8213
   -12.2486 -11.0439 -10.8052 -10.3048  -9.8462  -9.5580  -8.4654  -6.0873
    -3.0728  -0.3691   0.3374   1.1164

          k =-0.4286 0.4124 0.0000 ( 42732 PWs)   bands (ev):

   -22.3193 -22.3100 -20.6912 -18.3984 -15.8796 -14.4336 -13.8296 -12.4614
   -11.9224 -11.9111 -10.3593 -10.3515  -9.9586  -9.9416  -8.4939  -6.0630
    -3.0626  -0.2883   0.8668   1.6425

          k = 0.4286 0.0000 0.0000 ( 42703 PWs)   bands (ev):

   -23.0539 -21.0147 -20.9954 -17.9162 -17.0422 -14.1533 -14.1304 -13.6381
   -11.2263 -11.1850 -11.1668 -10.0777  -9.1870  -8.8684  -8.8532  -5.9333
    -3.3445  -0.1517  -0.0103   0.0045

          k =-0.2857 0.4124 0.0000 ( 42725 PWs)   bands (ev):

   -22.7572 -21.5256 -21.1203 -17.7964 -16.7396 -14.2595 -13.6532 -13.2567
   -11.5543 -10.8755 -10.8749 -10.7470  -9.6819  -9.4426  -8.9834  -5.6409
    -3.5461   0.2562   0.2977   0.9231

          k = 0.5000 0.0412 0.0000 ( 42725 PWs)   bands (ev):

   -22.7574 -21.5254 -21.1204 -17.8015 -16.7263 -14.2685 -13.6616 -13.2524
   -11.5444 -10.8793 -10.8747 -10.7636  -9.6644  -9.4440  -8.9819  -5.6513
    -3.5322   0.2563   0.2932   0.9286

          k =-0.3571 0.4536 0.0000 ( 42725 PWs)   bands (ev):

   -22.4029 -21.9921 -21.1784 -17.7908 -16.3764 -14.7316 -13.2980 -12.3809
   -11.8593 -11.5295 -10.5208 -10.4584 -10.1271  -9.9782  -9.0438  -5.4834
    -3.6471   0.4593   0.7453   1.5267

          k = 0.5714 0.0825 0.0000 ( 42725 PWs)   bands (ev):

   -22.4032 -21.9918 -21.1784 -17.7923 -16.3706 -14.7362 -13.3021 -12.3742
   -11.8544 -11.5403 -10.5285 -10.4574 -10.1153  -9.9793  -9.0433  -5.4876
    -3.6417   0.4577   0.7453   1.3146

          k = 0.5714 0.0000 0.0000 ( 42757 PWs)   bands (ev):

   -22.4327 -21.6221 -21.6031 -17.3877 -16.7446 -14.8301 -12.8422 -12.8190
   -11.3713 -11.1944 -11.1731 -10.4916 -10.2164  -9.5482  -9.5327  -5.1785
    -3.9516   0.7049   1.1663   1.1830

          k =-0.3571 0.5361 0.0000 ( 42743 PWs)   bands (ev):

   -22.0554 -22.0461 -21.6415 -17.2371 -16.7016 -15.0797 -12.6303 -12.0667
   -12.0490 -11.3482 -10.7499 -10.7286 -10.0496 -10.0417  -9.5729  -4.9023
    -4.2090   1.2336   1.2344   1.2641

     the Fermi energy is    -4.6898 ev

!    total energy              =    -142.56270848 Ry
     total all-electron energy =      -142.562708 Ry
     estimated scf accuracy    <          1.3E-17 Ry
     smearing contrib. (-TS)   =       0.00021277 Ry
     internal energy E=F+TS    =    -142.56292126 Ry

     The total energy is F=E-TS. E is the sum of the following terms:
     one-electron contribution =   -1252.07791668 Ry
     hartree contribution      =     629.42527916 Ry
     xc contribution           =     -35.58516251 Ry
     ewald contribution        =     561.48218807 Ry
     one-center paw contrib.   =     -45.80730929 Ry

     convergence has been achieved in  18 iterations

     negative rho (up, down):  1.819E-04 0.000E+00

     Forces acting on atoms (cartesian axes, Ry/au):

     atom    1 type  1   force =     0.00000000    0.00490964    0.00000000
     atom    2 type  1   force =     0.00000000   -0.01182704    0.00000000
     atom    3 type  1   force =     0.00000000    0.00015948    0.00000000
     atom    4 type  1   force =     0.00000000   -0.00076111    0.00000000
     atom    5 type  1   force =    -0.00143476    0.00255487    0.00000000
     atom    6 type  1   force =    -0.00113537    0.00120465    0.00000000
     atom    7 type  1   force =     0.00143476    0.00255487    0.00000000
     atom    8 type  1   force =     0.00113537    0.00120465    0.00000000

     Total force =     0.013684     Total SCF correction =     0.000000

     Writing all to output data dir ./scratch_runs/atom02_y_plus/graphene_sup.save/ :
     XML data file, charge density, pseudopotentials, collected wavefunctions
 
     init_run     :      2.95s CPU      3.04s WALL (       1 calls)
     electrons    :     48.04s CPU     48.44s WALL (       1 calls)
     forces       :      0.32s CPU      0.33s WALL (       1 calls)

     Called by init_run:
     wfcinit      :      2.79s CPU      2.85s WALL (       1 calls)
     potinit      :      0.02s CPU      0.02s WALL (       1 calls)
     hinit0       :      0.04s CPU      0.04s WALL (       1 calls)

     Called by electrons:
     c_bands      :     40.10s CPU     40.38s WALL (      18 calls)
     sum_band     :      7.42s CPU      7.52s WALL (      18 calls)
     v_of_rho     :      0.06s CPU      0.06s WALL (      19 calls)
     newd         :      0.21s CPU      0.23s WALL (      19 calls)
     PAW_pot      :      0.15s CPU      0.16s WALL (      19 calls)
     mix_rho      :      0.10s CPU      0.10s WALL (      18 calls)

     Called by c_bands:
     init_us_2    :      1.94s CPU      1.96s WALL (    2166 calls)
     cegterg      :     36.79s CPU     37.06s WALL (    1026 calls)

     Called by *egterg:
     cdiaghg      :      1.11s CPU      1.12s WALL (    3745 calls)
     h_psi        :     29.98s CPU     30.26s WALL (    3802 calls)
     s_psi        :      1.70s CPU      1.70s WALL (    3802 calls)
     g_psi        :      0.17s CPU      0.17s WALL (    2719 calls)

     Called by h_psi:
     h_psi:calbec :      2.21s CPU      2.24s WALL (    3802 calls)
     vloc_psi     :     25.29s CPU     25.51s WALL (    3802 calls)
     add_vuspsi   :      2.01s CPU      2.03s WALL (    3802 calls)

     General routines
     calbec       :      3.06s CPU      3.10s WALL (    5056 calls)
     fft          :      0.04s CPU      0.04s WALL (      80 calls)
     ffts         :      0.01s CPU      0.01s WALL (      18 calls)
     fftw         :     23.21s CPU     23.44s WALL (  130770 calls)
 
     Parallel routines
 
     PWSCF        :     51.58s CPU     52.46s WALL

 
   This run was terminated on:  13: 1:30  12May2026            

=------------------------------------------------------------------------------=
   JOB DONE.
=------------------------------------------------------------------------------=

===== TIMING =====
Job:           atom02_y_plus
Start:         2026-05-12T13:00:36+02:00
End:           2026-05-12T13:01:30+02:00
Duration (s):  54
Duration (H:M:S): 00:00:54
==================
