
     Program PWSCF v.7.4 starts on 12May2026 at 12:54:53 

     This program is part of the open-source Quantum ESPRESSO suite
     for quantum simulation of materials; please cite
         "P. Giannozzi et al., J. Phys.:Condens. Matter 21 395502 (2009);
         "P. Giannozzi et al., J. Phys.:Condens. Matter 29 465901 (2017);
         "P. Giannozzi et al., J. Chem. Phys. 152 154105 (2020);
          URL http://www.quantum-espresso.org", 
     in publications or presentations arising from this work. More details at
     http://www.quantum-espresso.org/quote

     Parallel version (MPI), running on    12 processors

     MPI processes distributed on     1 nodes
     171482 MiB available memory on the printing compute node when the environment starts
 
     Reading input from ./scratch_runs/atom01_y_plus/atom01_y_plus.in

     Current dimensions of program PWSCF are:
     Max number of different atomic species (ntypx) = 10
     Max number of k-points (npk) =  40000
     Max angular momentum in pseudopotentials (lmaxx) =  4
read_pp_mesh; mismatch in mesh size, discarding the one in header
     Message from routine setup:
     using ibrav=0 with symmetry is DISCOURAGED, use correct ibrav instead
 
     R & G space division:  proc/nbgrp/npool/nimage =      12
     Subspace diagonalization in iterative solution of the eigenvalue problem:
     a serial algorithm will be used

 
     Parallelization info
     --------------------
     sticks:   dense  smooth     PW     G-vecs:    dense   smooth      PW
     Min         199     199     54                28481    28481    4042
     Max         200     200     55                28494    28494    4059
     Sum        2395    2395    649               341861   341861   48543
 
     Using Slab Decomposition
 


     bravais-lattice index     =            0
     lattice parameter (alat)  =       9.3176  a.u.
     unit-cell volume          =    2529.0393 (a.u.)^3
     number of atoms/cell      =            8
     number of atomic types    =            1
     number of electrons       =        32.00
     number of Kohn-Sham states=           20
     kinetic-energy cutoff     =     100.0000  Ry
     charge density cutoff     =     400.0000  Ry
     scf convergence threshold =      1.0E-16
     mixing beta               =       0.7000
     number of iterations used =            8  plain     mixing
     Exchange-correlation= SLA PW NOGX NOGC
                           (   1   4   0   0   0   0   0)

     celldm(1)=   9.317578  celldm(2)=   0.000000  celldm(3)=   0.000000
     celldm(4)=   0.000000  celldm(5)=   0.000000  celldm(6)=   0.000000

     crystal axes: (cart. coord. in units of alat)
               a(1) = (   1.000000   0.000000   0.000000 )  
               a(2) = (  -0.500000   0.866025   0.000000 )  
               a(3) = (   0.000000   0.000000   3.610072 )  

     reciprocal axes: (cart. coord. in units 2 pi/alat)
               b(1) = (  1.000000  0.577350  0.000000 )  
               b(2) = (  0.000000  1.154701  0.000000 )  
               b(3) = (  0.000000  0.000000  0.277003 )  


     PseudoPot. # 1 for C  read from file:
     ./C.upf
     MD5 check sum: 1b594deb0bcc8b4bffb8cfaf75c62b92
     Pseudo is Projector augmented-wave + core cor, Zval =  4.0
     Generated using ATOMPAW code
     Shape of augmentation charge: SINC**2
     Using radial grid of 2342 points,  4 beta functions with: 
                l(1) =   0
                l(2) =   0
                l(3) =   1
                l(4) =   1
     Q(r) pseudized with 0 coefficients 


     atomic species   valence    mass     pseudopotential
     C                 4.00    12.01070     C ( 1.00)

      4 Sym. Ops. (no inversion) found



   Cartesian axes

     site n.     atom                  positions (alat units)
         1        C      tau(   1) = (   0.0000000   0.0010141   1.8050358  )
         2        C      tau(   2) = (   0.0000004   0.2886749   1.8050358  )
         3        C      tau(   3) = (   0.5000000   0.0000000   1.8050358  )
         4        C      tau(   4) = (   0.5000004   0.2886749   1.8050358  )
         5        C      tau(   5) = (  -0.2499999   0.4330127   1.8050358  )
         6        C      tau(   6) = (  -0.2499995   0.7216876   1.8050358  )
         7        C      tau(   7) = (   0.2499999   0.4330127   1.8050358  )
         8        C      tau(   8) = (   0.2500005   0.7216876   1.8050358  )

     number of k points=    57  Marzari-Vanderbilt smearing, width (Ry)=  0.0200
                       cart. coord. in units 2pi/alat
        k(    1) = (   0.0000000   0.0000000   0.0000000), wk =   0.0102041
        k(    2) = (   0.0000000   0.0824786   0.0000000), wk =   0.0204082
        k(    3) = (   0.0000000   0.1649572   0.0000000), wk =   0.0204082
        k(    4) = (   0.0000000   0.2474358   0.0000000), wk =   0.0204082
        k(    5) = (   0.0000000   0.3299144   0.0000000), wk =   0.0204082
        k(    6) = (   0.0000000   0.4123930   0.0000000), wk =   0.0204082
        k(    7) = (   0.0000000   0.4948717   0.0000000), wk =   0.0204082
        k(    8) = (   0.0000000  -0.5773503   0.0000000), wk =   0.0102041
        k(    9) = (   0.0714286   0.1237179   0.0000000), wk =   0.0408163
        k(   10) = (   0.0714286   0.2061965   0.0000000), wk =   0.0408163
        k(   11) = (   0.0714286   0.2886751   0.0000000), wk =   0.0408163
        k(   12) = (   0.0714286   0.3711537   0.0000000), wk =   0.0408163
        k(   13) = (   0.0714286   0.4536324   0.0000000), wk =   0.0408163
        k(   14) = (   0.0714286   0.5361110   0.0000000), wk =   0.0408163
        k(   15) = (   0.1428571   0.2474358   0.0000000), wk =   0.0408163
        k(   16) = (   0.1428571   0.3299144   0.0000000), wk =   0.0408163
        k(   17) = (   0.1428571   0.4123930   0.0000000), wk =   0.0408163
        k(   18) = (   0.1428571   0.4948717   0.0000000), wk =   0.0408163
        k(   19) = (   0.1428571   0.5773503   0.0000000), wk =   0.0204082
        k(   20) = (   0.2142857   0.3711537   0.0000000), wk =   0.0408163
        k(   21) = (   0.2142857   0.4536324   0.0000000), wk =   0.0408163
        k(   22) = (   0.2142857   0.5361110   0.0000000), wk =   0.0408163
        k(   23) = (   0.2857143   0.4948717   0.0000000), wk =   0.0408163
        k(   24) = (   0.2857143   0.5773503   0.0000000), wk =   0.0204082
        k(   25) = (  -0.0714286   0.0412393   0.0000000), wk =   0.0408163
        k(   26) = (  -0.1428571   0.0824786   0.0000000), wk =   0.0408163
        k(   27) = (  -0.2142857   0.1237179   0.0000000), wk =   0.0408163
        k(   28) = (  -0.2857143   0.1649572   0.0000000), wk =   0.0408163
        k(   29) = (  -0.3571429   0.2061965   0.0000000), wk =   0.0408163
        k(   30) = (  -0.4285714   0.2474358   0.0000000), wk =   0.0408163
        k(   31) = (   0.5000000  -0.2886751   0.0000000), wk =   0.0204082
        k(   32) = (   0.1428571   0.0000000   0.0000000), wk =   0.0204082
        k(   33) = (  -0.1428571   0.1649572   0.0000000), wk =   0.0408163
        k(   34) = (   0.2142857   0.0412393   0.0000000), wk =   0.0408163
        k(   35) = (  -0.2142857   0.2061965   0.0000000), wk =   0.0408163
        k(   36) = (   0.2857143   0.0824786   0.0000000), wk =   0.0408163
        k(   37) = (  -0.2857143   0.2474358   0.0000000), wk =   0.0408163
        k(   38) = (   0.3571429   0.1237179   0.0000000), wk =   0.0408163
        k(   39) = (  -0.3571429   0.2886751   0.0000000), wk =   0.0408163
        k(   40) = (   0.4285714   0.1649572   0.0000000), wk =   0.0408163
        k(   41) = (  -0.4285714   0.3299144   0.0000000), wk =   0.0408163
        k(   42) = (   0.5000000   0.2061965   0.0000000), wk =   0.0408163
        k(   43) = (   0.2857143   0.0000000   0.0000000), wk =   0.0204082
        k(   44) = (  -0.2142857   0.2886751   0.0000000), wk =   0.0408163
        k(   45) = (   0.3571429   0.0412393   0.0000000), wk =   0.0408163
        k(   46) = (  -0.2857143   0.3299144   0.0000000), wk =   0.0408163
        k(   47) = (   0.4285714   0.0824786   0.0000000), wk =   0.0408163
        k(   48) = (  -0.3571429   0.3711537   0.0000000), wk =   0.0408163
        k(   49) = (   0.5000000   0.1237179   0.0000000), wk =   0.0408163
        k(   50) = (  -0.4285714   0.4123930   0.0000000), wk =   0.0408163
        k(   51) = (   0.4285714   0.0000000   0.0000000), wk =   0.0204082
        k(   52) = (  -0.2857143   0.4123930   0.0000000), wk =   0.0408163
        k(   53) = (   0.5000000   0.0412393   0.0000000), wk =   0.0408163
        k(   54) = (  -0.3571429   0.4536324   0.0000000), wk =   0.0408163
        k(   55) = (   0.5714286   0.0824786   0.0000000), wk =   0.0408163
        k(   56) = (   0.5714286   0.0000000   0.0000000), wk =   0.0204082
        k(   57) = (  -0.3571429   0.5361110   0.0000000), wk =   0.0408163

     Dense  grid:   341861 G-vectors     FFT dimensions: (  60,  60, 216)

     Estimated max dynamical RAM per process >     111.71 MB

     Estimated total dynamical RAM >       1.31 GB
 ----2D----2D----2D----2D----2D----2D----2D----2D----2D----2D----2D----2D
  The code is running with the 2D cutoff
  Please refer to:
  Sohier, T., Calandra, M., & Mauri, F. (2017), 
  Density functional perturbation theory for gated two-dimensional heterostructu
 res:
  Theoretical developments and application to flexural phonons in graphene.
  Physical Review B, 96(7), 75448. https://doi.org/10.1103/PhysRevB.96.075448
 ----2D----2D----2D----2D----2D----2D----2D----2D----2D----2D----2D----2D

     Check: negative core charge=   -0.000011

     Initial potential from superposition of free atoms

     starting charge      31.9997, renormalised to      32.0000

     negative rho (up, down):  1.837E-05 0.000E+00
     Starting wfcs are   64 randomized atomic wfcs
     Checking if some PAW data can be deallocated... 

     total cpu time spent up to now is        3.1 secs

     per-process dynamical memory:   136.7 Mb

     Self-consistent Calculation

     iteration #  1     ecut=   100.00 Ry     beta= 0.70
     Davidson diagonalization with overlap
     ethr =  1.00E-02,  avg # of iterations =  2.1

     negative rho (up, down):  1.016E-04 0.000E+00

     total cpu time spent up to now is        6.1 secs

     total energy              =    -142.44934097 Ry
     estimated scf accuracy    <       0.78480743 Ry

     iteration #  2     ecut=   100.00 Ry     beta= 0.70
     Davidson diagonalization with overlap
     ethr =  2.45E-03,  avg # of iterations =  3.0

     negative rho (up, down):  1.435E-04 0.000E+00

     total cpu time spent up to now is        8.9 secs

     total energy              =    -142.56126244 Ry
     estimated scf accuracy    <       0.00996443 Ry

     iteration #  3     ecut=   100.00 Ry     beta= 0.70
     Davidson diagonalization with overlap
     ethr =  3.11E-05,  avg # of iterations = 10.2

     negative rho (up, down):  1.740E-04 0.000E+00

     total cpu time spent up to now is       12.7 secs

     total energy              =    -142.56251039 Ry
     estimated scf accuracy    <       0.00070587 Ry

     iteration #  4     ecut=   100.00 Ry     beta= 0.70
     Davidson diagonalization with overlap
     c_bands:  1 eigenvalues not converged
     c_bands:  1 eigenvalues not converged
     c_bands:  3 eigenvalues not converged
     c_bands:  3 eigenvalues not converged
     ethr =  2.21E-06,  avg # of iterations =  5.8

     negative rho (up, down):  1.783E-04 0.000E+00

     total cpu time spent up to now is       16.2 secs

     total energy              =    -142.56263866 Ry
     estimated scf accuracy    <       0.00033704 Ry

     iteration #  5     ecut=   100.00 Ry     beta= 0.70
     Davidson diagonalization with overlap
     ethr =  1.05E-06,  avg # of iterations =  2.2

     negative rho (up, down):  1.801E-04 0.000E+00

     total cpu time spent up to now is       18.8 secs

     total energy              =    -142.56270519 Ry
     estimated scf accuracy    <       0.00000366 Ry

     iteration #  6     ecut=   100.00 Ry     beta= 0.70
     Davidson diagonalization with overlap
     ethr =  1.14E-08,  avg # of iterations =  4.4

     negative rho (up, down):  1.817E-04 0.000E+00

     total cpu time spent up to now is       22.1 secs

     total energy              =    -142.56270778 Ry
     estimated scf accuracy    <       0.00000114 Ry

     iteration #  7     ecut=   100.00 Ry     beta= 0.70
     Davidson diagonalization with overlap
     ethr =  3.57E-09,  avg # of iterations =  2.0

     negative rho (up, down):  1.819E-04 0.000E+00

     total cpu time spent up to now is       24.7 secs

     total energy              =    -142.56270790 Ry
     estimated scf accuracy    <       0.00000018 Ry

     iteration #  8     ecut=   100.00 Ry     beta= 0.70
     Davidson diagonalization with overlap
     ethr =  5.57E-10,  avg # of iterations =  2.4

     negative rho (up, down):  1.819E-04 0.000E+00

     total cpu time spent up to now is       27.6 secs

     total energy              =    -142.56270794 Ry
     estimated scf accuracy    <          9.1E-09 Ry

     iteration #  9     ecut=   100.00 Ry     beta= 0.70
     Davidson diagonalization with overlap
     ethr =  2.85E-11,  avg # of iterations =  3.0

     negative rho (up, down):  1.819E-04 0.000E+00

     total cpu time spent up to now is       30.5 secs

     total energy              =    -142.56270795 Ry
     estimated scf accuracy    <          6.1E-09 Ry

     iteration # 10     ecut=   100.00 Ry     beta= 0.70
     Davidson diagonalization with overlap
     ethr =  1.90E-11,  avg # of iterations =  2.0

     negative rho (up, down):  1.819E-04 0.000E+00

     total cpu time spent up to now is       33.2 secs

     total energy              =    -142.56270795 Ry
     estimated scf accuracy    <          6.2E-10 Ry

     iteration # 11     ecut=   100.00 Ry     beta= 0.70
     Davidson diagonalization with overlap
     ethr =  1.93E-12,  avg # of iterations =  2.3

     negative rho (up, down):  1.819E-04 0.000E+00

     total cpu time spent up to now is       35.8 secs

     total energy              =    -142.56270795 Ry
     estimated scf accuracy    <          5.4E-11 Ry

     iteration # 12     ecut=   100.00 Ry     beta= 0.70
     Davidson diagonalization with overlap
     ethr =  1.68E-13,  avg # of iterations =  2.6

     negative rho (up, down):  1.819E-04 0.000E+00

     total cpu time spent up to now is       38.6 secs

     total energy              =    -142.56270795 Ry
     estimated scf accuracy    <          2.4E-12 Ry

     iteration # 13     ecut=   100.00 Ry     beta= 0.70
     Davidson diagonalization with overlap
     ethr =  1.00E-13,  avg # of iterations =  1.0

     negative rho (up, down):  1.819E-04 0.000E+00

     total cpu time spent up to now is       40.7 secs

     total energy              =    -142.56270795 Ry
     estimated scf accuracy    <          3.1E-13 Ry

     iteration # 14     ecut=   100.00 Ry     beta= 0.70
     Davidson diagonalization with overlap
     ethr =  1.00E-13,  avg # of iterations =  1.0

     negative rho (up, down):  1.819E-04 0.000E+00

     total cpu time spent up to now is       42.9 secs

     total energy              =    -142.56270795 Ry
     estimated scf accuracy    <          6.0E-14 Ry

     iteration # 15     ecut=   100.00 Ry     beta= 0.70
     Davidson diagonalization with overlap
     ethr =  1.00E-13,  avg # of iterations =  1.2

     negative rho (up, down):  1.819E-04 0.000E+00

     total cpu time spent up to now is       45.0 secs

     total energy              =    -142.56270795 Ry
     estimated scf accuracy    <          4.8E-14 Ry

     iteration # 16     ecut=   100.00 Ry     beta= 0.70
     Davidson diagonalization with overlap
     ethr =  1.00E-13,  avg # of iterations =  1.0

     negative rho (up, down):  1.819E-04 0.000E+00

     total cpu time spent up to now is       47.2 secs

     total energy              =    -142.56270795 Ry
     estimated scf accuracy    <          1.9E-14 Ry

     iteration # 17     ecut=   100.00 Ry     beta= 0.70
     Davidson diagonalization with overlap
     ethr =  1.00E-13,  avg # of iterations =  1.0

     negative rho (up, down):  1.819E-04 0.000E+00

     total cpu time spent up to now is       49.3 secs

     total energy              =    -142.56270795 Ry
     estimated scf accuracy    <          2.4E-16 Ry

     iteration # 18     ecut=   100.00 Ry     beta= 0.70
     Davidson diagonalization with overlap
     ethr =  1.00E-13,  avg # of iterations =  1.0

     negative rho (up, down):  1.819E-04 0.000E+00

     total cpu time spent up to now is       51.4 secs

     End of self-consistent calculation

          k = 0.0000 0.0000 0.0000 ( 42713 PWs)   bands (ev):

   -23.8598 -18.6078 -18.5869 -18.5867 -17.7152 -17.7048 -17.6929 -12.1913
   -10.9784 -10.9670 -10.9554  -7.6165  -7.5790  -6.9190  -6.9049  -6.8972
    -2.9393  -2.9236  -2.9104  -1.2542

          k = 0.0000 0.0825 0.0000 ( 42729 PWs)   bands (ev):

   -23.8299 -19.0234 -18.7244 -18.7098 -17.5323 -17.5250 -17.2363 -12.1552
   -11.0702 -11.0562 -10.9284  -7.7376  -7.6451  -7.0911  -6.9404  -6.9278
    -2.8672  -2.8550  -2.6990  -1.2134

          k = 0.0000 0.1650 0.0000 ( 42685 PWs)   bands (ev):

   -23.7400 -19.6791 -18.9513 -18.9405 -17.1539 -17.1506 -16.4493 -12.0471
   -11.3331 -11.3198 -10.8393  -8.0873  -7.8330  -7.5646  -7.0016  -6.9893
    -2.7092  -2.6973  -2.0864  -1.0909

          k = 0.0000 0.2474 0.0000 ( 42730 PWs)   bands (ev):

   -23.5904 -20.3197 -19.1727 -19.1641 -16.6884 -16.6875 -15.5926 -11.8674
   -11.7341 -11.7221 -10.6920  -8.6311  -8.1593  -8.1164  -7.0844  -7.0727
    -2.4796  -2.4683  -1.2652  -0.8868

          k = 0.0000 0.3299 0.0000 ( 42674 PWs)   bands (ev):

   -23.3813 -20.9180 -19.3560 -19.3486 -16.1768 -16.1761 -14.6974 -12.2296
   -12.2189 -11.6170 -10.4890  -9.3249  -8.7810  -8.4623  -7.1698  -7.1588
    -2.2205  -2.2096  -0.6010  -0.3376

          k = 0.0000 0.4124 0.0000 ( 42690 PWs)   bands (ev):

   -23.1133 -21.4667 -19.4908 -19.4840 -15.6479 -15.6461 -13.7771 -12.7679
   -12.7586 -11.2973 -10.2342 -10.1261  -9.3848  -8.8397  -7.2420  -7.2314
    -1.9806  -1.9700  -0.2339   0.5385

          k = 0.0000 0.4949 0.0000 ( 42704 PWs)   bands (ev):

   -22.7870 -21.9623 -19.5728 -19.5663 -15.1605 -15.1581 -13.2699 -13.2609
   -12.8436 -10.9981 -10.9104  -9.9482  -9.9329  -9.2226  -7.2895  -7.2792
    -1.8096  -1.7990   0.2145   0.9921

          k = 0.0000-0.5774 0.0000 ( 42716 PWs)   bands (ev):

   -22.4122 -22.3936 -19.6003 -19.5939 -14.9157 -14.9132 -13.5207 -13.5120
   -11.9217 -11.9013 -10.4671 -10.4512  -9.6083  -9.5757  -7.3061  -7.2959
    -1.7473  -1.7368   0.7427   0.7442

          k = 0.0714 0.1237 0.0000 ( 42673 PWs)   bands (ev):

   -23.7699 -19.3344 -19.3241 -18.5200 -17.6213 -16.8400 -16.8265 -12.0831
   -11.3566 -11.0044 -10.9896  -7.9607  -7.7846  -7.2888  -7.2764  -6.8016
    -2.9418  -2.4342  -2.4147  -1.1317

          k = 0.0714 0.2062 0.0000 ( 42662 PWs)   bands (ev):

   -23.6502 -19.9832 -19.5971 -18.5627 -17.3770 -16.3726 -16.0106 -11.9392
   -11.7893 -11.2365 -10.8718  -8.4000  -8.0278  -7.8286  -7.4699  -6.7166
    -2.9184  -2.0968  -1.7013  -0.9684

          k = 0.0714 0.2887 0.0000 ( 42702 PWs)   bands (ev):

   -23.4708 -20.6036 -19.8169 -18.7095 -16.9366 -15.8750 -15.1347 -12.3193
   -11.7241 -11.6063 -10.6958  -9.0068  -8.4449  -8.3547  -7.6328  -6.6767
    -2.8112  -1.7582  -0.8210  -0.7234

          k = 0.0714 0.3712 0.0000 ( 42721 PWs)   bands (ev):

   -23.2323 -21.1773 -19.9842 -18.8486 -16.4237 -15.3538 -14.2283 -12.9008
   -12.0655 -11.4390 -10.4654  -9.7430  -9.0614  -8.7280  -7.7641  -6.6684
    -2.6606  -1.4399  -0.3969   0.1319

          k = 0.0714 0.4536 0.0000 ( 42718 PWs)   bands (ev):

   -22.9351 -21.6995 -20.0968 -18.9486 -15.9002 -14.8436 -13.4773 -13.3036
   -12.5516 -11.0856 -10.5705 -10.1851  -9.6467  -9.1175  -7.8557  -6.6745
    -2.5180  -1.1879   0.0109   0.7864

          k = 0.0714 0.5361 0.0000 ( 42718 PWs)   bands (ev):

   -22.5801 -22.1674 -20.1533 -19.0001 -15.4835 -14.4506 -13.9228 -12.9381
   -12.3744 -11.4564 -10.6664 -10.1847  -9.8612  -9.5000  -7.9027  -6.6812
    -2.4316  -1.0470   0.4997   1.0688

          k = 0.1429 0.2474 0.0000 ( 42695 PWs)   bands (ev):

   -23.5007 -20.2404 -20.2305 -18.2924 -17.3935 -15.5348 -15.5206 -12.3507
   -11.7599 -11.0890 -11.0734  -8.8698  -8.3478  -8.0657  -8.0560  -6.4733
    -3.0518  -1.3035  -1.2874  -0.7642

          k = 0.1429 0.3299 0.0000 ( 42723 PWs)   bands (ev):

   -23.2919 -20.8326 -20.4336 -18.2555 -17.0883 -15.0170 -14.6471 -12.9684
   -11.5101 -11.4247 -10.8683  -9.4891  -8.7324  -8.6796  -8.2487  -6.2847
    -3.1047  -0.9081  -0.4784  -0.3916

          k = 0.1429 0.4124 0.0000 ( 42709 PWs)   bands (ev):

   -23.0242 -21.3801 -20.5763 -18.3199 -16.6117 -14.5059 -13.7409 -13.5962
   -11.8425 -11.1912 -10.6082 -10.2243  -9.2827  -9.1457  -8.3844  -6.1576
    -3.0995  -0.5850  -0.1111   0.5635

          k = 0.1429 0.4949 0.0000 ( 42732 PWs)   bands (ev):

   -22.6982 -21.8748 -20.6623 -18.3775 -16.1279 -14.1597 -14.0474 -12.8268
   -12.2567 -11.0452 -10.8052 -10.2984  -9.8451  -9.5561  -8.4672  -6.0876
    -3.0724  -0.3640   0.3374   1.1166

          k = 0.1429 0.5774 0.0000 ( 42732 PWs)   bands (ev):

   -22.3240 -22.3053 -20.6910 -18.3986 -15.8757 -14.4374 -13.8247 -12.4670
   -11.9313 -11.9111 -10.3629 -10.3471  -9.9605  -9.9289  -8.4950  -6.0656
    -3.0586  -0.2849   0.8658   0.8674

          k = 0.2143 0.3712 0.0000 ( 42703 PWs)   bands (ev):

   -23.0538 -21.0099 -21.0002 -17.9137 -17.0477 -14.1488 -14.1326 -13.6345
   -11.2266 -11.1862 -11.1687 -10.0706  -9.1946  -8.8653  -8.8567  -5.9291
    -3.3505  -0.1517  -0.0096   0.0046

          k = 0.2143 0.4536 0.0000 ( 42725 PWs)   bands (ev):

   -22.7574 -21.5255 -21.1203 -17.8001 -16.7300 -14.2660 -13.6540 -13.2585
   -11.5532 -10.8749 -10.8723 -10.7601  -9.6681  -9.4425  -8.9836  -5.6488
    -3.5355   0.2563   0.2985   0.9232

          k = 0.2143 0.5361 0.0000 ( 42725 PWs)   bands (ev):

   -22.4033 -21.9919 -21.1783 -17.7924 -16.3701 -14.7367 -13.2952 -12.3820
   -11.8622 -11.5392 -10.5202 -10.4577 -10.1156  -9.9782  -9.0444  -5.4885
    -3.6404   0.4618   0.7453   1.3147

          k = 0.2857 0.4949 0.0000 ( 42757 PWs)   bands (ev):

   -22.4326 -21.6174 -21.6079 -17.3849 -16.7499 -14.8273 -12.8410 -12.8208
   -11.3656 -11.1941 -11.1724 -10.4920 -10.2232  -9.5444  -9.5362  -5.1744
    -3.9565   0.7049   1.1673   1.1804

          k = 0.2857 0.5774 0.0000 ( 42743 PWs)   bands (ev):

   -22.0602 -22.0413 -21.6415 -17.2390 -16.6982 -15.0813 -12.6245 -12.0726
   -12.0513 -11.3541 -10.7492 -10.7209 -10.0531 -10.0374  -9.5737  -4.9060
    -4.2049   1.2333   1.2349   1.2672

          k =-0.0714 0.0412 0.0000 ( 42729 PWs)   bands (ev):

   -23.8299 -19.0255 -18.7212 -18.7083 -17.5434 -17.5269 -17.2258 -12.1552
   -11.0644 -11.0497 -10.9407  -7.7160  -7.6668  -7.1027  -6.9348  -6.9202
    -2.8827  -2.8608  -2.6793  -1.2134

          k =-0.1429 0.0825 0.0000 ( 42685 PWs)   bands (ev):

   -23.7399 -19.6793 -18.9519 -18.9379 -17.1662 -17.1490 -16.4405 -12.0471
   -11.3277 -11.3127 -10.8521  -8.0627  -7.8582  -7.5731  -6.9968  -6.9817
    -2.7248  -2.7028  -2.0700  -1.0909

          k =-0.2143 0.1237 0.0000 ( 42730 PWs)   bands (ev):

   -23.5903 -20.3193 -19.1753 -19.1609 -16.7018 -16.6842 -15.5838 -11.8676
   -11.7293 -11.7142 -10.7053  -8.6082  -8.1652  -8.1404  -7.0804  -7.0649
    -2.4954  -2.4735  -1.2516  -0.8868

          k =-0.2857 0.1650 0.0000 ( 42674 PWs)   bands (ev):

   -23.3812 -20.9175 -19.3596 -19.3452 -16.1909 -16.1728 -14.6879 -12.2248
   -12.2099 -11.6173 -10.5030  -9.3045  -8.7852  -8.4845  -7.1667  -7.1509
    -2.2366  -2.2148  -0.6011  -0.3262

          k =-0.3571 0.2062 0.0000 ( 42690 PWs)   bands (ev):

   -23.1131 -21.4662 -19.4949 -19.4805 -15.6630 -15.6442 -13.7665 -12.7622
   -12.7481 -11.2979 -10.2494 -10.1078  -9.3877  -8.8600  -7.2394  -7.2234
    -1.9970  -1.9754  -0.2339   0.6476

          k =-0.4286 0.2474 0.0000 ( 42704 PWs)   bands (ev):

   -22.7866 -21.9619 -19.5772 -19.5628 -15.1787 -15.1590 -13.2602 -13.2483
   -12.8318 -10.9826 -10.9113  -9.9503  -9.9483  -9.2413  -7.2873  -7.2712
    -1.8261  -1.8047   0.2144   0.9919

          k = 0.5000-0.2887 0.0000 ( 42716 PWs)   bands (ev):

   -22.4072 -22.3978 -19.6048 -19.5904 -14.9374 -14.9171 -13.5062 -13.4979
   -11.9032 -11.8929 -10.4645 -10.4566  -9.6169  -9.6010  -7.3040  -7.2878
    -1.7639  -1.7425   0.7436   1.5183

          k = 0.1429 0.0000 0.0000 ( 42673 PWs)   bands (ev):

   -23.7699 -19.3398 -19.3195 -18.5129 -17.6368 -16.8386 -16.8188 -12.0832
   -11.3444 -11.0108 -10.9957  -7.9323  -7.8134  -7.2943  -7.2803  -6.7885
    -2.9629  -2.4227  -2.4095  -1.1317

          k =-0.1429 0.1650 0.0000 ( 42662 PWs)   bands (ev):

   -23.6501 -19.9828 -19.5971 -18.5627 -17.3772 -16.3815 -16.0018 -11.9392
   -11.7890 -11.2238 -10.8849  -8.3887  -8.0395  -7.8360  -7.4612  -6.7160
    -2.9194  -2.1138  -1.6859  -0.9684

          k = 0.2143 0.0412 0.0000 ( 42662 PWs)   bands (ev):

   -23.6501 -19.9831 -19.5971 -18.5580 -17.3902 -16.3730 -16.0019 -11.9393
   -11.7775 -11.2361 -10.8845  -8.3710  -8.0578  -7.8355  -7.4689  -6.7037
    -2.9392  -2.0988  -1.6870  -0.9685

          k =-0.2143 0.2062 0.0000 ( 42702 PWs)   bands (ev):

   -23.4708 -20.6030 -19.8172 -18.7096 -16.9371 -15.8842 -15.1255 -12.3185
   -11.7243 -11.5935 -10.7095  -8.9918  -8.4501  -8.3708  -7.6253  -6.6752
    -2.8139  -1.7740  -0.8080  -0.7234

          k = 0.2857 0.0825 0.0000 ( 42702 PWs)   bands (ev):

   -23.4707 -20.6032 -19.8171 -18.7073 -16.9477 -15.8758 -15.1258 -12.3077
   -11.7244 -11.6051 -10.7089  -8.9811  -8.4497  -8.3820  -7.6312  -6.6649
    -2.8308  -1.7617  -0.8093  -0.7235

          k =-0.2857 0.2474 0.0000 ( 42721 PWs)   bands (ev):

   -23.2322 -21.1767 -19.9848 -18.8488 -16.4251 -15.3640 -14.2180 -12.8990
   -12.0523 -11.4394 -10.4800  -9.7275  -9.0651  -8.7451  -7.7577  -6.6657
    -2.6655  -1.4546  -0.3969   0.1431

          k = 0.3571 0.1237 0.0000 ( 42721 PWs)   bands (ev):

   -23.2321 -21.1769 -19.9846 -18.8477 -16.4343 -15.3557 -14.2186 -12.8890
   -12.0630 -11.4396 -10.4792  -9.7210  -9.0646  -8.7522  -7.7619  -6.6580
    -2.6785  -1.4453  -0.3970   0.1415

          k =-0.3571 0.2887 0.0000 ( 42718 PWs)   bands (ev):

   -22.9349 -21.6990 -20.0974 -18.9488 -15.9039 -14.8556 -13.4728 -13.2920
   -12.5371 -11.0863 -10.5562 -10.2004  -9.6494  -9.1345  -7.8504  -6.6704
    -2.5254  -1.2012   0.0109   0.7863

          k = 0.4286 0.1650 0.0000 ( 42718 PWs)   bands (ev):

   -22.9348 -21.6991 -20.0973 -18.9483 -15.9117 -14.8482 -13.4644 -13.2931
   -12.5460 -11.0865 -10.5521 -10.1991  -9.6490  -9.1389  -7.8528  -6.6658
    -2.5335  -1.1954   0.0109   0.7863

          k =-0.4286 0.3299 0.0000 ( 42718 PWs)   bands (ev):

   -22.5797 -22.1671 -20.1539 -19.0003 -15.4925 -14.4649 -13.9129 -12.9216
   -12.3610 -11.4432 -10.6674 -10.1866  -9.8777  -9.5166  -7.8982  -6.6757
    -2.4418  -1.0587   0.4997   1.2781

          k = 0.5000 0.2062 0.0000 ( 42718 PWs)   bands (ev):

   -22.5796 -22.1673 -20.1539 -19.0002 -15.4965 -14.4610 -13.9087 -12.9260
   -12.3626 -11.4407 -10.6676 -10.1863  -9.8758  -9.5195  -7.8991  -6.6741
    -2.4446  -1.0567   0.4997   1.2766

          k = 0.2857 0.0000 0.0000 ( 42695 PWs)   bands (ev):

   -23.5006 -20.2453 -20.2255 -18.2849 -17.4095 -15.5345 -15.5129 -12.3395
   -11.7602 -11.0952 -11.0787  -8.8450  -8.3738  -8.0704  -8.0555  -6.4602
    -3.0721  -1.2977  -1.2838  -0.7643

          k =-0.2143 0.2887 0.0000 ( 42723 PWs)   bands (ev):

   -23.2918 -20.8320 -20.4342 -18.2555 -17.0889 -15.0270 -14.6370 -12.9678
   -11.5103 -11.4111 -10.8825  -9.4817  -8.7404  -8.6841  -8.2433  -6.2834
    -3.1067  -0.9218  -0.4784  -0.3789

          k = 0.3571 0.0412 0.0000 ( 42723 PWs)   bands (ev):

   -23.2917 -20.8324 -20.4337 -18.2504 -17.1023 -15.0186 -14.6378 -12.9574
   -11.5106 -11.4229 -10.8809  -9.4639  -8.7593  -8.6832  -8.2471  -6.2717
    -3.1246  -0.9124  -0.4785  -0.3819

          k =-0.2857 0.3299 0.0000 ( 42709 PWs)   bands (ev):

   -23.0241 -21.3795 -20.5770 -18.3199 -16.6135 -14.5175 -13.7292 -13.5944
   -11.8279 -11.1915 -10.6236 -10.2134  -9.2859  -9.1578  -8.3798  -6.1545
    -3.1043  -0.5979  -0.1110   0.5744

          k = 0.4286 0.0825 0.0000 ( 42709 PWs)   bands (ev):

   -23.0239 -21.3798 -20.5767 -18.3174 -16.6240 -14.5093 -13.7309 -13.5850
   -11.8383 -11.1920 -10.6212 -10.2018  -9.2851  -9.1704  -8.3822  -6.1457
    -3.1177  -0.5913  -0.1111   0.5710

          k =-0.3571 0.3712 0.0000 ( 42732 PWs)   bands (ev):

   -22.6980 -21.8743 -20.6629 -18.3772 -16.1330 -14.1546 -14.0615 -12.8132
   -12.2401 -11.0337 -10.8058 -10.3151  -9.8474  -9.5698  -8.4633  -6.0823
    -3.0807  -0.3758   0.3374   1.1163

          k = 0.5000 0.1237 0.0000 ( 42732 PWs)   bands (ev):

   -22.6978 -21.8746 -20.6628 -18.3763 -16.1403 -14.1474 -14.0552 -12.8161
   -12.2476 -11.0263 -10.8063 -10.3116  -9.8467  -9.5779  -8.4645  -6.0776
    -3.0878  -0.3724   0.3373   1.1163

          k =-0.4286 0.4124 0.0000 ( 42732 PWs)   bands (ev):

   -22.3191 -22.3097 -20.6916 -18.3981 -15.8870 -14.4261 -13.8392 -12.4505
   -11.9133 -11.9020 -10.3603 -10.3523  -9.9693  -9.9529  -8.4917  -6.0579
    -3.0704  -0.2952   0.8662   0.8670

          k = 0.4286 0.0000 0.0000 ( 42703 PWs)   bands (ev):

   -23.0536 -21.0147 -20.9954 -17.9056 -17.0646 -14.1489 -14.1261 -13.6243
   -11.2272 -11.1909 -11.1725 -10.0488  -9.2180  -8.8691  -8.8538  -5.9162
    -3.3690  -0.1518  -0.0088   0.0061

          k =-0.2857 0.4124 0.0000 ( 42725 PWs)   bands (ev):

   -22.7573 -21.5250 -21.1209 -17.7994 -16.7321 -14.2644 -13.6678 -13.2449
   -11.5366 -10.8894 -10.8751 -10.7540  -9.6744  -9.4453  -8.9803  -5.6460
    -3.5393   0.2563   0.2871   0.9338

          k = 0.5000 0.0412 0.0000 ( 42725 PWs)   bands (ev):

   -22.7570 -21.5255 -21.1206 -17.7943 -16.7452 -14.2555 -13.6600 -13.2489
   -11.5465 -10.8838 -10.8758 -10.7384  -9.6919  -9.4441  -8.9816  -5.6357
    -3.5532   0.2562   0.2915   0.9285

          k =-0.3571 0.4536 0.0000 ( 42725 PWs)   bands (ev):

   -22.4031 -21.9915 -21.1788 -17.7909 -16.3772 -14.7307 -13.3116 -12.3656
   -11.8437 -11.5309 -10.5387 -10.4581 -10.1258  -9.9803  -9.0416  -5.4815
    -3.6496   0.4513   0.7454   1.5266

          k = 0.5714 0.0825 0.0000 ( 42725 PWs)   bands (ev):

   -22.4027 -21.9919 -21.1787 -17.7894 -16.3830 -14.7261 -13.3075 -12.3724
   -11.8483 -11.5203 -10.5310 -10.4590 -10.1377  -9.9792  -9.0420  -5.4774
    -3.6550   0.4529   0.7452   1.3147

          k = 0.5714 0.0000 0.0000 ( 42757 PWs)   bands (ev):

   -22.4322 -21.6223 -21.6033 -17.3760 -16.7663 -14.8193 -12.8435 -12.8204
   -11.3460 -11.1934 -11.1714 -10.4932 -10.2440  -9.5477  -9.5321  -5.1617
    -3.9717   0.7048   1.1631   1.1799

          k =-0.3571 0.5361 0.0000 ( 42743 PWs)   bands (ev):

   -22.0553 -22.0458 -21.6419 -17.2334 -16.7081 -15.0767 -12.6413 -12.0588
   -12.0412 -11.3360 -10.7585 -10.7376 -10.0504 -10.0423  -9.5715  -4.8949
    -4.2172   1.2336   1.2345   1.2581

     the Fermi energy is    -4.6898 ev

!    total energy              =    -142.56270795 Ry
     total all-electron energy =      -142.562708 Ry
     estimated scf accuracy    <          9.8E-17 Ry
     smearing contrib. (-TS)   =       0.00021277 Ry
     internal energy E=F+TS    =    -142.56292071 Ry

     The total energy is F=E-TS. E is the sum of the following terms:
     one-electron contribution =   -1252.07792093 Ry
     hartree contribution      =     629.42528243 Ry
     xc contribution           =     -35.58516289 Ry
     ewald contribution        =     561.48219002 Ry
     one-center paw contrib.   =     -45.80730935 Ry

     convergence has been achieved in  18 iterations

     negative rho (up, down):  1.819E-04 0.000E+00

     Forces acting on atoms (cartesian axes, Ry/au):

     atom    1 type  1   force =     0.00000000   -0.01198824    0.00000000
     atom    2 type  1   force =     0.00000000    0.00509274    0.00000000
     atom    3 type  1   force =     0.00000000   -0.00076549    0.00000000
     atom    4 type  1   force =     0.00000000    0.00016339    0.00000000
     atom    5 type  1   force =    -0.00113785    0.00120346    0.00000000
     atom    6 type  1   force =    -0.00139627    0.00254535    0.00000000
     atom    7 type  1   force =     0.00113785    0.00120346    0.00000000
     atom    8 type  1   force =     0.00139627    0.00254535    0.00000000

     Total force =     0.013878     Total SCF correction =     0.000000

     Writing all to output data dir ./scratch_runs/atom01_y_plus/graphene_sup.save/ :
     XML data file, charge density, pseudopotentials, collected wavefunctions
 
     init_run     :      2.94s CPU      3.01s WALL (       1 calls)
     electrons    :     47.82s CPU     48.35s WALL (       1 calls)
     forces       :      0.32s CPU      0.33s WALL (       1 calls)

     Called by init_run:
     wfcinit      :      2.78s CPU      2.83s WALL (       1 calls)
     potinit      :      0.01s CPU      0.02s WALL (       1 calls)
     hinit0       :      0.04s CPU      0.04s WALL (       1 calls)

     Called by electrons:
     c_bands      :     39.89s CPU     40.22s WALL (      18 calls)
     sum_band     :      7.40s CPU      7.58s WALL (      18 calls)
     v_of_rho     :      0.06s CPU      0.06s WALL (      19 calls)
     newd         :      0.22s CPU      0.23s WALL (      19 calls)
     PAW_pot      :      0.16s CPU      0.16s WALL (      19 calls)
     mix_rho      :      0.10s CPU      0.10s WALL (      18 calls)

     Called by c_bands:
     init_us_2    :      1.96s CPU      1.98s WALL (    2166 calls)
     cegterg      :     36.57s CPU     36.89s WALL (    1026 calls)

     Called by *egterg:
     cdiaghg      :      1.11s CPU      1.12s WALL (    3771 calls)
     h_psi        :     29.78s CPU     30.10s WALL (    3828 calls)
     s_psi        :      1.72s CPU      1.73s WALL (    3828 calls)
     g_psi        :      0.17s CPU      0.17s WALL (    2745 calls)

     Called by h_psi:
     h_psi:calbec :      2.23s CPU      2.26s WALL (    3828 calls)
     vloc_psi     :     24.99s CPU     25.24s WALL (    3828 calls)
     add_vuspsi   :      2.09s CPU      2.11s WALL (    3828 calls)

     General routines
     calbec       :      3.06s CPU      3.12s WALL (    5082 calls)
     fft          :      0.04s CPU      0.04s WALL (      80 calls)
     ffts         :      0.01s CPU      0.01s WALL (      18 calls)
     fftw         :     23.04s CPU     23.34s WALL (  130870 calls)
 
     Parallel routines
 
     PWSCF        :     51.37s CPU     52.32s WALL

 
   This run was terminated on:  12:55:45  12May2026            

=------------------------------------------------------------------------------=
   JOB DONE.
=------------------------------------------------------------------------------=

===== TIMING =====
Job:           atom01_y_plus
Start:         2026-05-12T12:54:52+02:00
End:           2026-05-12T12:55:45+02:00
Duration (s):  53
Duration (H:M:S): 00:00:53
==================
