
     Program PWSCF v.7.4 starts on 12May2026 at 13: 1:54 

     This program is part of the open-source Quantum ESPRESSO suite
     for quantum simulation of materials; please cite
         "P. Giannozzi et al., J. Phys.:Condens. Matter 21 395502 (2009);
         "P. Giannozzi et al., J. Phys.:Condens. Matter 29 465901 (2017);
         "P. Giannozzi et al., J. Chem. Phys. 152 154105 (2020);
          URL http://www.quantum-espresso.org", 
     in publications or presentations arising from this work. More details at
     http://www.quantum-espresso.org/quote

     Parallel version (MPI), running on    12 processors

     MPI processes distributed on     1 nodes
     165429 MiB available memory on the printing compute node when the environment starts
 
     Reading input from ./scratch_runs/atom02_z_plus/atom02_z_plus.in

     Current dimensions of program PWSCF are:
     Max number of different atomic species (ntypx) = 10
     Max number of k-points (npk) =  40000
     Max angular momentum in pseudopotentials (lmaxx) =  4
read_pp_mesh; mismatch in mesh size, discarding the one in header
     Message from routine setup:
     using ibrav=0 with symmetry is DISCOURAGED, use correct ibrav instead
 
     R & G space division:  proc/nbgrp/npool/nimage =      12
     Subspace diagonalization in iterative solution of the eigenvalue problem:
     a serial algorithm will be used

 
     Parallelization info
     --------------------
     sticks:   dense  smooth     PW     G-vecs:    dense   smooth      PW
     Min         199     199     54                28481    28481    4042
     Max         200     200     55                28494    28494    4059
     Sum        2395    2395    649               341861   341861   48543
 
     Using Slab Decomposition
 


     bravais-lattice index     =            0
     lattice parameter (alat)  =       9.3176  a.u.
     unit-cell volume          =    2529.0393 (a.u.)^3
     number of atoms/cell      =            8
     number of atomic types    =            1
     number of electrons       =        32.00
     number of Kohn-Sham states=           20
     kinetic-energy cutoff     =     100.0000  Ry
     charge density cutoff     =     400.0000  Ry
     scf convergence threshold =      1.0E-16
     mixing beta               =       0.7000
     number of iterations used =            8  plain     mixing
     Exchange-correlation= SLA PW NOGX NOGC
                           (   1   4   0   0   0   0   0)

     celldm(1)=   9.317578  celldm(2)=   0.000000  celldm(3)=   0.000000
     celldm(4)=   0.000000  celldm(5)=   0.000000  celldm(6)=   0.000000

     crystal axes: (cart. coord. in units of alat)
               a(1) = (   1.000000   0.000000   0.000000 )  
               a(2) = (  -0.500000   0.866025   0.000000 )  
               a(3) = (   0.000000   0.000000   3.610072 )  

     reciprocal axes: (cart. coord. in units 2 pi/alat)
               b(1) = (  1.000000  0.577350  0.000000 )  
               b(2) = (  0.000000  1.154701  0.000000 )  
               b(3) = (  0.000000  0.000000  0.277003 )  


     PseudoPot. # 1 for C  read from file:
     ./C.upf
     MD5 check sum: 1b594deb0bcc8b4bffb8cfaf75c62b92
     Pseudo is Projector augmented-wave + core cor, Zval =  4.0
     Generated using ATOMPAW code
     Shape of augmentation charge: SINC**2
     Using radial grid of 2342 points,  4 beta functions with: 
                l(1) =   0
                l(2) =   0
                l(3) =   1
                l(4) =   1
     Q(r) pseudized with 0 coefficients 


     atomic species   valence    mass     pseudopotential
     C                 4.00    12.01070     C ( 1.00)

      6 Sym. Ops. (no inversion) found ( 4 have fractional translation)



   Cartesian axes

     site n.     atom                  positions (alat units)
         1        C      tau(   1) = (   0.0000000   0.0000000   1.8050358  )
         2        C      tau(   2) = (   0.0000004   0.2886749   1.8060499  )
         3        C      tau(   3) = (   0.5000000   0.0000000   1.8050358  )
         4        C      tau(   4) = (   0.5000004   0.2886749   1.8050358  )
         5        C      tau(   5) = (  -0.2499999   0.4330127   1.8050358  )
         6        C      tau(   6) = (  -0.2499995   0.7216876   1.8050358  )
         7        C      tau(   7) = (   0.2499999   0.4330127   1.8050358  )
         8        C      tau(   8) = (   0.2500005   0.7216876   1.8050358  )

     number of k points=    24  Marzari-Vanderbilt smearing, width (Ry)=  0.0200
                       cart. coord. in units 2pi/alat
        k(    1) = (   0.0000000   0.0000000   0.0000000), wk =   0.0102041
        k(    2) = (   0.0000000   0.0824786   0.0000000), wk =   0.0612245
        k(    3) = (   0.0000000   0.1649572   0.0000000), wk =   0.0612245
        k(    4) = (   0.0000000   0.2474358   0.0000000), wk =   0.0612245
        k(    5) = (   0.0000000   0.3299144   0.0000000), wk =   0.0612245
        k(    6) = (   0.0000000   0.4123930   0.0000000), wk =   0.0612245
        k(    7) = (   0.0000000   0.4948717   0.0000000), wk =   0.0612245
        k(    8) = (   0.0000000  -0.5773503   0.0000000), wk =   0.0306122
        k(    9) = (   0.0714286   0.1237179   0.0000000), wk =   0.0612245
        k(   10) = (   0.0714286   0.2061965   0.0000000), wk =   0.1224490
        k(   11) = (   0.0714286   0.2886751   0.0000000), wk =   0.1224490
        k(   12) = (   0.0714286   0.3711537   0.0000000), wk =   0.1224490
        k(   13) = (   0.0714286   0.4536324   0.0000000), wk =   0.1224490
        k(   14) = (   0.0714286   0.5361110   0.0000000), wk =   0.1224490
        k(   15) = (   0.1428571   0.2474358   0.0000000), wk =   0.0612245
        k(   16) = (   0.1428571   0.3299144   0.0000000), wk =   0.1224490
        k(   17) = (   0.1428571   0.4123930   0.0000000), wk =   0.1224490
        k(   18) = (   0.1428571   0.4948717   0.0000000), wk =   0.1224490
        k(   19) = (   0.1428571   0.5773503   0.0000000), wk =   0.0612245
        k(   20) = (   0.2142857   0.3711537   0.0000000), wk =   0.0612245
        k(   21) = (   0.2142857   0.4536324   0.0000000), wk =   0.1224490
        k(   22) = (   0.2142857   0.5361110   0.0000000), wk =   0.1224490
        k(   23) = (   0.2857143   0.4948717   0.0000000), wk =   0.0612245
        k(   24) = (   0.2857143   0.5773503   0.0000000), wk =   0.0612245

     Dense  grid:   341861 G-vectors     FFT dimensions: (  60,  60, 216)

     Estimated max dynamical RAM per process >      75.87 MB

     Estimated total dynamical RAM >     910.43 MB
 ----2D----2D----2D----2D----2D----2D----2D----2D----2D----2D----2D----2D
  The code is running with the 2D cutoff
  Please refer to:
  Sohier, T., Calandra, M., & Mauri, F. (2017), 
  Density functional perturbation theory for gated two-dimensional heterostructu
 res:
  Theoretical developments and application to flexural phonons in graphene.
  Physical Review B, 96(7), 75448. https://doi.org/10.1103/PhysRevB.96.075448
 ----2D----2D----2D----2D----2D----2D----2D----2D----2D----2D----2D----2D

     Check: negative core charge=   -0.000011

     Initial potential from superposition of free atoms

     starting charge      31.9997, renormalised to      32.0000

     negative rho (up, down):  1.837E-05 0.000E+00
     Starting wfcs are   64 randomized atomic wfcs
     Checking if some PAW data can be deallocated... 

     total cpu time spent up to now is        1.4 secs

     per-process dynamical memory:    98.7 Mb

     Self-consistent Calculation

     iteration #  1     ecut=   100.00 Ry     beta= 0.70
     Davidson diagonalization with overlap
     ethr =  1.00E-02,  avg # of iterations =  2.0

     negative rho (up, down):  1.015E-04 0.000E+00

     total cpu time spent up to now is        2.7 secs

     total energy              =    -142.44945473 Ry
     estimated scf accuracy    <       0.78404995 Ry

     iteration #  2     ecut=   100.00 Ry     beta= 0.70
     Davidson diagonalization with overlap
     ethr =  2.45E-03,  avg # of iterations =  3.0

     negative rho (up, down):  1.437E-04 0.000E+00

     total cpu time spent up to now is        3.9 secs

     total energy              =    -142.56125599 Ry
     estimated scf accuracy    <       0.00992883 Ry

     iteration #  3     ecut=   100.00 Ry     beta= 0.70
     Davidson diagonalization with overlap
     c_bands:  1 eigenvalues not converged
     c_bands:  1 eigenvalues not converged
     ethr =  3.10E-05,  avg # of iterations = 10.0

     negative rho (up, down):  1.739E-04 0.000E+00

     total cpu time spent up to now is        5.5 secs

     total energy              =    -142.56254481 Ry
     estimated scf accuracy    <       0.00071197 Ry

     iteration #  4     ecut=   100.00 Ry     beta= 0.70
     Davidson diagonalization with overlap
     c_bands:  2 eigenvalues not converged
     ethr =  2.22E-06,  avg # of iterations =  6.0

     negative rho (up, down):  1.782E-04 0.000E+00

     total cpu time spent up to now is        7.0 secs

     total energy              =    -142.56267880 Ry
     estimated scf accuracy    <       0.00035987 Ry

     iteration #  5     ecut=   100.00 Ry     beta= 0.70
     Davidson diagonalization with overlap
     ethr =  1.12E-06,  avg # of iterations =  2.2

     negative rho (up, down):  1.805E-04 0.000E+00

     total cpu time spent up to now is        8.1 secs

     total energy              =    -142.56274877 Ry
     estimated scf accuracy    <       0.00000288 Ry

     iteration #  6     ecut=   100.00 Ry     beta= 0.70
     Davidson diagonalization with overlap
     ethr =  9.00E-09,  avg # of iterations =  3.9

     negative rho (up, down):  1.818E-04 0.000E+00

     total cpu time spent up to now is        9.6 secs

     total energy              =    -142.56275157 Ry
     estimated scf accuracy    <       0.00000110 Ry

     iteration #  7     ecut=   100.00 Ry     beta= 0.70
     Davidson diagonalization with overlap
     ethr =  3.43E-09,  avg # of iterations =  2.0

     negative rho (up, down):  1.818E-04 0.000E+00

     total cpu time spent up to now is       10.6 secs

     total energy              =    -142.56275159 Ry
     estimated scf accuracy    <       0.00000024 Ry

     iteration #  8     ecut=   100.00 Ry     beta= 0.70
     Davidson diagonalization with overlap
     ethr =  7.60E-10,  avg # of iterations =  2.0

     negative rho (up, down):  1.819E-04 0.000E+00

     total cpu time spent up to now is       11.9 secs

     total energy              =    -142.56275166 Ry
     estimated scf accuracy    <          4.8E-09 Ry

     iteration #  9     ecut=   100.00 Ry     beta= 0.70
     Davidson diagonalization with overlap
     ethr =  1.49E-11,  avg # of iterations =  4.0

     negative rho (up, down):  1.819E-04 0.000E+00

     total cpu time spent up to now is       13.3 secs

     total energy              =    -142.56275166 Ry
     estimated scf accuracy    <          7.0E-09 Ry

     iteration # 10     ecut=   100.00 Ry     beta= 0.70
     Davidson diagonalization with overlap
     ethr =  1.49E-11,  avg # of iterations =  2.0

     negative rho (up, down):  1.819E-04 0.000E+00

     total cpu time spent up to now is       14.4 secs

     total energy              =    -142.56275166 Ry
     estimated scf accuracy    <          6.0E-10 Ry

     iteration # 11     ecut=   100.00 Ry     beta= 0.70
     Davidson diagonalization with overlap
     ethr =  1.87E-12,  avg # of iterations =  2.4

     negative rho (up, down):  1.819E-04 0.000E+00

     total cpu time spent up to now is       15.6 secs

     total energy              =    -142.56275166 Ry
     estimated scf accuracy    <          4.6E-11 Ry

     iteration # 12     ecut=   100.00 Ry     beta= 0.70
     Davidson diagonalization with overlap
     ethr =  1.45E-13,  avg # of iterations =  2.2

     negative rho (up, down):  1.819E-04 0.000E+00

     total cpu time spent up to now is       16.8 secs

     total energy              =    -142.56275166 Ry
     estimated scf accuracy    <          9.6E-12 Ry

     iteration # 13     ecut=   100.00 Ry     beta= 0.70
     Davidson diagonalization with overlap
     ethr =  1.00E-13,  avg # of iterations =  1.0

     negative rho (up, down):  1.819E-04 0.000E+00

     total cpu time spent up to now is       17.7 secs

     total energy              =    -142.56275166 Ry
     estimated scf accuracy    <          2.7E-12 Ry

     iteration # 14     ecut=   100.00 Ry     beta= 0.70
     Davidson diagonalization with overlap
     ethr =  1.00E-13,  avg # of iterations =  1.0

     negative rho (up, down):  1.819E-04 0.000E+00

     total cpu time spent up to now is       18.6 secs

     total energy              =    -142.56275166 Ry
     estimated scf accuracy    <          2.6E-13 Ry

     iteration # 15     ecut=   100.00 Ry     beta= 0.70
     Davidson diagonalization with overlap
     ethr =  1.00E-13,  avg # of iterations =  1.0

     negative rho (up, down):  1.819E-04 0.000E+00

     total cpu time spent up to now is       19.6 secs

     total energy              =    -142.56275166 Ry
     estimated scf accuracy    <          9.8E-15 Ry

     iteration # 16     ecut=   100.00 Ry     beta= 0.70
     Davidson diagonalization with overlap
     ethr =  1.00E-13,  avg # of iterations =  1.0

     negative rho (up, down):  1.819E-04 0.000E+00

     total cpu time spent up to now is       20.5 secs

     total energy              =    -142.56275166 Ry
     estimated scf accuracy    <          6.3E-15 Ry

     iteration # 17     ecut=   100.00 Ry     beta= 0.70
     Davidson diagonalization with overlap
     ethr =  1.00E-13,  avg # of iterations =  1.0

     negative rho (up, down):  1.819E-04 0.000E+00

     total cpu time spent up to now is       21.4 secs

     total energy              =    -142.56275166 Ry
     estimated scf accuracy    <          3.1E-16 Ry

     iteration # 18     ecut=   100.00 Ry     beta= 0.70
     Davidson diagonalization with overlap
     ethr =  1.00E-13,  avg # of iterations =  1.0

     negative rho (up, down):  1.819E-04 0.000E+00

     total cpu time spent up to now is       22.3 secs

     End of self-consistent calculation

          k = 0.0000 0.0000 0.0000 ( 42713 PWs)   bands (ev):

   -23.8598 -18.5937 -18.5936 -18.5936 -17.7044 -17.7044 -17.7044 -12.1913
   -10.9669 -10.9669 -10.9669  -7.5980  -7.5979  -6.9070  -6.9069  -6.9069
    -2.9246  -2.9245  -2.9244  -1.2541

          k = 0.0000 0.0825 0.0000 ( 42729 PWs)   bands (ev):

   -23.8298 -19.0244 -18.7156 -18.7156 -17.5329 -17.5329 -17.2296 -12.1552
   -11.0589 -11.0588 -10.9370  -7.7195  -7.6637  -7.0985  -6.9298  -6.9298
    -2.8682  -2.8681  -2.6862  -1.2133

          k = 0.0000 0.1650 0.0000 ( 42685 PWs)   bands (ev):

   -23.7399 -19.6790 -18.9452 -18.9452 -17.1558 -17.1557 -16.4436 -12.0471
   -11.3222 -11.3222 -10.8479  -8.0704  -7.8507  -7.5701  -6.9913  -6.9912
    -2.7104  -2.7103  -2.0757  -1.0908

          k = 0.0000 0.2474 0.0000 ( 42730 PWs)   bands (ev):

   -23.5902 -20.3193 -19.1682 -19.1682 -16.6913 -16.6912 -15.5868 -11.8674
   -11.7238 -11.7238 -10.7008  -8.6158  -8.1631  -8.1328  -7.0746  -7.0746
    -2.4811  -2.4810  -1.2564  -0.8866

          k = 0.0000 0.3299 0.0000 ( 42674 PWs)   bands (ev):

   -23.3812 -20.9176 -19.3523 -19.3523 -16.1800 -16.1799 -14.6911 -12.2196
   -12.2196 -11.6172 -10.4983  -9.3114  -8.7837  -8.4774  -7.1606  -7.1606
    -2.2223  -2.2222  -0.6011  -0.3300

          k = 0.0000 0.4124 0.0000 ( 42690 PWs)   bands (ev):

   -23.1131 -21.4663 -19.4876 -19.4876 -15.6513 -15.6513 -13.7701 -12.7578
   -12.7578 -11.2976 -10.2439 -10.1143  -9.3866  -8.8534  -7.2332  -7.2331
    -1.9827  -1.9826  -0.2339   0.6431

          k = 0.0000 0.4949 0.0000 ( 42704 PWs)   bands (ev):

   -22.7866 -21.9620 -19.5698 -19.5698 -15.1656 -15.1656 -13.2579 -13.2579
   -12.8359 -10.9879 -10.9109  -9.9495  -9.9431  -9.2353  -7.2810  -7.2809
    -1.8118  -1.8117   0.2145   0.9920

          k = 0.0000-0.5774 0.0000 ( 42716 PWs)   bands (ev):

   -22.4026 -22.4026 -19.5974 -19.5974 -14.9229 -14.9229 -13.5068 -13.5068
   -11.9026 -11.9026 -10.4600 -10.4600  -9.6034  -9.6034  -7.2976  -7.2975
    -1.7496  -1.7495   0.7434   0.7434

          k = 0.0714 0.1237 0.0000 ( 42673 PWs)   bands (ev):

   -23.7698 -19.3293 -19.3292 -18.5177 -17.6263 -16.8318 -16.8318 -12.0831
   -11.3524 -10.9991 -10.9991  -7.9505  -7.7952  -7.2841  -7.2840  -6.7973
    -2.9488  -2.4219  -2.4218  -1.1316

          k = 0.0714 0.2062 0.0000 ( 42662 PWs)   bands (ev):

   -23.6501 -19.9828 -19.5971 -18.5612 -17.3814 -16.3756 -16.0049 -11.9392
   -11.7852 -11.2320 -10.8805  -8.3864  -8.0423  -7.8332  -7.4666  -6.7122
    -2.9256  -2.1032  -1.6916  -0.9683

          k = 0.0714 0.2887 0.0000 ( 42702 PWs)   bands (ev):

   -23.4707 -20.6031 -19.8171 -18.7088 -16.9404 -15.8783 -15.1287 -12.3151
   -11.7242 -11.6016 -10.7047  -8.9932  -8.4481  -8.3695  -7.6297  -6.6723
    -2.8186  -1.7648  -0.8133  -0.7231

          k = 0.0714 0.3712 0.0000 ( 42721 PWs)   bands (ev):

   -23.2321 -21.1769 -19.9845 -18.8484 -16.4276 -15.3578 -14.2217 -12.8962
   -12.0602 -11.4393 -10.4748  -9.7306  -9.0636  -8.7420  -7.7612  -6.6641
    -2.6682  -1.4468  -0.3969   0.1388

          k = 0.0714 0.4536 0.0000 ( 42718 PWs)   bands (ev):

   -22.9349 -21.6992 -20.0971 -18.9486 -15.9051 -14.8491 -13.4713 -13.2964
   -12.5449 -11.0861 -10.5595 -10.1949  -9.6483  -9.1305  -7.8529  -6.6703
    -2.5256  -1.1950   0.0109   0.7864

          k = 0.0714 0.5361 0.0000 ( 42718 PWs)   bands (ev):

   -22.5796 -22.1673 -20.1537 -19.0002 -15.4907 -14.4588 -13.9148 -12.9285
   -12.3660 -11.4469 -10.6670 -10.1859  -9.8713  -9.5125  -7.8999  -6.6771
    -2.4393  -1.0543   0.4997   1.0688

          k = 0.1429 0.2474 0.0000 ( 42695 PWs)   bands (ev):

   -23.5006 -20.2354 -20.2354 -18.2899 -17.3988 -15.5264 -15.5264 -12.3469
   -11.7600 -11.0831 -11.0830  -8.8615  -8.3568  -8.0614  -8.0614  -6.4689
    -3.0585  -1.2942  -1.2940  -0.7641

          k = 0.1429 0.3299 0.0000 ( 42723 PWs)   bands (ev):

   -23.2917 -20.8322 -20.4339 -18.2538 -17.0931 -15.0207 -14.6408 -12.9645
   -11.5103 -11.4194 -10.8772  -9.4783  -8.7444  -8.6821  -8.2463  -6.2800
    -3.1120  -0.9143  -0.4786  -0.3840

          k = 0.1429 0.4124 0.0000 ( 42709 PWs)   bands (ev):

   -23.0240 -21.3797 -20.5766 -18.3190 -16.6163 -14.5108 -13.7336 -13.5920
   -11.8362 -11.1915 -10.6175 -10.2134  -9.2845  -9.1581  -8.3821  -6.1527
    -3.1072  -0.5915  -0.1110   0.5695

          k = 0.1429 0.4949 0.0000 ( 42732 PWs)   bands (ev):

   -22.6979 -21.8745 -20.6627 -18.3770 -16.1336 -14.1537 -14.0548 -12.8187
   -12.2481 -11.0351 -10.8056 -10.3084  -9.8463  -9.5682  -8.4649  -6.0825
    -3.0803  -0.3709   0.3375   1.1164

          k = 0.1429 0.5774 0.0000 ( 42732 PWs)   bands (ev):

   -22.3144 -22.3144 -20.6914 -18.3982 -15.8831 -14.4298 -13.8343 -12.4558
   -11.9123 -11.9123 -10.3558 -10.3558  -9.9557  -9.9557  -8.4928  -6.0605
    -3.0665  -0.2919   0.8666   0.8666

          k = 0.2143 0.3712 0.0000 ( 42703 PWs)   bands (ev):

   -23.0537 -21.0050 -21.0050 -17.9109 -17.0532 -14.1396 -14.1396 -13.6312
   -11.2267 -11.1788 -11.1788 -10.0634  -9.2027  -8.8611  -8.8610  -5.9248
    -3.3567  -0.1521  -0.0022  -0.0019

          k = 0.2143 0.4536 0.0000 ( 42725 PWs)   bands (ev):

   -22.7571 -21.5252 -21.1207 -17.7979 -16.7357 -14.2619 -13.6604 -13.2509
   -11.5452 -10.8817 -10.8750 -10.7513  -9.6784  -9.4438  -8.9818  -5.6435
    -3.5427   0.2554   0.2932   0.9283

          k = 0.2143 0.5361 0.0000 ( 42725 PWs)   bands (ev):

   -22.4028 -21.9918 -21.1786 -17.7908 -16.3767 -14.7311 -13.3046 -12.3732
   -11.8513 -11.5304 -10.5299 -10.4581 -10.1268  -9.9792  -9.0426  -5.4825
    -3.6484   0.4550   0.7454   1.3147

          k = 0.2857 0.4949 0.0000 ( 42757 PWs)   bands (ev):

   -22.4323 -21.6127 -21.6127 -17.3819 -16.7553 -14.8246 -12.8312 -12.8312
   -11.3587 -11.1832 -11.1832 -10.4923 -10.2304  -9.5401  -9.5401  -5.1702
    -3.9616   0.7048   1.1728   1.1730

          k = 0.2857 0.5774 0.0000 ( 42743 PWs)   bands (ev):

   -22.0505 -22.0505 -21.6419 -17.2352 -16.7048 -15.0782 -12.6354 -12.0541
   -12.0540 -11.3419 -10.7439 -10.7439 -10.0459 -10.0458  -9.5723  -4.8986
    -4.2131   1.2314   1.2341   1.2635

     the Fermi energy is    -4.6898 ev

!    total energy              =    -142.56275166 Ry
     total all-electron energy =      -142.562752 Ry
     estimated scf accuracy    <          1.4E-17 Ry
     smearing contrib. (-TS)   =       0.00021274 Ry
     internal energy E=F+TS    =    -142.56296440 Ry

     The total energy is F=E-TS. E is the sum of the following terms:
     one-electron contribution =   -1252.07671176 Ry
     hartree contribution      =     629.42467106 Ry
     xc contribution           =     -35.58511364 Ry
     ewald contribution        =     561.48149387 Ry
     one-center paw contrib.   =     -45.80730393 Ry

     convergence has been achieved in  18 iterations

     negative rho (up, down):  1.819E-04 0.000E+00

     Forces acting on atoms (cartesian axes, Ry/au):

     atom    1 type  1   force =     0.00000000    0.00000542    0.00107689
     atom    2 type  1   force =     0.00000000    0.00000000   -0.00300530
     atom    3 type  1   force =     0.00000000    0.00000000    0.00025537
     atom    4 type  1   force =     0.00000000   -0.00000016   -0.00016025
     atom    5 type  1   force =     0.00000469   -0.00000271    0.00107689
     atom    6 type  1   force =     0.00000014    0.00000008   -0.00016025
     atom    7 type  1   force =    -0.00000469   -0.00000271    0.00107689
     atom    8 type  1   force =    -0.00000014    0.00000008   -0.00016025

     Total force =     0.003557     Total SCF correction =     0.000000

     Writing all to output data dir ./scratch_runs/atom02_z_plus/graphene_sup.save/ :
     XML data file, charge density, pseudopotentials, collected wavefunctions
 
     init_run     :      1.28s CPU      1.32s WALL (       1 calls)
     electrons    :     20.74s CPU     20.94s WALL (       1 calls)
     forces       :      0.15s CPU      0.16s WALL (       1 calls)

     Called by init_run:
     wfcinit      :      1.17s CPU      1.19s WALL (       1 calls)
     potinit      :      0.02s CPU      0.02s WALL (       1 calls)
     hinit0       :      0.02s CPU      0.03s WALL (       1 calls)

     Called by electrons:
     c_bands      :     16.93s CPU     17.07s WALL (      18 calls)
     sum_band     :      3.29s CPU      3.33s WALL (      18 calls)
     v_of_rho     :      0.06s CPU      0.06s WALL (      19 calls)
     newd         :      0.22s CPU      0.23s WALL (      19 calls)
     PAW_pot      :      0.15s CPU      0.15s WALL (      19 calls)
     mix_rho      :      0.10s CPU      0.10s WALL (      18 calls)

     Called by c_bands:
     init_us_2    :      0.82s CPU      0.82s WALL (     912 calls)
     cegterg      :     15.55s CPU     15.68s WALL (     432 calls)

     Called by *egterg:
     cdiaghg      :      0.46s CPU      0.46s WALL (    1579 calls)
     h_psi        :     12.65s CPU     12.79s WALL (    1603 calls)
     s_psi        :      0.73s CPU      0.73s WALL (    1603 calls)
     g_psi        :      0.07s CPU      0.07s WALL (    1147 calls)

     Called by h_psi:
     h_psi:calbec :      0.93s CPU      0.95s WALL (    1603 calls)
     vloc_psi     :     10.67s CPU     10.78s WALL (    1603 calls)
     add_vuspsi   :      0.86s CPU      0.87s WALL (    1603 calls)

     General routines
     calbec       :      1.27s CPU      1.29s WALL (    2131 calls)
     fft          :      0.04s CPU      0.04s WALL (      80 calls)
     ffts         :      0.01s CPU      0.01s WALL (      18 calls)
     fftw         :      9.87s CPU      9.97s WALL (   55658 calls)
 
     Parallel routines
 
     PWSCF        :     22.35s CPU     22.78s WALL

 
   This run was terminated on:  13: 2:17  12May2026            

=------------------------------------------------------------------------------=
   JOB DONE.
=------------------------------------------------------------------------------=

===== TIMING =====
Job:           atom02_z_plus
Start:         2026-05-12T13:01:53+02:00
End:           2026-05-12T13:02:17+02:00
Duration (s):  24
Duration (H:M:S): 00:00:24
==================
