
     Program PWSCF v.7.4 starts on 12May2026 at 12:50:17 

     This program is part of the open-source Quantum ESPRESSO suite
     for quantum simulation of materials; please cite
         "P. Giannozzi et al., J. Phys.:Condens. Matter 21 395502 (2009);
         "P. Giannozzi et al., J. Phys.:Condens. Matter 29 465901 (2017);
         "P. Giannozzi et al., J. Chem. Phys. 152 154105 (2020);
          URL http://www.quantum-espresso.org", 
     in publications or presentations arising from this work. More details at
     http://www.quantum-espresso.org/quote

     Parallel version (MPI), running on    12 processors

     MPI processes distributed on     1 nodes
     175404 MiB available memory on the printing compute node when the environment starts
 
     Reading input from ./scratch_runs/atom01_x_minus/atom01_x_minus.in

     Current dimensions of program PWSCF are:
     Max number of different atomic species (ntypx) = 10
     Max number of k-points (npk) =  40000
     Max angular momentum in pseudopotentials (lmaxx) =  4
read_pp_mesh; mismatch in mesh size, discarding the one in header
     Message from routine setup:
     using ibrav=0 with symmetry is DISCOURAGED, use correct ibrav instead
 
     R & G space division:  proc/nbgrp/npool/nimage =      12
     Subspace diagonalization in iterative solution of the eigenvalue problem:
     a serial algorithm will be used

 
     Parallelization info
     --------------------
     sticks:   dense  smooth     PW     G-vecs:    dense   smooth      PW
     Min         199     199     54                28481    28481    4042
     Max         200     200     55                28494    28494    4059
     Sum        2395    2395    649               341861   341861   48543
 
     Using Slab Decomposition
 


     bravais-lattice index     =            0
     lattice parameter (alat)  =       9.3176  a.u.
     unit-cell volume          =    2529.0393 (a.u.)^3
     number of atoms/cell      =            8
     number of atomic types    =            1
     number of electrons       =        32.00
     number of Kohn-Sham states=           20
     kinetic-energy cutoff     =     100.0000  Ry
     charge density cutoff     =     400.0000  Ry
     scf convergence threshold =      1.0E-16
     mixing beta               =       0.7000
     number of iterations used =            8  plain     mixing
     Exchange-correlation= SLA PW NOGX NOGC
                           (   1   4   0   0   0   0   0)

     celldm(1)=   9.317578  celldm(2)=   0.000000  celldm(3)=   0.000000
     celldm(4)=   0.000000  celldm(5)=   0.000000  celldm(6)=   0.000000

     crystal axes: (cart. coord. in units of alat)
               a(1) = (   1.000000   0.000000   0.000000 )  
               a(2) = (  -0.500000   0.866025   0.000000 )  
               a(3) = (   0.000000   0.000000   3.610072 )  

     reciprocal axes: (cart. coord. in units 2 pi/alat)
               b(1) = (  1.000000  0.577350  0.000000 )  
               b(2) = (  0.000000  1.154701  0.000000 )  
               b(3) = (  0.000000  0.000000  0.277003 )  


     PseudoPot. # 1 for C  read from file:
     ./C.upf
     MD5 check sum: 1b594deb0bcc8b4bffb8cfaf75c62b92
     Pseudo is Projector augmented-wave + core cor, Zval =  4.0
     Generated using ATOMPAW code
     Shape of augmentation charge: SINC**2
     Using radial grid of 2342 points,  4 beta functions with: 
                l(1) =   0
                l(2) =   0
                l(3) =   1
                l(4) =   1
     Q(r) pseudized with 0 coefficients 


     atomic species   valence    mass     pseudopotential
     C                 4.00    12.01070     C ( 1.00)

      2 Sym. Ops. (no inversion) found



   Cartesian axes

     site n.     atom                  positions (alat units)
         1        C      tau(   1) = (  -0.0010141   0.0000000   1.8050358  )
         2        C      tau(   2) = (   0.0000004   0.2886749   1.8050358  )
         3        C      tau(   3) = (   0.5000000   0.0000000   1.8050358  )
         4        C      tau(   4) = (   0.5000004   0.2886749   1.8050358  )
         5        C      tau(   5) = (  -0.2499999   0.4330127   1.8050358  )
         6        C      tau(   6) = (  -0.2499995   0.7216876   1.8050358  )
         7        C      tau(   7) = (   0.2499999   0.4330127   1.8050358  )
         8        C      tau(   8) = (   0.2500005   0.7216876   1.8050358  )

     number of k points=   100  Marzari-Vanderbilt smearing, width (Ry)=  0.0200

     Number of k-points >= 100: set verbosity='high' to print them.

     Dense  grid:   341861 G-vectors     FFT dimensions: (  60,  60, 216)

     Estimated max dynamical RAM per process >     158.41 MB

     Estimated total dynamical RAM >       1.86 GB
 ----2D----2D----2D----2D----2D----2D----2D----2D----2D----2D----2D----2D
  The code is running with the 2D cutoff
  Please refer to:
  Sohier, T., Calandra, M., & Mauri, F. (2017), 
  Density functional perturbation theory for gated two-dimensional heterostructu
 res:
  Theoretical developments and application to flexural phonons in graphene.
  Physical Review B, 96(7), 75448. https://doi.org/10.1103/PhysRevB.96.075448
 ----2D----2D----2D----2D----2D----2D----2D----2D----2D----2D----2D----2D

     Check: negative core charge=   -0.000011

     Initial potential from superposition of free atoms

     starting charge      31.9997, renormalised to      32.0000

     negative rho (up, down):  1.837E-05 0.000E+00
     Starting wfcs are   64 randomized atomic wfcs
     Checking if some PAW data can be deallocated... 

     total cpu time spent up to now is        6.7 secs

     per-process dynamical memory:   186.6 Mb

     Self-consistent Calculation

     iteration #  1     ecut=   100.00 Ry     beta= 0.70
     Davidson diagonalization with overlap
     ethr =  1.00E-02,  avg # of iterations =  2.1

     negative rho (up, down):  1.014E-04 0.000E+00

     total cpu time spent up to now is       13.8 secs

     total energy              =    -142.44820618 Ry
     estimated scf accuracy    <       0.78287019 Ry

     iteration #  2     ecut=   100.00 Ry     beta= 0.70
     Davidson diagonalization with overlap
     ethr =  2.45E-03,  avg # of iterations =  3.0

     negative rho (up, down):  1.433E-04 0.000E+00

     total cpu time spent up to now is       20.5 secs

     total energy              =    -142.56095568 Ry
     estimated scf accuracy    <       0.00996118 Ry

     iteration #  3     ecut=   100.00 Ry     beta= 0.70
     Davidson diagonalization with overlap
     c_bands:  1 eigenvalues not converged
     ethr =  3.11E-05,  avg # of iterations = 10.5

     negative rho (up, down):  1.737E-04 0.000E+00

     total cpu time spent up to now is       29.3 secs

     total energy              =    -142.56250635 Ry
     estimated scf accuracy    <       0.00070124 Ry

     iteration #  4     ecut=   100.00 Ry     beta= 0.70
     Davidson diagonalization with overlap
     c_bands:  1 eigenvalues not converged
     c_bands:  2 eigenvalues not converged
     c_bands:  1 eigenvalues not converged
     c_bands:  3 eigenvalues not converged
     c_bands:  3 eigenvalues not converged
     ethr =  2.19E-06,  avg # of iterations =  5.2

     negative rho (up, down):  1.783E-04 0.000E+00

     total cpu time spent up to now is       37.2 secs

     total energy              =    -142.56264364 Ry
     estimated scf accuracy    <       0.00030132 Ry

     iteration #  5     ecut=   100.00 Ry     beta= 0.70
     Davidson diagonalization with overlap
     ethr =  9.42E-07,  avg # of iterations =  2.2

     negative rho (up, down):  1.804E-04 0.000E+00

     total cpu time spent up to now is       43.3 secs

     total energy              =    -142.56270557 Ry
     estimated scf accuracy    <       0.00000430 Ry

     iteration #  6     ecut=   100.00 Ry     beta= 0.70
     Davidson diagonalization with overlap
     ethr =  1.34E-08,  avg # of iterations =  3.7

     negative rho (up, down):  1.819E-04 0.000E+00

     total cpu time spent up to now is       50.9 secs

     total energy              =    -142.56270799 Ry
     estimated scf accuracy    <       0.00000158 Ry

     iteration #  7     ecut=   100.00 Ry     beta= 0.70
     Davidson diagonalization with overlap
     ethr =  4.92E-09,  avg # of iterations =  2.0

     negative rho (up, down):  1.819E-04 0.000E+00

     total cpu time spent up to now is       57.0 secs

     total energy              =    -142.56270815 Ry
     estimated scf accuracy    <       0.00000019 Ry

     iteration #  8     ecut=   100.00 Ry     beta= 0.70
     Davidson diagonalization with overlap
     ethr =  5.96E-10,  avg # of iterations =  2.3

     negative rho (up, down):  1.819E-04 0.000E+00

     total cpu time spent up to now is       63.9 secs

     total energy              =    -142.56270821 Ry
     estimated scf accuracy    <          9.4E-09 Ry

     iteration #  9     ecut=   100.00 Ry     beta= 0.70
     Davidson diagonalization with overlap
     ethr =  2.95E-11,  avg # of iterations =  2.9

     negative rho (up, down):  1.819E-04 0.000E+00

     total cpu time spent up to now is       70.5 secs

     total energy              =    -142.56270821 Ry
     estimated scf accuracy    <          6.3E-09 Ry

     iteration # 10     ecut=   100.00 Ry     beta= 0.70
     Davidson diagonalization with overlap
     ethr =  1.97E-11,  avg # of iterations =  2.0

     negative rho (up, down):  1.819E-04 0.000E+00

     total cpu time spent up to now is       76.6 secs

     total energy              =    -142.56270821 Ry
     estimated scf accuracy    <          4.7E-10 Ry

     iteration # 11     ecut=   100.00 Ry     beta= 0.70
     Davidson diagonalization with overlap
     ethr =  1.46E-12,  avg # of iterations =  2.6

     negative rho (up, down):  1.819E-04 0.000E+00

     total cpu time spent up to now is       83.3 secs

     total energy              =    -142.56270821 Ry
     estimated scf accuracy    <          2.2E-11 Ry

     iteration # 12     ecut=   100.00 Ry     beta= 0.70
     Davidson diagonalization with overlap
     ethr =  1.00E-13,  avg # of iterations =  2.3

     negative rho (up, down):  1.819E-04 0.000E+00

     total cpu time spent up to now is       89.9 secs

     total energy              =    -142.56270821 Ry
     estimated scf accuracy    <          4.6E-12 Ry

     iteration # 13     ecut=   100.00 Ry     beta= 0.70
     Davidson diagonalization with overlap
     ethr =  1.00E-13,  avg # of iterations =  1.0

     negative rho (up, down):  1.819E-04 0.000E+00

     total cpu time spent up to now is       95.0 secs

     total energy              =    -142.56270821 Ry
     estimated scf accuracy    <          2.7E-13 Ry

     iteration # 14     ecut=   100.00 Ry     beta= 0.70
     Davidson diagonalization with overlap
     ethr =  1.00E-13,  avg # of iterations =  1.0

     negative rho (up, down):  1.819E-04 0.000E+00

     total cpu time spent up to now is      100.1 secs

     total energy              =    -142.56270821 Ry
     estimated scf accuracy    <          8.1E-14 Ry

     iteration # 15     ecut=   100.00 Ry     beta= 0.70
     Davidson diagonalization with overlap
     ethr =  1.00E-13,  avg # of iterations =  1.0

     negative rho (up, down):  1.819E-04 0.000E+00

     total cpu time spent up to now is      105.1 secs

     total energy              =    -142.56270821 Ry
     estimated scf accuracy    <          9.3E-15 Ry

     iteration # 16     ecut=   100.00 Ry     beta= 0.70
     Davidson diagonalization with overlap
     ethr =  1.00E-13,  avg # of iterations =  1.0

     negative rho (up, down):  1.819E-04 0.000E+00

     total cpu time spent up to now is      110.2 secs

     total energy              =    -142.56270821 Ry
     estimated scf accuracy    <          1.0E-15 Ry

     iteration # 17     ecut=   100.00 Ry     beta= 0.70
     Davidson diagonalization with overlap
     ethr =  1.00E-13,  avg # of iterations =  1.0

     negative rho (up, down):  1.819E-04 0.000E+00

     total cpu time spent up to now is      115.3 secs

     total energy              =    -142.56270821 Ry
     estimated scf accuracy    <          6.5E-16 Ry

     iteration # 18     ecut=   100.00 Ry     beta= 0.70
     Davidson diagonalization with overlap
     ethr =  1.00E-13,  avg # of iterations =  1.0

     negative rho (up, down):  1.819E-04 0.000E+00

     total cpu time spent up to now is      120.4 secs

     total energy              =    -142.56270821 Ry
     estimated scf accuracy    <          1.3E-16 Ry

     iteration # 19     ecut=   100.00 Ry     beta= 0.70
     Davidson diagonalization with overlap
     ethr =  1.00E-13,  avg # of iterations =  1.0

     negative rho (up, down):  1.819E-04 0.000E+00

     total cpu time spent up to now is      125.5 secs

     End of self-consistent calculation

     Number of k-points >= 100: set verbosity='high' to print the bands.

     the Fermi energy is    -4.6898 ev

!    total energy              =    -142.56270821 Ry
     total all-electron energy =      -142.562708 Ry
     estimated scf accuracy    <          4.6E-17 Ry
     smearing contrib. (-TS)   =       0.00021279 Ry
     internal energy E=F+TS    =    -142.56292100 Ry

     The total energy is F=E-TS. E is the sum of the following terms:
     one-electron contribution =   -1252.07791895 Ry
     hartree contribution      =     629.42528084 Ry
     xc contribution           =     -35.58516274 Ry
     ewald contribution        =     561.48218919 Ry
     one-center paw contrib.   =     -45.80730933 Ry

     convergence has been achieved in  19 iterations

     negative rho (up, down):  1.819E-04 0.000E+00

     Forces acting on atoms (cartesian axes, Ry/au):

     atom    1 type  1   force =     0.01191222    0.00007623    0.00000000
     atom    2 type  1   force =    -0.00173737   -0.00000219    0.00000000
     atom    3 type  1   force =    -0.00185485   -0.00000251    0.00000000
     atom    4 type  1   force =    -0.00016533    0.00000302    0.00000000
     atom    5 type  1   force =     0.00011133    0.00113221    0.00000000
     atom    6 type  1   force =    -0.00413319    0.00138151    0.00000000
     atom    7 type  1   force =     0.00011232   -0.00113955    0.00000000
     atom    8 type  1   force =    -0.00424511   -0.00144872    0.00000000

     Total force =     0.013788     Total SCF correction =     0.000000

     Writing all to output data dir ./scratch_runs/atom01_x_minus/graphene_sup.save/ :
     XML data file, charge density, pseudopotentials, collected wavefunctions
 
     init_run     :      6.13s CPU      6.67s WALL (       1 calls)
     electrons    :    109.40s CPU    118.78s WALL (       1 calls)
     forces       :      0.72s CPU      0.73s WALL (       1 calls)

     Called by init_run:
     wfcinit      :      5.95s CPU      6.46s WALL (       1 calls)
     potinit      :      0.02s CPU      0.02s WALL (       1 calls)
     hinit0       :      0.04s CPU      0.05s WALL (       1 calls)

     Called by electrons:
     c_bands      :     91.68s CPU     99.24s WALL (      19 calls)
     sum_band     :     16.97s CPU     18.78s WALL (      19 calls)
     v_of_rho     :      0.09s CPU      0.09s WALL (      20 calls)
     newd         :      0.30s CPU      0.33s WALL (      20 calls)
     PAW_pot      :      0.24s CPU      0.25s WALL (      20 calls)
     mix_rho      :      0.11s CPU      0.11s WALL (      19 calls)

     Called by c_bands:
     init_us_2    :      3.80s CPU      3.83s WALL (    4000 calls)
     cegterg      :     84.73s CPU     92.24s WALL (    1900 calls)

     Called by *egterg:
     cdiaghg      :      1.96s CPU      1.98s WALL (    6664 calls)
     h_psi        :     66.99s CPU     74.85s WALL (    6764 calls)
     s_psi        :      3.10s CPU      3.13s WALL (    6764 calls)
     g_psi        :      0.31s CPU      0.31s WALL (    4764 calls)

     Called by h_psi:
     h_psi:calbec :      4.92s CPU      5.28s WALL (    6764 calls)
     vloc_psi     :     57.19s CPU     64.61s WALL (    6764 calls)
     add_vuspsi   :      4.00s CPU      4.05s WALL (    6764 calls)

     General routines
     calbec       :      7.10s CPU      7.55s WALL (    9064 calls)
     fft          :      0.06s CPU      0.07s WALL (      84 calls)
     ffts         :      0.01s CPU      0.01s WALL (      19 calls)
     fftw         :     57.31s CPU     65.15s WALL (  238978 calls)
 
     Parallel routines
 
     PWSCF        :   1m56.73s CPU   2m 7.20s WALL

 
   This run was terminated on:  12:52:24  12May2026            

=------------------------------------------------------------------------------=
   JOB DONE.
=------------------------------------------------------------------------------=

===== TIMING =====
Job:           atom01_x_minus
Start:         2026-05-12T12:50:16+02:00
End:           2026-05-12T12:52:24+02:00
Duration (s):  128
Duration (H:M:S): 00:02:08
==================
