
     Program PWSCF v.7.4 starts on  1Apr2026 at 12:28:34 

     This program is part of the open-source Quantum ESPRESSO suite
     for quantum simulation of materials; please cite
         "P. Giannozzi et al., J. Phys.:Condens. Matter 21 395502 (2009);
         "P. Giannozzi et al., J. Phys.:Condens. Matter 29 465901 (2017);
         "P. Giannozzi et al., J. Chem. Phys. 152 154105 (2020);
          URL http://www.quantum-espresso.org", 
     in publications or presentations arising from this work. More details at
     http://www.quantum-espresso.org/quote

     Parallel version (MPI), running on    12 processors

     MPI processes distributed on     1 nodes
     14164 MiB available memory on the printing compute node when the environment starts
 
     Reading input from al.scf.in

     Current dimensions of program PWSCF are:
     Max number of different atomic species (ntypx) = 10
     Max number of k-points (npk) =  40000
     Max angular momentum in pseudopotentials (lmaxx) =  4
read_pp_mesh; mismatch in mesh size, discarding the one in header
     Message from routine set_cutoff:
     ecutrho < 4*ecutwfc, are you sure?
     Message from routine setup:
     using ibrav=0 with symmetry is DISCOURAGED, use correct ibrav instead
 
     K-points division:     npool     =       2
     R & G space division:  proc/nbgrp/npool/nimage =       6
     Subspace diagonalization in iterative solution of the eigenvalue problem:
     a serial algorithm will be used

 
     Parallelization info
     --------------------
     sticks:   dense  smooth     PW     G-vecs:    dense   smooth      PW
     Min          27      27     18                  226      226     124
     Max          28      28     19                  228      228     127
     Sum         163     163    109                 1363     1363     749
 
     Using Slab Decomposition
 


     bravais-lattice index     =            0
     lattice parameter (alat)  =       5.3955  a.u.
     unit-cell volume          =     111.0634 (a.u.)^3
     number of atoms/cell      =            1
     number of atomic types    =            1
     number of electrons       =         3.00
     number of Kohn-Sham states=            6
     kinetic-energy cutoff     =      38.0000  Ry
     charge density cutoff     =      80.0000  Ry
     scf convergence threshold =      1.0E-16
     mixing beta               =       0.7000
     number of iterations used =            8  plain     mixing
     Exchange-correlation= SLA PW PBX PBC
                           (   1   4   3   4   0   0   0)

     celldm(1)=   5.395462  celldm(2)=   0.000000  celldm(3)=   0.000000
     celldm(4)=   0.000000  celldm(5)=   0.000000  celldm(6)=   0.000000

     crystal axes: (cart. coord. in units of alat)
               a(1) = (  -0.707107   0.000000   0.707107 )  
               a(2) = (   0.000000   0.707107   0.707107 )  
               a(3) = (  -0.707107   0.707107   0.000000 )  

     reciprocal axes: (cart. coord. in units 2 pi/alat)
               b(1) = ( -0.707107 -0.707107  0.707107 )  
               b(2) = (  0.707107  0.707107  0.707107 )  
               b(3) = ( -0.707107  0.707107 -0.707107 )  


     PseudoPot. # 1 for Al read from file:
     ./Al.upf
     MD5 check sum: fd3ab6bbf4b2322b308692f0f9c61a66
     Pseudo is Projector augmented-wave + core cor, Zval =  3.0
     Generated using ATOMPAW code
     Shape of augmentation charge: SINC**2
     Using radial grid of 2342 points,  4 beta functions with: 
                l(1) =   0
                l(2) =   0
                l(3) =   1
                l(4) =   1
     Q(r) pseudized with 0 coefficients 


     atomic species   valence    mass     pseudopotential
     Al                3.00    26.98150     Al( 1.00)

     48 Sym. Ops., with inversion, found


                                    s                        frac. trans.

      isym =  1     identity                                     

 cryst.   s( 1) = (     1          0          0      )
                  (     0          1          0      )
                  (     0          0          1      )

 cart.    s( 1) = (  1.0000000  0.0000000  0.0000000 )
                  (  0.0000000  1.0000000  0.0000000 )
                  (  0.0000000  0.0000000  1.0000000 )


      isym =  2     180 deg rotation - cart. axis [0,0,1]        

 cryst.   s( 2) = (     0          1         -1      )
                  (     1          0         -1      )
                  (     0          0         -1      )

 cart.    s( 2) = ( -1.0000000  0.0000000  0.0000000 )
                  (  0.0000000 -1.0000000  0.0000000 )
                  (  0.0000000  0.0000000  1.0000000 )


      isym =  3     180 deg rotation - cart. axis [0,1,0]        

 cryst.   s( 3) = (    -1          0          0      )
                  (    -1          0          1      )
                  (    -1          1          0      )

 cart.    s( 3) = ( -1.0000000  0.0000000  0.0000000 )
                  (  0.0000000  1.0000000  0.0000000 )
                  (  0.0000000  0.0000000 -1.0000000 )


      isym =  4     180 deg rotation - cart. axis [1,0,0]        

 cryst.   s( 4) = (     0         -1          1      )
                  (     0         -1          0      )
                  (     1         -1          0      )

 cart.    s( 4) = (  1.0000000  0.0000000  0.0000000 )
                  (  0.0000000 -1.0000000  0.0000000 )
                  (  0.0000000  0.0000000 -1.0000000 )


      isym =  5     180 deg rotation - cart. axis [1,1,0]        

 cryst.   s( 5) = (     0         -1          0      )
                  (    -1          0          0      )
                  (     0          0         -1      )

 cart.    s( 5) = (  0.0000000  1.0000000  0.0000000 )
                  (  1.0000000  0.0000000  0.0000000 )
                  (  0.0000000  0.0000000 -1.0000000 )


      isym =  6     180 deg rotation - cart. axis [1,-1,0]       

 cryst.   s( 6) = (    -1          0          1      )
                  (     0         -1          1      )
                  (     0          0          1      )

 cart.    s( 6) = (  0.0000000 -1.0000000  0.0000000 )
                  ( -1.0000000  0.0000000  0.0000000 )
                  (  0.0000000  0.0000000 -1.0000000 )


      isym =  7      90 deg rotation - cart. axis [0,0,-1]       

 cryst.   s( 7) = (     0          1          0      )
                  (     0          1         -1      )
                  (    -1          1          0      )

 cart.    s( 7) = (  0.0000000  1.0000000  0.0000000 )
                  ( -1.0000000  0.0000000  0.0000000 )
                  (  0.0000000  0.0000000  1.0000000 )


      isym =  8      90 deg rotation - cart. axis [0,0,1]        

 cryst.   s( 8) = (     1          0         -1      )
                  (     1          0          0      )
                  (     1         -1          0      )

 cart.    s( 8) = (  0.0000000 -1.0000000  0.0000000 )
                  (  1.0000000  0.0000000  0.0000000 )
                  (  0.0000000  0.0000000  1.0000000 )


      isym =  9     180 deg rotation - cart. axis [1,0,1]        

 cryst.   s( 9) = (    -1          0          0      )
                  (     0          0         -1      )
                  (     0         -1          0      )

 cart.    s( 9) = (  0.0000000  0.0000000  1.0000000 )
                  (  0.0000000 -1.0000000  0.0000000 )
                  (  1.0000000  0.0000000  0.0000000 )


      isym = 10     180 deg rotation - cart. axis [-1,0,1]       

 cryst.   s(10) = (     1          0          0      )
                  (     1         -1          0      )
                  (     1          0         -1      )

 cart.    s(10) = (  0.0000000  0.0000000 -1.0000000 )
                  (  0.0000000 -1.0000000  0.0000000 )
                  ( -1.0000000  0.0000000  0.0000000 )


      isym = 11      90 deg rotation - cart. axis [0,1,0]        

 cryst.   s(11) = (     0          1         -1      )
                  (    -1          1          0      )
                  (     0          1          0      )

 cart.    s(11) = (  0.0000000  0.0000000  1.0000000 )
                  (  0.0000000  1.0000000  0.0000000 )
                  ( -1.0000000  0.0000000  0.0000000 )


      isym = 12      90 deg rotation - cart. axis [0,-1,0]       

 cryst.   s(12) = (     0         -1          1      )
                  (     0          0          1      )
                  (    -1          0          1      )

 cart.    s(12) = (  0.0000000  0.0000000 -1.0000000 )
                  (  0.0000000  1.0000000  0.0000000 )
                  (  1.0000000  0.0000000  0.0000000 )


      isym = 13     180 deg rotation - cart. axis [0,1,1]        

 cryst.   s(13) = (    -1          1          0      )
                  (     0          1          0      )
                  (     0          1         -1      )

 cart.    s(13) = ( -1.0000000  0.0000000  0.0000000 )
                  (  0.0000000  0.0000000  1.0000000 )
                  (  0.0000000  1.0000000  0.0000000 )


      isym = 14     180 deg rotation - cart. axis [0,1,-1]       

 cryst.   s(14) = (     0          0         -1      )
                  (     0         -1          0      )
                  (    -1          0          0      )

 cart.    s(14) = ( -1.0000000  0.0000000  0.0000000 )
                  (  0.0000000  0.0000000 -1.0000000 )
                  (  0.0000000 -1.0000000  0.0000000 )


      isym = 15      90 deg rotation - cart. axis [-1,0,0]       

 cryst.   s(15) = (     0          0          1      )
                  (    -1          0          1      )
                  (     0         -1          1      )

 cart.    s(15) = (  1.0000000  0.0000000  0.0000000 )
                  (  0.0000000  0.0000000  1.0000000 )
                  (  0.0000000 -1.0000000  0.0000000 )


      isym = 16      90 deg rotation - cart. axis [1,0,0]        

 cryst.   s(16) = (     1         -1          0      )
                  (     1          0         -1      )
                  (     1          0          0      )

 cart.    s(16) = (  1.0000000  0.0000000  0.0000000 )
                  (  0.0000000  0.0000000 -1.0000000 )
                  (  0.0000000  1.0000000  0.0000000 )


      isym = 17     120 deg rotation - cart. axis [-1,-1,-1]     

 cryst.   s(17) = (    -1          0          1      )
                  (    -1          1          0      )
                  (    -1          0          0      )

 cart.    s(17) = (  0.0000000  1.0000000  0.0000000 )
                  (  0.0000000  0.0000000  1.0000000 )
                  (  1.0000000  0.0000000  0.0000000 )


      isym = 18     120 deg rotation - cart. axis [-1,1,1]       

 cryst.   s(18) = (     0          1          0      )
                  (     0          0          1      )
                  (     1          0          0      )

 cart.    s(18) = (  0.0000000 -1.0000000  0.0000000 )
                  (  0.0000000  0.0000000  1.0000000 )
                  ( -1.0000000  0.0000000  0.0000000 )


      isym = 19     120 deg rotation - cart. axis [1,1,-1]       

 cryst.   s(19) = (     1          0         -1      )
                  (     0          0         -1      )
                  (     0          1         -1      )

 cart.    s(19) = (  0.0000000  1.0000000  0.0000000 )
                  (  0.0000000  0.0000000 -1.0000000 )
                  ( -1.0000000  0.0000000  0.0000000 )


      isym = 20     120 deg rotation - cart. axis [1,-1,1]       

 cryst.   s(20) = (     0         -1          0      )
                  (     1         -1          0      )
                  (     0         -1          1      )

 cart.    s(20) = (  0.0000000 -1.0000000  0.0000000 )
                  (  0.0000000  0.0000000 -1.0000000 )
                  (  1.0000000  0.0000000  0.0000000 )


      isym = 21     120 deg rotation - cart. axis [1,1,1]        

 cryst.   s(21) = (     0          0         -1      )
                  (     0          1         -1      )
                  (     1          0         -1      )

 cart.    s(21) = (  0.0000000  0.0000000  1.0000000 )
                  (  1.0000000  0.0000000  0.0000000 )
                  (  0.0000000  1.0000000  0.0000000 )


      isym = 22     120 deg rotation - cart. axis [-1,1,-1]      

 cryst.   s(22) = (    -1          1          0      )
                  (    -1          0          0      )
                  (    -1          0          1      )

 cart.    s(22) = (  0.0000000  0.0000000  1.0000000 )
                  ( -1.0000000  0.0000000  0.0000000 )
                  (  0.0000000 -1.0000000  0.0000000 )


      isym = 23     120 deg rotation - cart. axis [1,-1,-1]      

 cryst.   s(23) = (     0          0          1      )
                  (     1          0          0      )
                  (     0          1          0      )

 cart.    s(23) = (  0.0000000  0.0000000 -1.0000000 )
                  ( -1.0000000  0.0000000  0.0000000 )
                  (  0.0000000  1.0000000  0.0000000 )


      isym = 24     120 deg rotation - cart. axis [-1,-1,1]      

 cryst.   s(24) = (     1         -1          0      )
                  (     0         -1          1      )
                  (     0         -1          0      )

 cart.    s(24) = (  0.0000000  0.0000000 -1.0000000 )
                  (  1.0000000  0.0000000  0.0000000 )
                  (  0.0000000 -1.0000000  0.0000000 )


      isym = 25     inversion                                    

 cryst.   s(25) = (    -1          0          0      )
                  (     0         -1          0      )
                  (     0          0         -1      )

 cart.    s(25) = ( -1.0000000  0.0000000  0.0000000 )
                  (  0.0000000 -1.0000000  0.0000000 )
                  (  0.0000000  0.0000000 -1.0000000 )


      isym = 26     inv. 180 deg rotation - cart. axis [0,0,1]   

 cryst.   s(26) = (     0         -1          1      )
                  (    -1          0          1      )
                  (     0          0          1      )

 cart.    s(26) = (  1.0000000  0.0000000  0.0000000 )
                  (  0.0000000  1.0000000  0.0000000 )
                  (  0.0000000  0.0000000 -1.0000000 )


      isym = 27     inv. 180 deg rotation - cart. axis [0,1,0]   

 cryst.   s(27) = (     1          0          0      )
                  (     1          0         -1      )
                  (     1         -1          0      )

 cart.    s(27) = (  1.0000000  0.0000000  0.0000000 )
                  (  0.0000000 -1.0000000  0.0000000 )
                  (  0.0000000  0.0000000  1.0000000 )


      isym = 28     inv. 180 deg rotation - cart. axis [1,0,0]   

 cryst.   s(28) = (     0          1         -1      )
                  (     0          1          0      )
                  (    -1          1          0      )

 cart.    s(28) = ( -1.0000000  0.0000000  0.0000000 )
                  (  0.0000000  1.0000000  0.0000000 )
                  (  0.0000000  0.0000000  1.0000000 )


      isym = 29     inv. 180 deg rotation - cart. axis [1,1,0]   

 cryst.   s(29) = (     0          1          0      )
                  (     1          0          0      )
                  (     0          0          1      )

 cart.    s(29) = (  0.0000000 -1.0000000  0.0000000 )
                  ( -1.0000000  0.0000000  0.0000000 )
                  (  0.0000000  0.0000000  1.0000000 )


      isym = 30     inv. 180 deg rotation - cart. axis [1,-1,0]  

 cryst.   s(30) = (     1          0         -1      )
                  (     0          1         -1      )
                  (     0          0         -1      )

 cart.    s(30) = (  0.0000000  1.0000000  0.0000000 )
                  (  1.0000000  0.0000000  0.0000000 )
                  (  0.0000000  0.0000000  1.0000000 )


      isym = 31     inv.  90 deg rotation - cart. axis [0,0,-1]  

 cryst.   s(31) = (     0         -1          0      )
                  (     0         -1          1      )
                  (     1         -1          0      )

 cart.    s(31) = (  0.0000000 -1.0000000  0.0000000 )
                  (  1.0000000  0.0000000  0.0000000 )
                  (  0.0000000  0.0000000 -1.0000000 )


      isym = 32     inv.  90 deg rotation - cart. axis [0,0,1]   

 cryst.   s(32) = (    -1          0          1      )
                  (    -1          0          0      )
                  (    -1          1          0      )

 cart.    s(32) = (  0.0000000  1.0000000  0.0000000 )
                  ( -1.0000000  0.0000000  0.0000000 )
                  (  0.0000000  0.0000000 -1.0000000 )


      isym = 33     inv. 180 deg rotation - cart. axis [1,0,1]   

 cryst.   s(33) = (     1          0          0      )
                  (     0          0          1      )
                  (     0          1          0      )

 cart.    s(33) = (  0.0000000  0.0000000 -1.0000000 )
                  (  0.0000000  1.0000000  0.0000000 )
                  ( -1.0000000  0.0000000  0.0000000 )


      isym = 34     inv. 180 deg rotation - cart. axis [-1,0,1]  

 cryst.   s(34) = (    -1          0          0      )
                  (    -1          1          0      )
                  (    -1          0          1      )

 cart.    s(34) = (  0.0000000  0.0000000  1.0000000 )
                  (  0.0000000  1.0000000  0.0000000 )
                  (  1.0000000  0.0000000  0.0000000 )


      isym = 35     inv.  90 deg rotation - cart. axis [0,1,0]   

 cryst.   s(35) = (     0         -1          1      )
                  (     1         -1          0      )
                  (     0         -1          0      )

 cart.    s(35) = (  0.0000000  0.0000000 -1.0000000 )
                  (  0.0000000 -1.0000000  0.0000000 )
                  (  1.0000000  0.0000000  0.0000000 )


      isym = 36     inv.  90 deg rotation - cart. axis [0,-1,0]  

 cryst.   s(36) = (     0          1         -1      )
                  (     0          0         -1      )
                  (     1          0         -1      )

 cart.    s(36) = (  0.0000000  0.0000000  1.0000000 )
                  (  0.0000000 -1.0000000  0.0000000 )
                  ( -1.0000000  0.0000000  0.0000000 )


      isym = 37     inv. 180 deg rotation - cart. axis [0,1,1]   

 cryst.   s(37) = (     1         -1          0      )
                  (     0         -1          0      )
                  (     0         -1          1      )

 cart.    s(37) = (  1.0000000  0.0000000  0.0000000 )
                  (  0.0000000  0.0000000 -1.0000000 )
                  (  0.0000000 -1.0000000  0.0000000 )


      isym = 38     inv. 180 deg rotation - cart. axis [0,1,-1]  

 cryst.   s(38) = (     0          0          1      )
                  (     0          1          0      )
                  (     1          0          0      )

 cart.    s(38) = (  1.0000000  0.0000000  0.0000000 )
                  (  0.0000000  0.0000000  1.0000000 )
                  (  0.0000000  1.0000000  0.0000000 )


      isym = 39     inv.  90 deg rotation - cart. axis [-1,0,0]  

 cryst.   s(39) = (     0          0         -1      )
                  (     1          0         -1      )
                  (     0          1         -1      )

 cart.    s(39) = ( -1.0000000  0.0000000  0.0000000 )
                  (  0.0000000  0.0000000 -1.0000000 )
                  (  0.0000000  1.0000000  0.0000000 )


      isym = 40     inv.  90 deg rotation - cart. axis [1,0,0]   

 cryst.   s(40) = (    -1          1          0      )
                  (    -1          0          1      )
                  (    -1          0          0      )

 cart.    s(40) = ( -1.0000000  0.0000000  0.0000000 )
                  (  0.0000000  0.0000000  1.0000000 )
                  (  0.0000000 -1.0000000  0.0000000 )


      isym = 41     inv. 120 deg rotation - cart. axis [-1,-1,-1]

 cryst.   s(41) = (     1          0         -1      )
                  (     1         -1          0      )
                  (     1          0          0      )

 cart.    s(41) = (  0.0000000 -1.0000000  0.0000000 )
                  (  0.0000000  0.0000000 -1.0000000 )
                  ( -1.0000000  0.0000000  0.0000000 )


      isym = 42     inv. 120 deg rotation - cart. axis [-1,1,1]  

 cryst.   s(42) = (     0         -1          0      )
                  (     0          0         -1      )
                  (    -1          0          0      )

 cart.    s(42) = (  0.0000000  1.0000000  0.0000000 )
                  (  0.0000000  0.0000000 -1.0000000 )
                  (  1.0000000  0.0000000  0.0000000 )


      isym = 43     inv. 120 deg rotation - cart. axis [1,1,-1]  

 cryst.   s(43) = (    -1          0          1      )
                  (     0          0          1      )
                  (     0         -1          1      )

 cart.    s(43) = (  0.0000000 -1.0000000  0.0000000 )
                  (  0.0000000  0.0000000  1.0000000 )
                  (  1.0000000  0.0000000  0.0000000 )


      isym = 44     inv. 120 deg rotation - cart. axis [1,-1,1]  

 cryst.   s(44) = (     0          1          0      )
                  (    -1          1          0      )
                  (     0          1         -1      )

 cart.    s(44) = (  0.0000000  1.0000000  0.0000000 )
                  (  0.0000000  0.0000000  1.0000000 )
                  ( -1.0000000  0.0000000  0.0000000 )


      isym = 45     inv. 120 deg rotation - cart. axis [1,1,1]   

 cryst.   s(45) = (     0          0          1      )
                  (     0         -1          1      )
                  (    -1          0          1      )

 cart.    s(45) = (  0.0000000  0.0000000 -1.0000000 )
                  ( -1.0000000  0.0000000  0.0000000 )
                  (  0.0000000 -1.0000000  0.0000000 )


      isym = 46     inv. 120 deg rotation - cart. axis [-1,1,-1] 

 cryst.   s(46) = (     1         -1          0      )
                  (     1          0          0      )
                  (     1          0         -1      )

 cart.    s(46) = (  0.0000000  0.0000000 -1.0000000 )
                  (  1.0000000  0.0000000  0.0000000 )
                  (  0.0000000  1.0000000  0.0000000 )


      isym = 47     inv. 120 deg rotation - cart. axis [1,-1,-1] 

 cryst.   s(47) = (     0          0         -1      )
                  (    -1          0          0      )
                  (     0         -1          0      )

 cart.    s(47) = (  0.0000000  0.0000000  1.0000000 )
                  (  1.0000000  0.0000000  0.0000000 )
                  (  0.0000000 -1.0000000  0.0000000 )


      isym = 48     inv. 120 deg rotation - cart. axis [-1,-1,1] 

 cryst.   s(48) = (    -1          1          0      )
                  (     0          1         -1      )
                  (     0          1          0      )

 cart.    s(48) = (  0.0000000  0.0000000  1.0000000 )
                  ( -1.0000000  0.0000000  0.0000000 )
                  (  0.0000000  1.0000000  0.0000000 )


   Cartesian axes

     site n.     atom                  positions (alat units)
         1        Al     tau(   1) = (   0.0000000   0.0000000   0.0000000  )

   Crystallographic axes

     site n.     atom                  positions (cryst. coord.)
         1        Al     tau(   1) = (  0.0000000  0.0000000  0.0000000  )

     number of k points=   182  Methfessel-Paxton smearing, width (Ry)=  0.0200
                       cart. coord. in units 2pi/alat
        k(    1) = (  -0.0294628   0.0294628   0.0294628), wk =   0.0023148
        k(    2) = (  -0.0883883   0.0883883  -0.0294628), wk =   0.0069444
        k(    3) = (  -0.1473139   0.1473139  -0.0883883), wk =   0.0069444
        k(    4) = (  -0.2062395   0.2062395  -0.1473139), wk =   0.0069444
        k(    5) = (  -0.2651650   0.2651650  -0.2062395), wk =   0.0069444
        k(    6) = (  -0.3240906   0.3240906  -0.2651650), wk =   0.0069444
        k(    7) = (   0.3240906  -0.3240906   0.3830162), wk =   0.0069444
        k(    8) = (   0.2651650  -0.2651650   0.3240906), wk =   0.0069444
        k(    9) = (   0.2062395  -0.2062395   0.2651650), wk =   0.0069444
        k(   10) = (   0.1473139  -0.1473139   0.2062395), wk =   0.0069444
        k(   11) = (   0.0883883  -0.0883883   0.1473139), wk =   0.0069444
        k(   12) = (   0.0294628  -0.0294628   0.0883883), wk =   0.0069444
        k(   13) = (  -0.0294628   0.1473139   0.0294628), wk =   0.0069444
        k(   14) = (  -0.0883883   0.2062395  -0.0294628), wk =   0.0138889
        k(   15) = (  -0.1473139   0.2651650  -0.0883883), wk =   0.0138889
        k(   16) = (  -0.2062395   0.3240906  -0.1473139), wk =   0.0138889
        k(   17) = (  -0.2651650   0.3830162  -0.2062395), wk =   0.0138889
        k(   18) = (   0.3830162  -0.2651650   0.4419417), wk =   0.0138889
        k(   19) = (   0.3240906  -0.2062395   0.3830162), wk =   0.0138889
        k(   20) = (   0.2651650  -0.1473139   0.3240906), wk =   0.0138889
        k(   21) = (   0.2062395  -0.0883883   0.2651650), wk =   0.0138889
        k(   22) = (   0.1473139  -0.0294628   0.2062395), wk =   0.0138889
        k(   23) = (   0.0883883   0.0294628   0.1473139), wk =   0.0138889
        k(   24) = (  -0.0294628   0.2651650   0.0294628), wk =   0.0069444
        k(   25) = (  -0.0883883   0.3240906  -0.0294628), wk =   0.0138889
        k(   26) = (  -0.1473139   0.3830162  -0.0883883), wk =   0.0138889
        k(   27) = (  -0.2062395   0.4419417  -0.1473139), wk =   0.0138889
        k(   28) = (   0.4419417  -0.2062395   0.5008673), wk =   0.0138889
        k(   29) = (   0.3830162  -0.1473139   0.4419417), wk =   0.0138889
        k(   30) = (   0.3240906  -0.0883883   0.3830162), wk =   0.0138889
        k(   31) = (   0.2651650  -0.0294628   0.3240906), wk =   0.0138889
        k(   32) = (   0.2062395   0.0294628   0.2651650), wk =   0.0138889
        k(   33) = (   0.1473139   0.0883883   0.2062395), wk =   0.0138889
        k(   34) = (  -0.0294628   0.3830162   0.0294628), wk =   0.0069444
        k(   35) = (  -0.0883883   0.4419417  -0.0294628), wk =   0.0138889
        k(   36) = (  -0.1473139   0.5008673  -0.0883883), wk =   0.0138889
        k(   37) = (   0.5008673  -0.1473139   0.5597929), wk =   0.0138889
        k(   38) = (   0.4419417  -0.0883883   0.5008673), wk =   0.0138889
        k(   39) = (   0.3830162  -0.0294628   0.4419417), wk =   0.0138889
        k(   40) = (   0.3240906   0.0294628   0.3830162), wk =   0.0138889
        k(   41) = (   0.2651650   0.0883883   0.3240906), wk =   0.0138889
        k(   42) = (   0.2062395   0.1473139   0.2651650), wk =   0.0138889
        k(   43) = (  -0.0294628   0.5008673   0.0294628), wk =   0.0069444
        k(   44) = (  -0.0883883   0.5597929  -0.0294628), wk =   0.0138889
        k(   45) = (   0.5597929  -0.0883883   0.6187184), wk =   0.0138889
        k(   46) = (   0.5008673  -0.0294628   0.5597929), wk =   0.0138889
        k(   47) = (   0.4419417   0.0294628   0.5008673), wk =   0.0138889
        k(   48) = (   0.3830162   0.0883883   0.4419417), wk =   0.0138889
        k(   49) = (   0.3240906   0.1473139   0.3830162), wk =   0.0138889
        k(   50) = (   0.2651650   0.2062395   0.3240906), wk =   0.0138889
        k(   51) = (  -0.0294628   0.6187184   0.0294628), wk =   0.0069444
        k(   52) = (   0.6187184  -0.0294628   0.6776440), wk =   0.0138889
        k(   53) = (   0.5597929   0.0294628   0.6187184), wk =   0.0138889
        k(   54) = (   0.5008673   0.0883883   0.5597929), wk =   0.0138889
        k(   55) = (   0.4419417   0.1473139   0.5008673), wk =   0.0138889
        k(   56) = (   0.3830162   0.2062395   0.4419417), wk =   0.0138889
        k(   57) = (   0.3240906   0.2651650   0.3830162), wk =   0.0138889
        k(   58) = (  -0.0294628  -0.6776440   0.0294628), wk =   0.0069444
        k(   59) = (  -0.0883883  -0.6187184  -0.0294628), wk =   0.0138889
        k(   60) = (  -0.1473139  -0.5597929  -0.0883883), wk =   0.0138889
        k(   61) = (  -0.2062395  -0.5008673  -0.1473139), wk =   0.0138889
        k(   62) = (  -0.2651650  -0.4419417  -0.2062395), wk =   0.0138889
        k(   63) = (  -0.0294628  -0.5597929   0.0294628), wk =   0.0069444
        k(   64) = (  -0.0883883  -0.5008673  -0.0294628), wk =   0.0138889
        k(   65) = (  -0.1473139  -0.4419417  -0.0883883), wk =   0.0138889
        k(   66) = (  -0.2062395  -0.3830162  -0.1473139), wk =   0.0138889
        k(   67) = (  -0.0294628  -0.4419417   0.0294628), wk =   0.0069444
        k(   68) = (  -0.0883883  -0.3830162  -0.0294628), wk =   0.0138889
        k(   69) = (  -0.1473139  -0.3240906  -0.0883883), wk =   0.0138889
        k(   70) = (  -0.0294628  -0.3240906   0.0294628), wk =   0.0069444
        k(   71) = (  -0.0883883  -0.2651650  -0.0294628), wk =   0.0138889
        k(   72) = (  -0.0294628  -0.2062395   0.0294628), wk =   0.0069444
        k(   73) = (  -0.0883883   0.0883883   0.0883883), wk =   0.0023148
        k(   74) = (  -0.1473139   0.1473139   0.0294628), wk =   0.0069444
        k(   75) = (  -0.2062395   0.2062395  -0.0294628), wk =   0.0069444
        k(   76) = (  -0.2651650   0.2651650  -0.0883883), wk =   0.0069444
        k(   77) = (  -0.3240906   0.3240906  -0.1473139), wk =   0.0069444
        k(   78) = (   0.3240906  -0.3240906   0.5008673), wk =   0.0069444
        k(   79) = (   0.2651650  -0.2651650   0.4419417), wk =   0.0069444
        k(   80) = (   0.2062395  -0.2062395   0.3830162), wk =   0.0069444
        k(   81) = (   0.1473139  -0.1473139   0.3240906), wk =   0.0069444
        k(   82) = (   0.0883883  -0.0883883   0.2651650), wk =   0.0069444
        k(   83) = (  -0.0883883   0.2062395   0.0883883), wk =   0.0069444
        k(   84) = (  -0.1473139   0.2651650   0.0294628), wk =   0.0138889
        k(   85) = (  -0.2062395   0.3240906  -0.0294628), wk =   0.0138889
        k(   86) = (  -0.2651650   0.3830162  -0.0883883), wk =   0.0138889
        k(   87) = (   0.3830162  -0.2651650   0.5597929), wk =   0.0138889
        k(   88) = (   0.3240906  -0.2062395   0.5008673), wk =   0.0138889
        k(   89) = (   0.2651650  -0.1473139   0.4419417), wk =   0.0138889
        k(   90) = (   0.2062395  -0.0883883   0.3830162), wk =   0.0138889
        k(   91) = (   0.1473139  -0.0294628   0.3240906), wk =   0.0138889
        k(   92) = (  -0.0883883   0.3240906   0.0883883), wk =   0.0069444
        k(   93) = (  -0.1473139   0.3830162   0.0294628), wk =   0.0138889
        k(   94) = (  -0.2062395   0.4419417  -0.0294628), wk =   0.0138889
        k(   95) = (   0.4419417  -0.2062395   0.6187184), wk =   0.0138889
        k(   96) = (   0.3830162  -0.1473139   0.5597929), wk =   0.0138889
        k(   97) = (   0.3240906  -0.0883883   0.5008673), wk =   0.0138889
        k(   98) = (   0.2651650  -0.0294628   0.4419417), wk =   0.0138889
        k(   99) = (   0.2062395   0.0294628   0.3830162), wk =   0.0138889
        k(  100) = (  -0.0883883   0.4419417   0.0883883), wk =   0.0069444
        k(  101) = (  -0.1473139   0.5008673   0.0294628), wk =   0.0138889
        k(  102) = (   0.5008673  -0.1473139   0.6776440), wk =   0.0138889
        k(  103) = (   0.4419417  -0.0883883   0.6187184), wk =   0.0138889
        k(  104) = (   0.3830162  -0.0294628   0.5597929), wk =   0.0138889
        k(  105) = (   0.3240906   0.0294628   0.5008673), wk =   0.0138889
        k(  106) = (   0.2651650   0.0883883   0.4419417), wk =   0.0138889
        k(  107) = (  -0.0883883   0.5597929   0.0883883), wk =   0.0069444
        k(  108) = (   0.5597929  -0.0883883   0.7365696), wk =   0.0138889
        k(  109) = (   0.5008673  -0.0294628   0.6776440), wk =   0.0138889
        k(  110) = (   0.4419417   0.0294628   0.6187184), wk =   0.0138889
        k(  111) = (   0.3830162   0.0883883   0.5597929), wk =   0.0138889
        k(  112) = (   0.3240906   0.1473139   0.5008673), wk =   0.0138889
        k(  113) = (  -0.0883883  -0.7365696   0.0883883), wk =   0.0069444
        k(  114) = (  -0.1473139  -0.6776440   0.0294628), wk =   0.0138889
        k(  115) = (  -0.2062395  -0.6187184  -0.0294628), wk =   0.0138889
        k(  116) = (  -0.2651650  -0.5597929  -0.0883883), wk =   0.0138889
        k(  117) = (  -0.0883883  -0.6187184   0.0883883), wk =   0.0069444
        k(  118) = (  -0.1473139  -0.5597929   0.0294628), wk =   0.0138889
        k(  119) = (  -0.2062395  -0.5008673  -0.0294628), wk =   0.0138889
        k(  120) = (  -0.0883883  -0.5008673   0.0883883), wk =   0.0069444
        k(  121) = (  -0.1473139  -0.4419417   0.0294628), wk =   0.0138889
        k(  122) = (  -0.0883883  -0.3830162   0.0883883), wk =   0.0069444
        k(  123) = (  -0.1473139   0.1473139   0.1473139), wk =   0.0023148
        k(  124) = (  -0.2062395   0.2062395   0.0883883), wk =   0.0069444
        k(  125) = (  -0.2651650   0.2651650   0.0294628), wk =   0.0069444
        k(  126) = (  -0.3240906   0.3240906  -0.0294628), wk =   0.0069444
        k(  127) = (   0.3240906  -0.3240906   0.6187184), wk =   0.0069444
        k(  128) = (   0.2651650  -0.2651650   0.5597929), wk =   0.0069444
        k(  129) = (   0.2062395  -0.2062395   0.5008673), wk =   0.0069444
        k(  130) = (   0.1473139  -0.1473139   0.4419417), wk =   0.0069444
        k(  131) = (  -0.1473139   0.2651650   0.1473139), wk =   0.0069444
        k(  132) = (  -0.2062395   0.3240906   0.0883883), wk =   0.0138889
        k(  133) = (  -0.2651650   0.3830162   0.0294628), wk =   0.0138889
        k(  134) = (   0.3830162  -0.2651650   0.6776440), wk =   0.0138889
        k(  135) = (   0.3240906  -0.2062395   0.6187184), wk =   0.0138889
        k(  136) = (   0.2651650  -0.1473139   0.5597929), wk =   0.0138889
        k(  137) = (   0.2062395  -0.0883883   0.5008673), wk =   0.0138889
        k(  138) = (  -0.1473139   0.3830162   0.1473139), wk =   0.0069444
        k(  139) = (  -0.2062395   0.4419417   0.0883883), wk =   0.0138889
        k(  140) = (   0.4419417  -0.2062395   0.7365696), wk =   0.0138889
        k(  141) = (   0.3830162  -0.1473139   0.6776440), wk =   0.0138889
        k(  142) = (   0.3240906  -0.0883883   0.6187184), wk =   0.0138889
        k(  143) = (   0.2651650  -0.0294628   0.5597929), wk =   0.0138889
        k(  144) = (  -0.1473139   0.5008673   0.1473139), wk =   0.0069444
        k(  145) = (   0.5008673  -0.1473139   0.7954951), wk =   0.0138889
        k(  146) = (   0.4419417  -0.0883883   0.7365696), wk =   0.0138889
        k(  147) = (   0.3830162  -0.0294628   0.6776440), wk =   0.0138889
        k(  148) = (   0.3240906   0.0294628   0.6187184), wk =   0.0138889
        k(  149) = (  -0.1473139  -0.7954951   0.1473139), wk =   0.0069444
        k(  150) = (  -0.2062395  -0.7365696   0.0883883), wk =   0.0138889
        k(  151) = (  -0.2651650  -0.6776440   0.0294628), wk =   0.0138889
        k(  152) = (  -0.1473139  -0.6776440   0.1473139), wk =   0.0069444
        k(  153) = (  -0.2062395  -0.6187184   0.0883883), wk =   0.0138889
        k(  154) = (  -0.1473139  -0.5597929   0.1473139), wk =   0.0069444
        k(  155) = (  -0.2062395   0.2062395   0.2062395), wk =   0.0023148
        k(  156) = (  -0.2651650   0.2651650   0.1473139), wk =   0.0069444
        k(  157) = (  -0.3240906   0.3240906   0.0883883), wk =   0.0069444
        k(  158) = (   0.3240906  -0.3240906   0.7365696), wk =   0.0069444
        k(  159) = (   0.2651650  -0.2651650   0.6776440), wk =   0.0069444
        k(  160) = (   0.2062395  -0.2062395   0.6187184), wk =   0.0069444
        k(  161) = (  -0.2062395   0.3240906   0.2062395), wk =   0.0069444
        k(  162) = (  -0.2651650   0.3830162   0.1473139), wk =   0.0138889
        k(  163) = (   0.3830162  -0.2651650   0.7954951), wk =   0.0138889
        k(  164) = (   0.3240906  -0.2062395   0.7365696), wk =   0.0138889
        k(  165) = (   0.2651650  -0.1473139   0.6776440), wk =   0.0138889
        k(  166) = (  -0.2062395   0.4419417   0.2062395), wk =   0.0069444
        k(  167) = (   0.4419417  -0.2062395   0.8544207), wk =   0.0138889
        k(  168) = (   0.3830162  -0.1473139   0.7954951), wk =   0.0138889
        k(  169) = (   0.3240906  -0.0883883   0.7365696), wk =   0.0138889
        k(  170) = (  -0.2062395  -0.8544207   0.2062395), wk =   0.0069444
        k(  171) = (  -0.2651650  -0.7954951   0.1473139), wk =   0.0138889
        k(  172) = (  -0.2062395  -0.7365696   0.2062395), wk =   0.0069444
        k(  173) = (  -0.2651650   0.2651650   0.2651650), wk =   0.0023148
        k(  174) = (  -0.3240906   0.3240906   0.2062395), wk =   0.0069444
        k(  175) = (   0.3240906  -0.3240906   0.8544207), wk =   0.0069444
        k(  176) = (   0.2651650  -0.2651650   0.7954951), wk =   0.0069444
        k(  177) = (  -0.2651650   0.3830162   0.2651650), wk =   0.0069444
        k(  178) = (   0.3830162  -0.2651650   0.9133463), wk =   0.0138889
        k(  179) = (   0.3240906  -0.2062395   0.8544207), wk =   0.0138889
        k(  180) = (  -0.2651650  -0.9133463   0.2651650), wk =   0.0069444
        k(  181) = (  -0.3240906   0.3240906   0.3240906), wk =   0.0023148
        k(  182) = (   0.3240906  -0.3240906   0.9722718), wk =   0.0069444

                       cryst. coord.
        k(    1) = (   0.0416667   0.0416667   0.0416667), wk =   0.0023148
        k(    2) = (   0.0416667   0.0416667   0.1250000), wk =   0.0069444
        k(    3) = (   0.0416667   0.0416667   0.2083333), wk =   0.0069444
        k(    4) = (   0.0416667   0.0416667   0.2916667), wk =   0.0069444
        k(    5) = (   0.0416667   0.0416667   0.3750000), wk =   0.0069444
        k(    6) = (   0.0416667   0.0416667   0.4583333), wk =   0.0069444
        k(    7) = (   0.0416667   0.0416667  -0.4583333), wk =   0.0069444
        k(    8) = (   0.0416667   0.0416667  -0.3750000), wk =   0.0069444
        k(    9) = (   0.0416667   0.0416667  -0.2916667), wk =   0.0069444
        k(   10) = (   0.0416667   0.0416667  -0.2083333), wk =   0.0069444
        k(   11) = (   0.0416667   0.0416667  -0.1250000), wk =   0.0069444
        k(   12) = (   0.0416667   0.0416667  -0.0416667), wk =   0.0069444
        k(   13) = (   0.0416667   0.1250000   0.1250000), wk =   0.0069444
        k(   14) = (   0.0416667   0.1250000   0.2083333), wk =   0.0138889
        k(   15) = (   0.0416667   0.1250000   0.2916667), wk =   0.0138889
        k(   16) = (   0.0416667   0.1250000   0.3750000), wk =   0.0138889
        k(   17) = (   0.0416667   0.1250000   0.4583333), wk =   0.0138889
        k(   18) = (   0.0416667   0.1250000  -0.4583333), wk =   0.0138889
        k(   19) = (   0.0416667   0.1250000  -0.3750000), wk =   0.0138889
        k(   20) = (   0.0416667   0.1250000  -0.2916667), wk =   0.0138889
        k(   21) = (   0.0416667   0.1250000  -0.2083333), wk =   0.0138889
        k(   22) = (   0.0416667   0.1250000  -0.1250000), wk =   0.0138889
        k(   23) = (   0.0416667   0.1250000  -0.0416667), wk =   0.0138889
        k(   24) = (   0.0416667   0.2083333   0.2083333), wk =   0.0069444
        k(   25) = (   0.0416667   0.2083333   0.2916667), wk =   0.0138889
        k(   26) = (   0.0416667   0.2083333   0.3750000), wk =   0.0138889
        k(   27) = (   0.0416667   0.2083333   0.4583333), wk =   0.0138889
        k(   28) = (   0.0416667   0.2083333  -0.4583333), wk =   0.0138889
        k(   29) = (   0.0416667   0.2083333  -0.3750000), wk =   0.0138889
        k(   30) = (   0.0416667   0.2083333  -0.2916667), wk =   0.0138889
        k(   31) = (   0.0416667   0.2083333  -0.2083333), wk =   0.0138889
        k(   32) = (   0.0416667   0.2083333  -0.1250000), wk =   0.0138889
        k(   33) = (   0.0416667   0.2083333  -0.0416667), wk =   0.0138889
        k(   34) = (   0.0416667   0.2916667   0.2916667), wk =   0.0069444
        k(   35) = (   0.0416667   0.2916667   0.3750000), wk =   0.0138889
        k(   36) = (   0.0416667   0.2916667   0.4583333), wk =   0.0138889
        k(   37) = (   0.0416667   0.2916667  -0.4583333), wk =   0.0138889
        k(   38) = (   0.0416667   0.2916667  -0.3750000), wk =   0.0138889
        k(   39) = (   0.0416667   0.2916667  -0.2916667), wk =   0.0138889
        k(   40) = (   0.0416667   0.2916667  -0.2083333), wk =   0.0138889
        k(   41) = (   0.0416667   0.2916667  -0.1250000), wk =   0.0138889
        k(   42) = (   0.0416667   0.2916667  -0.0416667), wk =   0.0138889
        k(   43) = (   0.0416667   0.3750000   0.3750000), wk =   0.0069444
        k(   44) = (   0.0416667   0.3750000   0.4583333), wk =   0.0138889
        k(   45) = (   0.0416667   0.3750000  -0.4583333), wk =   0.0138889
        k(   46) = (   0.0416667   0.3750000  -0.3750000), wk =   0.0138889
        k(   47) = (   0.0416667   0.3750000  -0.2916667), wk =   0.0138889
        k(   48) = (   0.0416667   0.3750000  -0.2083333), wk =   0.0138889
        k(   49) = (   0.0416667   0.3750000  -0.1250000), wk =   0.0138889
        k(   50) = (   0.0416667   0.3750000  -0.0416667), wk =   0.0138889
        k(   51) = (   0.0416667   0.4583333   0.4583333), wk =   0.0069444
        k(   52) = (   0.0416667   0.4583333  -0.4583333), wk =   0.0138889
        k(   53) = (   0.0416667   0.4583333  -0.3750000), wk =   0.0138889
        k(   54) = (   0.0416667   0.4583333  -0.2916667), wk =   0.0138889
        k(   55) = (   0.0416667   0.4583333  -0.2083333), wk =   0.0138889
        k(   56) = (   0.0416667   0.4583333  -0.1250000), wk =   0.0138889
        k(   57) = (   0.0416667   0.4583333  -0.0416667), wk =   0.0138889
        k(   58) = (   0.0416667  -0.4583333  -0.4583333), wk =   0.0069444
        k(   59) = (   0.0416667  -0.4583333  -0.3750000), wk =   0.0138889
        k(   60) = (   0.0416667  -0.4583333  -0.2916667), wk =   0.0138889
        k(   61) = (   0.0416667  -0.4583333  -0.2083333), wk =   0.0138889
        k(   62) = (   0.0416667  -0.4583333  -0.1250000), wk =   0.0138889
        k(   63) = (   0.0416667  -0.3750000  -0.3750000), wk =   0.0069444
        k(   64) = (   0.0416667  -0.3750000  -0.2916667), wk =   0.0138889
        k(   65) = (   0.0416667  -0.3750000  -0.2083333), wk =   0.0138889
        k(   66) = (   0.0416667  -0.3750000  -0.1250000), wk =   0.0138889
        k(   67) = (   0.0416667  -0.2916667  -0.2916667), wk =   0.0069444
        k(   68) = (   0.0416667  -0.2916667  -0.2083333), wk =   0.0138889
        k(   69) = (   0.0416667  -0.2916667  -0.1250000), wk =   0.0138889
        k(   70) = (   0.0416667  -0.2083333  -0.2083333), wk =   0.0069444
        k(   71) = (   0.0416667  -0.2083333  -0.1250000), wk =   0.0138889
        k(   72) = (   0.0416667  -0.1250000  -0.1250000), wk =   0.0069444
        k(   73) = (   0.1250000   0.1250000   0.1250000), wk =   0.0023148
        k(   74) = (   0.1250000   0.1250000   0.2083333), wk =   0.0069444
        k(   75) = (   0.1250000   0.1250000   0.2916667), wk =   0.0069444
        k(   76) = (   0.1250000   0.1250000   0.3750000), wk =   0.0069444
        k(   77) = (   0.1250000   0.1250000   0.4583333), wk =   0.0069444
        k(   78) = (   0.1250000   0.1250000  -0.4583333), wk =   0.0069444
        k(   79) = (   0.1250000   0.1250000  -0.3750000), wk =   0.0069444
        k(   80) = (   0.1250000   0.1250000  -0.2916667), wk =   0.0069444
        k(   81) = (   0.1250000   0.1250000  -0.2083333), wk =   0.0069444
        k(   82) = (   0.1250000   0.1250000  -0.1250000), wk =   0.0069444
        k(   83) = (   0.1250000   0.2083333   0.2083333), wk =   0.0069444
        k(   84) = (   0.1250000   0.2083333   0.2916667), wk =   0.0138889
        k(   85) = (   0.1250000   0.2083333   0.3750000), wk =   0.0138889
        k(   86) = (   0.1250000   0.2083333   0.4583333), wk =   0.0138889
        k(   87) = (   0.1250000   0.2083333  -0.4583333), wk =   0.0138889
        k(   88) = (   0.1250000   0.2083333  -0.3750000), wk =   0.0138889
        k(   89) = (   0.1250000   0.2083333  -0.2916667), wk =   0.0138889
        k(   90) = (   0.1250000   0.2083333  -0.2083333), wk =   0.0138889
        k(   91) = (   0.1250000   0.2083333  -0.1250000), wk =   0.0138889
        k(   92) = (   0.1250000   0.2916667   0.2916667), wk =   0.0069444
        k(   93) = (   0.1250000   0.2916667   0.3750000), wk =   0.0138889
        k(   94) = (   0.1250000   0.2916667   0.4583333), wk =   0.0138889
        k(   95) = (   0.1250000   0.2916667  -0.4583333), wk =   0.0138889
        k(   96) = (   0.1250000   0.2916667  -0.3750000), wk =   0.0138889
        k(   97) = (   0.1250000   0.2916667  -0.2916667), wk =   0.0138889
        k(   98) = (   0.1250000   0.2916667  -0.2083333), wk =   0.0138889
        k(   99) = (   0.1250000   0.2916667  -0.1250000), wk =   0.0138889
        k(  100) = (   0.1250000   0.3750000   0.3750000), wk =   0.0069444
        k(  101) = (   0.1250000   0.3750000   0.4583333), wk =   0.0138889
        k(  102) = (   0.1250000   0.3750000  -0.4583333), wk =   0.0138889
        k(  103) = (   0.1250000   0.3750000  -0.3750000), wk =   0.0138889
        k(  104) = (   0.1250000   0.3750000  -0.2916667), wk =   0.0138889
        k(  105) = (   0.1250000   0.3750000  -0.2083333), wk =   0.0138889
        k(  106) = (   0.1250000   0.3750000  -0.1250000), wk =   0.0138889
        k(  107) = (   0.1250000   0.4583333   0.4583333), wk =   0.0069444
        k(  108) = (   0.1250000   0.4583333  -0.4583333), wk =   0.0138889
        k(  109) = (   0.1250000   0.4583333  -0.3750000), wk =   0.0138889
        k(  110) = (   0.1250000   0.4583333  -0.2916667), wk =   0.0138889
        k(  111) = (   0.1250000   0.4583333  -0.2083333), wk =   0.0138889
        k(  112) = (   0.1250000   0.4583333  -0.1250000), wk =   0.0138889
        k(  113) = (   0.1250000  -0.4583333  -0.4583333), wk =   0.0069444
        k(  114) = (   0.1250000  -0.4583333  -0.3750000), wk =   0.0138889
        k(  115) = (   0.1250000  -0.4583333  -0.2916667), wk =   0.0138889
        k(  116) = (   0.1250000  -0.4583333  -0.2083333), wk =   0.0138889
        k(  117) = (   0.1250000  -0.3750000  -0.3750000), wk =   0.0069444
        k(  118) = (   0.1250000  -0.3750000  -0.2916667), wk =   0.0138889
        k(  119) = (   0.1250000  -0.3750000  -0.2083333), wk =   0.0138889
        k(  120) = (   0.1250000  -0.2916667  -0.2916667), wk =   0.0069444
        k(  121) = (   0.1250000  -0.2916667  -0.2083333), wk =   0.0138889
        k(  122) = (   0.1250000  -0.2083333  -0.2083333), wk =   0.0069444
        k(  123) = (   0.2083333   0.2083333   0.2083333), wk =   0.0023148
        k(  124) = (   0.2083333   0.2083333   0.2916667), wk =   0.0069444
        k(  125) = (   0.2083333   0.2083333   0.3750000), wk =   0.0069444
        k(  126) = (   0.2083333   0.2083333   0.4583333), wk =   0.0069444
        k(  127) = (   0.2083333   0.2083333  -0.4583333), wk =   0.0069444
        k(  128) = (   0.2083333   0.2083333  -0.3750000), wk =   0.0069444
        k(  129) = (   0.2083333   0.2083333  -0.2916667), wk =   0.0069444
        k(  130) = (   0.2083333   0.2083333  -0.2083333), wk =   0.0069444
        k(  131) = (   0.2083333   0.2916667   0.2916667), wk =   0.0069444
        k(  132) = (   0.2083333   0.2916667   0.3750000), wk =   0.0138889
        k(  133) = (   0.2083333   0.2916667   0.4583333), wk =   0.0138889
        k(  134) = (   0.2083333   0.2916667  -0.4583333), wk =   0.0138889
        k(  135) = (   0.2083333   0.2916667  -0.3750000), wk =   0.0138889
        k(  136) = (   0.2083333   0.2916667  -0.2916667), wk =   0.0138889
        k(  137) = (   0.2083333   0.2916667  -0.2083333), wk =   0.0138889
        k(  138) = (   0.2083333   0.3750000   0.3750000), wk =   0.0069444
        k(  139) = (   0.2083333   0.3750000   0.4583333), wk =   0.0138889
        k(  140) = (   0.2083333   0.3750000  -0.4583333), wk =   0.0138889
        k(  141) = (   0.2083333   0.3750000  -0.3750000), wk =   0.0138889
        k(  142) = (   0.2083333   0.3750000  -0.2916667), wk =   0.0138889
        k(  143) = (   0.2083333   0.3750000  -0.2083333), wk =   0.0138889
        k(  144) = (   0.2083333   0.4583333   0.4583333), wk =   0.0069444
        k(  145) = (   0.2083333   0.4583333  -0.4583333), wk =   0.0138889
        k(  146) = (   0.2083333   0.4583333  -0.3750000), wk =   0.0138889
        k(  147) = (   0.2083333   0.4583333  -0.2916667), wk =   0.0138889
        k(  148) = (   0.2083333   0.4583333  -0.2083333), wk =   0.0138889
        k(  149) = (   0.2083333  -0.4583333  -0.4583333), wk =   0.0069444
        k(  150) = (   0.2083333  -0.4583333  -0.3750000), wk =   0.0138889
        k(  151) = (   0.2083333  -0.4583333  -0.2916667), wk =   0.0138889
        k(  152) = (   0.2083333  -0.3750000  -0.3750000), wk =   0.0069444
        k(  153) = (   0.2083333  -0.3750000  -0.2916667), wk =   0.0138889
        k(  154) = (   0.2083333  -0.2916667  -0.2916667), wk =   0.0069444
        k(  155) = (   0.2916667   0.2916667   0.2916667), wk =   0.0023148
        k(  156) = (   0.2916667   0.2916667   0.3750000), wk =   0.0069444
        k(  157) = (   0.2916667   0.2916667   0.4583333), wk =   0.0069444
        k(  158) = (   0.2916667   0.2916667  -0.4583333), wk =   0.0069444
        k(  159) = (   0.2916667   0.2916667  -0.3750000), wk =   0.0069444
        k(  160) = (   0.2916667   0.2916667  -0.2916667), wk =   0.0069444
        k(  161) = (   0.2916667   0.3750000   0.3750000), wk =   0.0069444
        k(  162) = (   0.2916667   0.3750000   0.4583333), wk =   0.0138889
        k(  163) = (   0.2916667   0.3750000  -0.4583333), wk =   0.0138889
        k(  164) = (   0.2916667   0.3750000  -0.3750000), wk =   0.0138889
        k(  165) = (   0.2916667   0.3750000  -0.2916667), wk =   0.0138889
        k(  166) = (   0.2916667   0.4583333   0.4583333), wk =   0.0069444
        k(  167) = (   0.2916667   0.4583333  -0.4583333), wk =   0.0138889
        k(  168) = (   0.2916667   0.4583333  -0.3750000), wk =   0.0138889
        k(  169) = (   0.2916667   0.4583333  -0.2916667), wk =   0.0138889
        k(  170) = (   0.2916667  -0.4583333  -0.4583333), wk =   0.0069444
        k(  171) = (   0.2916667  -0.4583333  -0.3750000), wk =   0.0138889
        k(  172) = (   0.2916667  -0.3750000  -0.3750000), wk =   0.0069444
        k(  173) = (   0.3750000   0.3750000   0.3750000), wk =   0.0023148
        k(  174) = (   0.3750000   0.3750000   0.4583333), wk =   0.0069444
        k(  175) = (   0.3750000   0.3750000  -0.4583333), wk =   0.0069444
        k(  176) = (   0.3750000   0.3750000  -0.3750000), wk =   0.0069444
        k(  177) = (   0.3750000   0.4583333   0.4583333), wk =   0.0069444
        k(  178) = (   0.3750000   0.4583333  -0.4583333), wk =   0.0138889
        k(  179) = (   0.3750000   0.4583333  -0.3750000), wk =   0.0138889
        k(  180) = (   0.3750000  -0.4583333  -0.4583333), wk =   0.0069444
        k(  181) = (   0.4583333   0.4583333   0.4583333), wk =   0.0023148
        k(  182) = (   0.4583333   0.4583333  -0.4583333), wk =   0.0069444

     Dense  grid:     1363 G-vectors     FFT dimensions: (  15,  15,  15)

     Dynamical RAM for                 wfc:       0.01 MB

     Dynamical RAM for     wfc (w. buffer):       0.61 MB

     Dynamical RAM for           str. fact:       0.00 MB

     Dynamical RAM for           local pot:       0.00 MB

     Dynamical RAM for          nlocal pot:       0.01 MB

     Dynamical RAM for                qrad:       0.21 MB

     Dynamical RAM for          rho,v,vnew:       0.03 MB

     Dynamical RAM for               rhoin:       0.01 MB

     Dynamical RAM for            rho*nmix:       0.06 MB

     Dynamical RAM for           G-vectors:       0.01 MB

     Dynamical RAM for          h,s,v(r/c):       0.01 MB

     Dynamical RAM for          <psi|beta>:       0.00 MB

     Dynamical RAM for                 psi:       0.01 MB

     Dynamical RAM for                hpsi:       0.01 MB

     Dynamical RAM for                spsi:       0.01 MB

     Dynamical RAM for      wfcinit/wfcrot:       0.01 MB

     Dynamical RAM for           addusdens:       0.08 MB

     Dynamical RAM for          addusforce:       0.08 MB

     Estimated static dynamical RAM per process >       0.91 MB

     Estimated max dynamical RAM per process >       1.05 MB

     Estimated total dynamical RAM >      12.26 MB

     Initial potential from superposition of free atoms

     starting charge       2.9975, renormalised to       3.0000

     negative rho (up, down):  6.641E-04 0.000E+00
     Starting wfcs are    8 randomized atomic wfcs
     Checking if some PAW data can be deallocated... 

     total cpu time spent up to now is        0.2 secs

     per-process dynamical memory:    34.3 Mb

     Self-consistent Calculation

     iteration #  1     ecut=    38.00 Ry     beta= 0.70
     Davidson diagonalization with overlap

---- Real-time Memory Report at c_bands before calling an iterative solver
            99 MiB given to the printing process from OS
            33 MiB allocation reported by mallinfo(arena+hblkhd)
         14048 MiB available memory on the node where the printing process lives
------------------
     ethr =  1.00E-02,  avg # of iterations =  5.9

     Threshold (ethr) on eigenvalues was too large:
     Diagonalizing with lowered threshold

     Davidson diagonalization with overlap

---- Real-time Memory Report at c_bands before calling an iterative solver
           101 MiB given to the printing process from OS
            33 MiB allocation reported by mallinfo(arena+hblkhd)
         14038 MiB available memory on the node where the printing process lives
------------------
     ethr =  1.92E-04,  avg # of iterations =  2.2

     negative rho (up, down):  7.402E-04 0.000E+00

     total cpu time spent up to now is        0.3 secs

     total energy              =     -39.50158383 Ry
     estimated scf accuracy    <       0.00568846 Ry

     iteration #  2     ecut=    38.00 Ry     beta= 0.70
     Davidson diagonalization with overlap

---- Real-time Memory Report at c_bands before calling an iterative solver
           105 MiB given to the printing process from OS
            34 MiB allocation reported by mallinfo(arena+hblkhd)
         14036 MiB available memory on the node where the printing process lives
------------------
     ethr =  1.90E-04,  avg # of iterations =  1.0

     negative rho (up, down):  7.898E-04 0.000E+00

     total cpu time spent up to now is        0.4 secs

     total energy              =     -39.50176232 Ry
     estimated scf accuracy    <       0.00036934 Ry

     iteration #  3     ecut=    38.00 Ry     beta= 0.70
     Davidson diagonalization with overlap

---- Real-time Memory Report at c_bands before calling an iterative solver
           105 MiB given to the printing process from OS
            34 MiB allocation reported by mallinfo(arena+hblkhd)
         14036 MiB available memory on the node where the printing process lives
------------------
     ethr =  1.23E-05,  avg # of iterations =  2.1

     negative rho (up, down):  7.584E-04 0.000E+00

     total cpu time spent up to now is        0.5 secs

     total energy              =     -39.50178316 Ry
     estimated scf accuracy    <       0.00000048 Ry

     iteration #  4     ecut=    38.00 Ry     beta= 0.70
     Davidson diagonalization with overlap

---- Real-time Memory Report at c_bands before calling an iterative solver
           105 MiB given to the printing process from OS
            34 MiB allocation reported by mallinfo(arena+hblkhd)
         14029 MiB available memory on the node where the printing process lives
------------------
     ethr =  1.61E-08,  avg # of iterations =  3.2

     negative rho (up, down):  7.354E-04 0.000E+00

     total cpu time spent up to now is        0.5 secs

     total energy              =     -39.50178433 Ry
     estimated scf accuracy    <       0.00000004 Ry

     iteration #  5     ecut=    38.00 Ry     beta= 0.70
     Davidson diagonalization with overlap

---- Real-time Memory Report at c_bands before calling an iterative solver
           106 MiB given to the printing process from OS
            34 MiB allocation reported by mallinfo(arena+hblkhd)
         13973 MiB available memory on the node where the printing process lives
------------------
     ethr =  1.19E-09,  avg # of iterations =  1.1

     negative rho (up, down):  7.347E-04 0.000E+00

     total cpu time spent up to now is        0.6 secs

     total energy              =     -39.50178433 Ry
     estimated scf accuracy    <          4.2E-09 Ry

     iteration #  6     ecut=    38.00 Ry     beta= 0.70
     Davidson diagonalization with overlap

---- Real-time Memory Report at c_bands before calling an iterative solver
           106 MiB given to the printing process from OS
            34 MiB allocation reported by mallinfo(arena+hblkhd)
         13973 MiB available memory on the node where the printing process lives
------------------
     ethr =  1.39E-10,  avg # of iterations =  1.0

     negative rho (up, down):  7.343E-04 0.000E+00

     total cpu time spent up to now is        0.6 secs

     total energy              =     -39.50178433 Ry
     estimated scf accuracy    <          1.4E-11 Ry

     iteration #  7     ecut=    38.00 Ry     beta= 0.70
     Davidson diagonalization with overlap

---- Real-time Memory Report at c_bands before calling an iterative solver
           106 MiB given to the printing process from OS
            34 MiB allocation reported by mallinfo(arena+hblkhd)
         13973 MiB available memory on the node where the printing process lives
------------------
     ethr =  4.80E-13,  avg # of iterations =  2.1

     negative rho (up, down):  7.343E-04 0.000E+00

     total cpu time spent up to now is        0.7 secs

     total energy              =     -39.50178433 Ry
     estimated scf accuracy    <          2.0E-14 Ry

     iteration #  8     ecut=    38.00 Ry     beta= 0.70
     Davidson diagonalization with overlap

---- Real-time Memory Report at c_bands before calling an iterative solver
           106 MiB given to the printing process from OS
            34 MiB allocation reported by mallinfo(arena+hblkhd)
         13973 MiB available memory on the node where the printing process lives
------------------
     ethr =  1.00E-13,  avg # of iterations =  1.0

     negative rho (up, down):  7.343E-04 0.000E+00

     total cpu time spent up to now is        0.7 secs

     total energy              =     -39.50178433 Ry
     estimated scf accuracy    <          1.1E-16 Ry

     iteration #  9     ecut=    38.00 Ry     beta= 0.70
     Davidson diagonalization with overlap

---- Real-time Memory Report at c_bands before calling an iterative solver
           107 MiB given to the printing process from OS
            34 MiB allocation reported by mallinfo(arena+hblkhd)
         13966 MiB available memory on the node where the printing process lives
------------------
     ethr =  1.00E-13,  avg # of iterations =  1.0

     negative rho (up, down):  7.343E-04 0.000E+00

     total cpu time spent up to now is        0.8 secs

     total energy              =     -39.50178433 Ry
     estimated scf accuracy    <          4.5E-16 Ry

     iteration # 10     ecut=    38.00 Ry     beta= 0.70
     Davidson diagonalization with overlap

---- Real-time Memory Report at c_bands before calling an iterative solver
           107 MiB given to the printing process from OS
            34 MiB allocation reported by mallinfo(arena+hblkhd)
         13966 MiB available memory on the node where the printing process lives
------------------
     ethr =  1.00E-13,  avg # of iterations =  1.0

     negative rho (up, down):  7.343E-04 0.000E+00

     total cpu time spent up to now is        0.8 secs

     End of self-consistent calculation

          k =-0.0295 0.0295 0.0295 (   441 PWs)   bands (ev):

    -3.1438  19.5992  20.4050  20.4050  22.3557  22.3560

     occupation numbers 
     1.0000  -0.0000  -0.0000  -0.0000  -0.0000  -0.0000

          k =-0.0884 0.0884-0.0295 (   437 PWs)   bands (ev):

    -2.8919  17.4035  18.7969  20.6420  22.5124  23.0185

     occupation numbers 
     1.0000  -0.0000  -0.0000  -0.0000  -0.0000  -0.0000

          k =-0.1473 0.1473-0.0884 (   447 PWs)   bands (ev):

    -2.2642  14.0912  18.0676  20.1025  22.8672  23.1497

     occupation numbers 
     1.0000  -0.0000  -0.0000  -0.0000  -0.0000  -0.0000

          k =-0.2062 0.2062-0.1473 (   443 PWs)   bands (ev):

    -1.2655  10.9322  17.6553  19.7320  21.6851  22.6465

     occupation numbers 
     1.0000  -0.0000  -0.0000  -0.0000  -0.0000  -0.0000

          k =-0.2652 0.2652-0.2062 (   437 PWs)   bands (ev):

     0.0967   8.0342  17.5608  19.6492  20.3182  21.5468

     occupation numbers 
     1.0000   0.4322  -0.0000  -0.0000  -0.0000  -0.0000

          k =-0.3241 0.3241-0.2652 (   433 PWs)   bands (ev):

     1.8117   5.4359  17.7886  19.2315  19.8913  20.4704

     occupation numbers 
     1.0000   1.0000  -0.0000  -0.0000  -0.0000  -0.0000

          k = 0.3241-0.3241 0.3830 (   438 PWs)   bands (ev):

     3.1340   3.8923  18.3399  18.4765  19.7001  20.4321

     occupation numbers 
     1.0000   1.0000  -0.0000  -0.0000  -0.0000  -0.0000

          k = 0.2652-0.2652 0.3241 (   432 PWs)   bands (ev):

     1.2017   6.2672  18.0386  19.2071  19.2548  21.2885

     occupation numbers 
     1.0000   1.0000  -0.0000  -0.0000  -0.0000  -0.0000

          k = 0.2062-0.2062 0.2652 (   438 PWs)   bands (ev):

    -0.3972   8.9687  17.9197  19.1140  20.4013  22.4452

     occupation numbers 
     1.0000  -0.0000  -0.0000  -0.0000  -0.0000  -0.0000

          k = 0.1473-0.1473 0.2062 (   445 PWs)   bands (ev):

    -1.6392  11.9604  18.1175  19.2888  21.8646  22.9333

     occupation numbers 
     1.0000  -0.0000  -0.0000  -0.0000  -0.0000  -0.0000

          k = 0.0884-0.0884 0.1473 (   444 PWs)   bands (ev):

    -2.5150  15.1952  18.6265  19.7283  22.9407  23.2842

     occupation numbers 
     1.0000  -0.0000  -0.0000  -0.0000  -0.0000  -0.0000

          k = 0.0295-0.0295 0.0884 (   435 PWs)   bands (ev):

    -3.0178  18.5287  19.4277  20.1657  22.0200  23.2590

     occupation numbers 
     1.0000  -0.0000  -0.0000  -0.0000  -0.0000  -0.0000

          k =-0.0295 0.1473 0.0295 (   437 PWs)   bands (ev):

    -2.7661  17.4605  18.4039  19.3065  21.5009  23.7163

     occupation numbers 
     1.0000  -0.0000  -0.0000  -0.0000  -0.0000  -0.0000

          k =-0.0884 0.2062-0.0295 (   448 PWs)   bands (ev):

    -2.2642  15.2958  16.9023  19.5081  21.4213  21.9511

     occupation numbers 
     1.0000  -0.0000  -0.0000  -0.0000  -0.0000  -0.0000

          k =-0.1473 0.2652-0.0884 (   443 PWs)   bands (ev):

    -1.3900  12.1567  16.3235  19.3131  19.7612  23.3878

     occupation numbers 
     1.0000  -0.0000  -0.0000  -0.0000  -0.0000  -0.0000

          k =-0.2062 0.3241-0.1473 (   440 PWs)   bands (ev):

    -0.1502   9.1903  16.1035  18.2265  19.1960  23.4770

     occupation numbers 
     1.0000  -0.0000  -0.0000  -0.0000  -0.0000  -0.0000

          k =-0.2652 0.3830-0.2062 (   438 PWs)   bands (ev):

     1.4457   6.5000  16.2083  17.0170  19.3509  22.3293

     occupation numbers 
     1.0000   1.0000  -0.0000  -0.0000  -0.0000  -0.0000

          k = 0.3830-0.2652 0.4419 (   442 PWs)   bands (ev):

     3.3723   4.1331  16.0826  16.6948  19.8193  21.4667

     occupation numbers 
     1.0000   1.0000  -0.0000  -0.0000  -0.0000  -0.0000

          k = 0.3241-0.2062 0.3830 (   440 PWs)   bands (ev):

     2.0546   5.6702  15.5376  17.4540  20.5710  20.9505

     occupation numbers 
     1.0000   1.0000  -0.0000  -0.0000  -0.0000  -0.0000

          k = 0.2652-0.1473 0.3241 (   436 PWs)   bands (ev):

     0.3428   8.2572  15.3182  18.5496  20.6342  21.7442

     occupation numbers 
     1.0000  -0.0114  -0.0000  -0.0000  -0.0000  -0.0000

          k = 0.2062-0.0884 0.2652 (   443 PWs)   bands (ev):

    -1.0169  11.1278  15.4442  19.9501  20.6913  23.1016

     occupation numbers 
     1.0000  -0.0000  -0.0000  -0.0000  -0.0000  -0.0000

          k = 0.1473-0.0295 0.2062 (   445 PWs)   bands (ev):

    -2.0139  14.1691  15.9805  20.8618  21.5957  22.9548

     occupation numbers 
     1.0000  -0.0000  -0.0000  -0.0000  -0.0000  -0.0000

          k = 0.0884 0.0295 0.1473 (   441 PWs)   bands (ev):

    -2.6405  16.3069  17.8358  20.3069  22.2225  23.7970

     occupation numbers 
     1.0000  -0.0000  -0.0000  -0.0000  -0.0000  -0.0000

          k =-0.0295 0.2652 0.0295 (   441 PWs)   bands (ev):

    -1.8889  15.5655  16.6044  17.4749  19.3938  20.2289

     occupation numbers 
     1.0000  -0.0000  -0.0000  -0.0000  -0.0000  -0.0000

          k =-0.0884 0.3241-0.0295 (   441 PWs)   bands (ev):

    -1.1412  13.5828  15.2858  17.4091  17.9133  20.4718

     occupation numbers 
     1.0000  -0.0000  -0.0000  -0.0000  -0.0000  -0.0000

          k =-0.1473 0.3830-0.0884 (   444 PWs)   bands (ev):

    -0.0271  10.6513  14.8845  15.7490  17.9857  22.2542

     occupation numbers 
     1.0000  -0.0000  -0.0000  -0.0000  -0.0000  -0.0000

          k =-0.2062 0.4419-0.1473 (   439 PWs)   bands (ev):

     1.4444   7.8981  14.3155  14.9550  18.0993  24.4593

     occupation numbers 
     1.0000   0.8229  -0.0000  -0.0000  -0.0000  -0.0000

          k = 0.4419-0.2062 0.5009 (   436 PWs)   bands (ev):

     3.2584   5.4323  13.3228  15.2594  18.4912  23.9205

     occupation numbers 
     1.0000   1.0000  -0.0000  -0.0000  -0.0000  -0.0000

          k = 0.3830-0.1473 0.4419 (   437 PWs)   bands (ev):

     3.2613   5.4233  12.6529  15.9220  19.2017  23.2775

     occupation numbers 
     1.0000   1.0000  -0.0000  -0.0000  -0.0000  -0.0000

          k = 0.3241-0.0884 0.3830 (   435 PWs)   bands (ev):

     1.4455   7.8660  12.3487  16.9170  20.2286  22.9175

     occupation numbers 
     1.0000   0.8902  -0.0000  -0.0000  -0.0000  -0.0000

          k = 0.2652-0.0295 0.3241 (   439 PWs)   bands (ev):

    -0.0268  10.4803  12.5247  18.2338  21.5392  22.7334

     occupation numbers 
     1.0000  -0.0000  -0.0000  -0.0000  -0.0000  -0.0000

          k = 0.2062 0.0295 0.2652 (   445 PWs)   bands (ev):

    -1.1412  12.2175  14.1846  19.8509  21.6775  22.9984

     occupation numbers 
     1.0000  -0.0000  -0.0000  -0.0000  -0.0000  -0.0000

          k = 0.1473 0.0884 0.2062 (   444 PWs)   bands (ev):

    -1.8889  13.0731  17.1720  19.9441  21.7196  23.6177

     occupation numbers 
     1.0000  -0.0000  -0.0000  -0.0000  -0.0000  -0.0000

          k =-0.0295 0.3830 0.0295 (   437 PWs)   bands (ev):

    -0.5213  14.0778  15.2140  15.2548  16.0043  18.9844

     occupation numbers 
     1.0000  -0.0000  -0.0000  -0.0000  -0.0000  -0.0000

          k =-0.0884 0.4419-0.0295 (   440 PWs)   bands (ev):

     0.4644  12.3057  13.4017  14.1437  16.6655  19.3840

     occupation numbers 
     1.0000  -0.0000  -0.0000  -0.0000  -0.0000  -0.0000

          k =-0.1473 0.5009-0.0884 (   438 PWs)   bands (ev):

     1.8072   9.5943  11.9476  13.9405  16.9776  21.3776

     occupation numbers 
     1.0000  -0.0000  -0.0000  -0.0000  -0.0000  -0.0000

          k = 0.5009-0.1473 0.5598 (   440 PWs)   bands (ev):

     3.4916   7.0690  10.8069  14.1486  17.3256  23.9773

     occupation numbers 
     1.0000   1.0000  -0.0000  -0.0000  -0.0000  -0.0000

          k = 0.4419-0.0884 0.5009 (   438 PWs)   bands (ev):

     4.7971   5.5255  10.0334  14.7028  17.9530  25.8777

     occupation numbers 
     1.0000   1.0000  -0.0000  -0.0000  -0.0000  -0.0000

          k = 0.3830-0.0295 0.4419 (   436 PWs)   bands (ev):

     2.9012   7.6860   9.7557  15.5920  18.8954  25.4345

     occupation numbers 
     1.0000   1.0354  -0.0000  -0.0000  -0.0000  -0.0000

          k = 0.3241 0.0295 0.3830 (   433 PWs)   bands (ev):

     1.3233   8.9683  11.0400  16.8085  20.1388  23.9817

     occupation numbers 
     1.0000  -0.0000  -0.0000  -0.0000  -0.0000  -0.0000

          k = 0.2652 0.0884 0.3241 (   441 PWs)   bands (ev):

     0.0965   9.3875  13.8127  18.3398  21.4981  21.8181

     occupation numbers 
     1.0000  -0.0000  -0.0000  -0.0000  -0.0000  -0.0000

          k = 0.2062 0.1473 0.2652 (   442 PWs)   bands (ev):

    -0.7687  10.0065  16.8531  19.6969  20.1548  22.9979

     occupation numbers 
     1.0000  -0.0000  -0.0000  -0.0000  -0.0000  -0.0000

          k =-0.0295 0.5009 0.0295 (   443 PWs)   bands (ev):

     1.3195  11.4642  13.0469  14.2497  14.9562  18.0329

     occupation numbers 
     1.0000  -0.0000  -0.0000  -0.0000  -0.0000  -0.0000

          k =-0.0884 0.5598-0.0295 (   443 PWs)   bands (ev):

     2.5277   9.8355  11.5137  13.3361  15.8625  18.6442

     occupation numbers 
     1.0000  -0.0000  -0.0000  -0.0000  -0.0000  -0.0000

          k = 0.5598-0.0884 0.6187 (   441 PWs)   bands (ev):

     4.0643   8.5115   9.1122  13.3769  16.4027  20.8666

     occupation numbers 
     1.0000  -0.0131  -0.0000  -0.0000  -0.0000  -0.0000

          k = 0.5009-0.0295 0.5598 (   436 PWs)   bands (ev):

     5.8032   6.6778   7.8849  13.8128  16.9847  23.7050

     occupation numbers 
     1.0000   1.0000   0.8522  -0.0000  -0.0000  -0.0000

          k = 0.4419 0.0295 0.5009 (   439 PWs)   bands (ev):

     4.6931   6.6373   8.6911  14.5916  17.8423  26.5825

     occupation numbers 
     1.0000   1.0000  -0.0012  -0.0000  -0.0000  -0.0000

          k = 0.3830 0.0884 0.4419 (   438 PWs)   bands (ev):

     3.0216   6.5712  11.0829  15.7021  18.9993  24.3354

     occupation numbers 
     1.0000   1.0000  -0.0000  -0.0000  -0.0000  -0.0000

          k = 0.3241 0.1473 0.3830 (   437 PWs)   bands (ev):

     1.6895   6.7259  13.8950  17.1331  20.3943  21.8694

     occupation numbers 
     1.0000   1.0000  -0.0000  -0.0000  -0.0000  -0.0000

          k = 0.2652 0.2062 0.3241 (   437 PWs)   bands (ev):

     0.7116   7.2101  16.8609  18.8536  19.7341  21.7350

     occupation numbers 
     1.0000   1.0001  -0.0000  -0.0000  -0.0000  -0.0000

          k =-0.0295 0.6187 0.0295 (   451 PWs)   bands (ev):

     3.5867   8.1111  12.4629  13.7143  14.3754  17.4760

     occupation numbers 
     1.0000   0.2143  -0.0000  -0.0000  -0.0000  -0.0000

          k = 0.6187-0.0295 0.6776 (   448 PWs)   bands (ev):

     4.8750   6.8416  11.1606  13.0008  15.5168  18.3170

     occupation numbers 
     1.0000   1.0000  -0.0000  -0.0000  -0.0000  -0.0000

          k = 0.5598 0.0295 0.6187 (   438 PWs)   bands (ev):

     5.2256   7.1879   8.9408  13.2647  16.2869  20.7629

     occupation numbers 
     1.0000   1.0001  -0.0000  -0.0000  -0.0000  -0.0000

          k = 0.5009 0.0884 0.5598 (   439 PWs)   bands (ev):

     4.6569   6.8272   9.2163  13.9247  17.0988  23.7973

     occupation numbers 
     1.0000   1.0000  -0.0000  -0.0000  -0.0000  -0.0000

          k = 0.4419 0.1473 0.5009 (   439 PWs)   bands (ev):

     4.3143   5.0894  11.6184  14.9252  18.1712  24.8697

     occupation numbers 
     1.0000   1.0000  -0.0000  -0.0000  -0.0000  -0.0000

          k = 0.3830 0.2062 0.4419 (   441 PWs)   bands (ev):

     3.6110   4.3713  14.3360  16.2512  19.4878  22.3151

     occupation numbers 
     1.0000   1.0000  -0.0000  -0.0000  -0.0000  -0.0000

          k = 0.3241 0.2652 0.3830 (   439 PWs)   bands (ev):

     2.5390   4.7208  17.1919  17.8716  20.0750  20.7656

     occupation numbers 
     1.0000   1.0000  -0.0000  -0.0000  -0.0000  -0.0000

          k =-0.0295-0.6776 0.0295 (   445 PWs)   bands (ev):

     4.7580   6.7219  12.3461  13.6073  14.2593  17.3629

     occupation numbers 
     1.0000   1.0000  -0.0000  -0.0000  -0.0000  -0.0000

          k =-0.0884-0.6187-0.0295 (   447 PWs)   bands (ev):

     3.7063   8.2266  11.2779  13.1125  15.6322  18.4264

     occupation numbers 
     1.0000   0.0132  -0.0000  -0.0000  -0.0000  -0.0000

          k =-0.1473-0.5598-0.0884 (   439 PWs)   bands (ev):

     2.8901   9.2196  10.2448  13.6016  16.6336  21.0729

     occupation numbers 
     1.0000  -0.0000  -0.0000  -0.0000  -0.0000  -0.0000

          k =-0.2062-0.5009-0.1473 (   437 PWs)   bands (ev):

     2.4145   7.4254  12.5222  14.4859  17.6617  24.2299

     occupation numbers 
     1.0000   1.0047  -0.0000  -0.0000  -0.0000  -0.0000

          k =-0.2652-0.4419-0.2062 (   437 PWs)   bands (ev):

     2.2962   5.9065  15.1017  15.7189  18.8970  23.0681

     occupation numbers 
     1.0000   1.0000  -0.0000  -0.0000  -0.0000  -0.0000

          k =-0.0295-0.5598 0.0295 (   446 PWs)   bands (ev):

     2.4067   9.7263  12.6964  13.9284  14.6077  17.7011

     occupation numbers 
     1.0000  -0.0000  -0.0000  -0.0000  -0.0000  -0.0000

          k =-0.0884-0.5009-0.0295 (   439 PWs)   bands (ev):

     1.4416  11.5353  11.8947  13.6734  16.2074  18.9655

     occupation numbers 
     1.0000  -0.0000  -0.0000  -0.0000  -0.0000  -0.0000

          k =-0.1473-0.4419-0.0884 (   445 PWs)   bands (ev):

     0.8327  10.0669  13.7457  14.4143  17.4303  21.7744

     occupation numbers 
     1.0000  -0.0000  -0.0000  -0.0000  -0.0000  -0.0000

          k =-0.2062-0.3830-0.1473 (   439 PWs)   bands (ev):

     0.5883   8.4869  15.4340  16.2883  18.6234  24.0723

     occupation numbers 
     1.0000  -0.0167  -0.0000  -0.0000  -0.0000  -0.0000

          k =-0.0295-0.4419 0.0295 (   439 PWs)   bands (ev):

     0.3415  13.2849  13.5343  14.6783  15.4206  18.4641

     occupation numbers 
     1.0000  -0.0000  -0.0000  -0.0000  -0.0000  -0.0000

          k =-0.0884-0.3830-0.0295 (   441 PWs)   bands (ev):

    -0.3976  12.8900  14.6058  15.4195  17.2346  19.8904

     occupation numbers 
     1.0000  -0.0000  -0.0000  -0.0000  -0.0000  -0.0000

          k =-0.1473-0.3241-0.0884 (   443 PWs)   bands (ev):

    -0.7688  11.3483  15.5617  17.7235  18.6291  22.8017

     occupation numbers 
     1.0000  -0.0000  -0.0000  -0.0000  -0.0000  -0.0000

          k =-0.0295-0.3241 0.0295 (   442 PWs)   bands (ev):

    -1.2656  14.7684  15.8563  16.6720  17.3028  19.5789

     occupation numbers 
     1.0000  -0.0000  -0.0000  -0.0000  -0.0000  -0.0000

          k =-0.0884-0.2652-0.0295 (   440 PWs)   bands (ev):

    -1.7640  14.3858  16.0480  18.6721  19.4918  21.1145

     occupation numbers 
     1.0000  -0.0000  -0.0000  -0.0000  -0.0000  -0.0000

          k =-0.0295-0.2062 0.0295 (   447 PWs)   bands (ev):

    -2.3895  16.4656  17.4557  18.3636  20.8665  21.5704

     occupation numbers 
     1.0000  -0.0000  -0.0000  -0.0000  -0.0000  -0.0000

          k =-0.0884 0.0884 0.0884 (   432 PWs)   bands (ev):

    -2.7662  16.2912  19.6540  19.6540  22.6978  23.6316

     occupation numbers 
     1.0000  -0.0000  -0.0000  -0.0000  -0.0000  -0.0000

          k =-0.1473 0.1473 0.0295 (   445 PWs)   bands (ev):

    -2.3895  15.1916  16.9072  21.1110  22.6077  23.5005

     occupation numbers 
     1.0000  -0.0000  -0.0000  -0.0000  -0.0000  -0.0000

          k =-0.2062 0.2062-0.0295 (   449 PWs)   bands (ev):

    -1.6392  13.1394  15.0507  21.2659  21.8723  23.2790

     occupation numbers 
     1.0000  -0.0000  -0.0000  -0.0000  -0.0000  -0.0000

          k =-0.2652 0.2652-0.0884 (   437 PWs)   bands (ev):

    -0.5210  10.2027  14.5883  19.7492  21.7012  21.7029

     occupation numbers 
     1.0000  -0.0000  -0.0000  -0.0000  -0.0000  -0.0000

          k =-0.3241 0.3241-0.1473 (   437 PWs)   bands (ev):

     0.9567   7.4345  14.5643  18.4712  20.3671  21.7324

     occupation numbers 
     1.0000   1.0053  -0.0000  -0.0000  -0.0000  -0.0000

          k = 0.3241-0.3241 0.5009 (   445 PWs)   bands (ev):

     2.7803   4.9567  14.8956  17.4998  19.3336  22.0639

     occupation numbers 
     1.0000   1.0000  -0.0000  -0.0000  -0.0000  -0.0000

          k = 0.2652-0.2652 0.4419 (   441 PWs)   bands (ev):

     2.7795   4.9589  15.5690  16.8485  18.6251  22.7053

     occupation numbers 
     1.0000   1.0000  -0.0000  -0.0000  -0.0000  -0.0000

          k = 0.2062-0.2062 0.3830 (   434 PWs)   bands (ev):

     0.9564   7.4414  16.5191  16.5752  18.2506  23.6476

     occupation numbers 
     1.0000   1.0057  -0.0000  -0.0000  -0.0000  -0.0000

          k = 0.1473-0.1473 0.3241 (   439 PWs)   bands (ev):

    -0.5210  10.2271  16.5112  17.8671  18.2333  24.0977

     occupation numbers 
     1.0000  -0.0000  -0.0000  -0.0000  -0.0000  -0.0000

          k = 0.0884-0.0884 0.2652 (   447 PWs)   bands (ev):

    -1.6392  13.2729  16.8237  18.3404  19.5867  22.1288

     occupation numbers 
     1.0000  -0.0000  -0.0000  -0.0000  -0.0000  -0.0000

          k =-0.0884 0.2062 0.0884 (   452 PWs)   bands (ev):

    -2.1390  14.1838  17.6764  19.1183  21.5991  22.8578

     occupation numbers 
     1.0000  -0.0000  -0.0000  -0.0000  -0.0000  -0.0000

          k =-0.1473 0.2652 0.0295 (   445 PWs)   bands (ev):

    -1.5145  13.2518  15.1214  19.6652  20.1680  22.3175

     occupation numbers 
     1.0000  -0.0000  -0.0000  -0.0000  -0.0000  -0.0000

          k =-0.2062 0.3241-0.0295 (   437 PWs)   bands (ev):

    -0.5210  11.4073  13.4059  17.9245  21.0805  22.9236

     occupation numbers 
     1.0000  -0.0000  -0.0000  -0.0000  -0.0000  -0.0000

          k =-0.2652 0.3830-0.0884 (   439 PWs)   bands (ev):

     0.8338   8.6855  13.1329  16.4827  21.2068  22.1780

     occupation numbers 
     1.0000  -0.0013  -0.0000  -0.0000  -0.0000  -0.0000

          k = 0.3830-0.2652 0.5598 (   436 PWs)   bands (ev):

     2.5385   6.1337  13.3208  15.3684  20.9836  21.6076

     occupation numbers 
     1.0000   1.0000  -0.0000  -0.0000  -0.0000  -0.0000

          k = 0.3241-0.2062 0.5009 (   438 PWs)   bands (ev):

     3.8467   4.6117  13.8423  14.6183  20.2337  22.1356

     occupation numbers 
     1.0000   1.0000  -0.0000  -0.0000  -0.0000  -0.0000

          k = 0.2652-0.1473 0.4419 (   437 PWs)   bands (ev):

     1.9319   6.9602  14.0532  14.8673  19.7523  22.9917

     occupation numbers 
     1.0000   1.0000  -0.0000  -0.0000  -0.0000  -0.0000

          k = 0.2062-0.0884 0.3830 (   436 PWs)   bands (ev):

     0.3425   9.6161  13.9980  16.0736  19.5492  23.5605

     occupation numbers 
     1.0000  -0.0000  -0.0000  -0.0000  -0.0000  -0.0000

          k = 0.1473-0.0295 0.3241 (   442 PWs)   bands (ev):

    -0.8928  12.4445  14.3504  17.6312  19.4457  21.7253

     occupation numbers 
     1.0000  -0.0000  -0.0000  -0.0000  -0.0000  -0.0000

          k =-0.0884 0.3241 0.0884 (   442 PWs)   bands (ev):

    -1.0170  12.4687  16.0746  17.4011  17.7129  21.4860

     occupation numbers 
     1.0000  -0.0000  -0.0000  -0.0000  -0.0000  -0.0000

          k =-0.1473 0.3830 0.0295 (   441 PWs)   bands (ev):

    -0.1505  11.7495  13.6709  15.6420  18.7939  21.1768

     occupation numbers 
     1.0000  -0.0000  -0.0000  -0.0000  -0.0000  -0.0000

          k =-0.2062 0.4419-0.0295 (   438 PWs)   bands (ev):

     1.0777  10.1284  12.1339  14.0729  19.9359  22.1415

     occupation numbers 
     1.0000  -0.0000  -0.0000  -0.0000  -0.0000  -0.0000

          k = 0.4419-0.2062 0.6187 (   437 PWs)   bands (ev):

     2.6566   7.6270  12.0262  12.8760  20.3476  23.5777

     occupation numbers 
     1.0000   1.0312  -0.0000  -0.0000  -0.0000  -0.0000

          k = 0.3830-0.1473 0.5598 (   436 PWs)   bands (ev):

     4.5519   5.3191  11.7730  12.6445  20.8658  22.8487

     occupation numbers 
     1.0000   1.0000  -0.0000  -0.0000  -0.0000  -0.0000

          k = 0.3241-0.0884 0.5009 (   432 PWs)   bands (ev):

     3.2598   6.8060  11.2908  13.3793  21.6097  22.2992

     occupation numbers 
     1.0000   1.0000  -0.0000  -0.0000  -0.0000  -0.0000

          k = 0.2652-0.0295 0.4419 (   435 PWs)   bands (ev):

     1.5664   9.1999  11.2523  14.5035  21.7177  22.6715

     occupation numbers 
     1.0000  -0.0000  -0.0000  -0.0000  -0.0000  -0.0000

          k = 0.2062 0.0295 0.3830 (   437 PWs)   bands (ev):

     0.2194  10.7106  12.7232  15.9646  20.4721  22.5539

     occupation numbers 
     1.0000  -0.0000  -0.0000  -0.0000  -0.0000  -0.0000

          k =-0.0884 0.4419 0.0884 (   441 PWs)   bands (ev):

     0.5873  11.1906  13.5570  14.8951  16.3645  20.4084

     occupation numbers 
     1.0000  -0.0000  -0.0000  -0.0000  -0.0000  -0.0000

          k =-0.1473 0.5009 0.0295 (   440 PWs)   bands (ev):

     1.6854  10.6947  11.7699  12.7751  17.7870  20.2940

     occupation numbers 
     1.0000  -0.0000  -0.0000  -0.0000  -0.0000  -0.0000

          k = 0.5009-0.1473 0.6776 (   438 PWs)   bands (ev):

     3.1313   9.3023  10.3712  11.4854  19.1621  21.4918

     occupation numbers 
     1.0000  -0.0000  -0.0000  -0.0000  -0.0000  -0.0000

          k = 0.4419-0.0884 0.6187 (   437 PWs)   bands (ev):

     4.8943   7.0316   9.4244  11.5982  19.8166  23.9683

     occupation numbers 
     1.0000   1.0000  -0.0000  -0.0000  -0.0000  -0.0000

          k = 0.3830-0.0295 0.5598 (   436 PWs)   bands (ev):

     4.9227   6.8701   8.9146  12.2397  20.5680  24.8800

     occupation numbers 
     1.0000   1.0000  -0.0000  -0.0000  -0.0000  -0.0000

          k = 0.3241 0.0295 0.5009 (   434 PWs)   bands (ev):

     3.1396   7.9184   9.9753  13.2580  21.5635  23.2282

     occupation numbers 
     1.0000   0.7738  -0.0000  -0.0000  -0.0000  -0.0000

          k = 0.2652 0.0884 0.4419 (   436 PWs)   bands (ev):

     1.6884   8.0983  12.5507  14.6199  20.7521  22.8460

     occupation numbers 
     1.0000   0.2468  -0.0000  -0.0000  -0.0000  -0.0000

          k =-0.0884 0.5598 0.0884 (   443 PWs)   bands (ev):

     2.6486   9.8997  10.4607  14.1445  15.5348  19.6812

     occupation numbers 
     1.0000  -0.0000  -0.0000  -0.0000  -0.0000  -0.0000

          k = 0.5598-0.0884 0.7366 (   441 PWs)   bands (ev):

     3.9452   8.4536  10.1383  12.1541  17.2191  19.7771

     occupation numbers 
     1.0000  -0.0221  -0.0000  -0.0000  -0.0000  -0.0000

          k = 0.5009-0.0295 0.6776 (   439 PWs)   bands (ev):

     5.4594   7.4261   8.9834  11.0736  18.8252  21.1966

     occupation numbers 
     1.0000   1.0047  -0.0000  -0.0000  -0.0000  -0.0000

          k = 0.4419 0.0295 0.6187 (   438 PWs)   bands (ev):

     6.0368   6.8865   8.1036  11.4718  19.7081  23.9076

     occupation numbers 
     1.0000   1.0000   0.2332  -0.0000  -0.0000  -0.0000

          k = 0.3830 0.0884 0.5598 (   433 PWs)   bands (ev):

     5.0263   5.7616  10.2435  12.3640  20.6697  23.8657

     occupation numbers 
     1.0000   1.0000  -0.0000  -0.0000  -0.0000  -0.0000

          k = 0.3241 0.1473 0.5009 (   439 PWs)   bands (ev):

     3.4988   5.6606  12.8112  13.6473  21.1251  21.9389

     occupation numbers 
     1.0000   1.0000  -0.0000  -0.0000  -0.0000  -0.0000

          k =-0.0884-0.7366 0.0884 (   445 PWs)   bands (ev):

     4.9920   6.9592  10.0559  13.8230  15.1749  19.3610

     occupation numbers 
     1.0000   1.0000  -0.0000  -0.0000  -0.0000  -0.0000

          k =-0.1473-0.6776 0.0295 (   444 PWs)   bands (ev):

     5.1089   7.0788  10.0183  12.0370  17.1047  19.6718

     occupation numbers 
     1.0000   1.0000  -0.0000  -0.0000  -0.0000  -0.0000

          k =-0.2062-0.6187-0.0295 (   438 PWs)   bands (ev):

     4.3027   8.7481   9.1405  11.2010  18.9378  21.2959

     occupation numbers 
     1.0000  -0.0004  -0.0000  -0.0000  -0.0000  -0.0000

          k =-0.2652-0.5598-0.0884 (   439 PWs)   bands (ev):

     3.7316   7.2720  10.9571  11.8852  20.0315  23.9974

     occupation numbers 
     1.0000   1.0004  -0.0000  -0.0000  -0.0000  -0.0000

          k =-0.0884-0.6187 0.0884 (   445 PWs)   bands (ev):

     3.8258   8.3368  10.1787  13.9302  15.2952  19.4681

     occupation numbers 
     1.0000  -0.0353  -0.0000  -0.0000  -0.0000  -0.0000

          k =-0.1473-0.5598 0.0295 (   441 PWs)   bands (ev):

     2.7695  10.0173  10.4077  12.3916  17.4467  19.9858

     occupation numbers 
     1.0000  -0.0000  -0.0000  -0.0000  -0.0000  -0.0000

          k =-0.2062-0.5009-0.0295 (   438 PWs)   bands (ev):

     2.0504   9.6606  11.5688  12.3528  19.4962  21.7781

     occupation numbers 
     1.0000  -0.0000  -0.0000  -0.0000  -0.0000  -0.0000

          k =-0.0884-0.5009 0.0884 (   438 PWs)   bands (ev):

     1.5636  10.7072  11.7377  14.4661  15.8924  19.9967

     occupation numbers 
     1.0000  -0.0000  -0.0000  -0.0000  -0.0000  -0.0000

          k =-0.1473-0.4419 0.0295 (   441 PWs)   bands (ev):

     0.7100  11.1674  13.0379  13.7880  18.2378  20.6945

     occupation numbers 
     1.0000  -0.0000  -0.0000  -0.0000  -0.0000  -0.0000

          k =-0.0884-0.3830 0.0884 (   445 PWs)   bands (ev):

    -0.2740  11.7745  15.4313  15.4790  16.9490  20.9084

     occupation numbers 
     1.0000  -0.0000  -0.0000  -0.0000  -0.0000  -0.0000

          k =-0.1473 0.1473 0.1473 (   438 PWs)   bands (ev):

    -2.0139  12.9835  19.0711  19.0711  22.4378  23.4831

     occupation numbers 
     1.0000  -0.0000  -0.0000  -0.0000  -0.0000  -0.0000

          k =-0.2062 0.2062 0.0884 (   445 PWs)   bands (ev):

    -1.5145  12.0488  16.2944  20.7446  21.4946  23.1739

     occupation numbers 
     1.0000  -0.0000  -0.0000  -0.0000  -0.0000  -0.0000

          k =-0.2652 0.2652 0.0295 (   441 PWs)   bands (ev):

    -0.6448  11.2925  13.3108  19.6416  21.6623  22.7753

     occupation numbers 
     1.0000  -0.0000  -0.0000  -0.0000  -0.0000  -0.0000

          k =-0.3241 0.3241-0.0295 (   436 PWs)   bands (ev):

     0.5886   9.6669  11.7321  18.1452  20.1419  23.9251

     occupation numbers 
     1.0000  -0.0000  -0.0000  -0.0000  -0.0000  -0.0000

          k = 0.3241-0.3241 0.6187 (   439 PWs)   bands (ev):

     2.1757   7.1604  11.6628  16.9582  18.8764  24.1205

     occupation numbers 
     1.0000   1.0000  -0.0000  -0.0000  -0.0000  -0.0000

          k = 0.2652-0.2652 0.5598 (   440 PWs)   bands (ev):

     4.0869   4.8423  12.0829  16.0921  17.9224  24.5532

     occupation numbers 
     1.0000   1.0000  -0.0000  -0.0000  -0.0000  -0.0000

          k = 0.2062-0.2062 0.5009 (   440 PWs)   bands (ev):

     2.7773   6.3759  12.8738  15.5490  17.2997  25.2794

     occupation numbers 
     1.0000   1.0000  -0.0000  -0.0000  -0.0000  -0.0000

          k = 0.1473-0.1473 0.4419 (   437 PWs)   bands (ev):

     1.0777   8.9403  14.0113  15.3289  17.0011  23.1474

     occupation numbers 
     1.0000  -0.0000  -0.0000  -0.0000  -0.0000  -0.0000

          k =-0.1473 0.2652 0.1473 (   442 PWs)   bands (ev):

    -1.1412  11.0394  17.2624  18.8139  19.9411  24.2981

     occupation numbers 
     1.0000  -0.0000  -0.0000  -0.0000  -0.0000  -0.0000

          k =-0.2062 0.3241 0.0884 (   440 PWs)   bands (ev):

    -0.3973  10.3158  14.6749  18.0278  20.1343  23.4517

     occupation numbers 
     1.0000  -0.0000  -0.0000  -0.0000  -0.0000  -0.0000

          k =-0.2652 0.3830 0.0295 (   436 PWs)   bands (ev):

     0.7111   9.7825  11.8373  16.3739  21.9693  22.2980

     occupation numbers 
     1.0000  -0.0000  -0.0000  -0.0000  -0.0000  -0.0000

          k = 0.3830-0.2652 0.6776 (   432 PWs)   bands (ev):

     2.1749   8.3853  10.4539  15.0307  20.7589  23.6056

     occupation numbers 
     1.0000  -0.0328  -0.0000  -0.0000  -0.0000  -0.0000

          k = 0.3241-0.2062 0.6187 (   434 PWs)   bands (ev):

     3.9781   6.1007  10.6113  14.0189  19.7453  24.1180

     occupation numbers 
     1.0000   1.0000  -0.0000  -0.0000  -0.0000  -0.0000

          k = 0.2652-0.1473 0.5598 (   436 PWs)   bands (ev):

     3.9693   6.1324  11.2572  13.3552  19.0284  24.6682

     occupation numbers 
     1.0000   1.0000  -0.0000  -0.0000  -0.0000  -0.0000

          k = 0.2062-0.0884 0.5009 (   437 PWs)   bands (ev):

     2.1719   8.5591  12.2349  13.0897  18.5896  22.8803

     occupation numbers 
     1.0000  -0.0078  -0.0000  -0.0000  -0.0000  -0.0000

          k =-0.1473 0.3830 0.1473 (   439 PWs)   bands (ev):

     0.2194   9.5268  15.8663  15.9231  17.5627  23.6020

     occupation numbers 
     1.0000  -0.0000  -0.0000  -0.0000  -0.0000  -0.0000

          k =-0.2062 0.4419 0.0884 (   438 PWs)   bands (ev):

     1.2000   9.0303  13.3880  14.2131  19.0242  23.2284

     occupation numbers 
     1.0000  -0.0000  -0.0000  -0.0000  -0.0000  -0.0000

          k = 0.4419-0.2062 0.7366 (   437 PWs)   bands (ev):

     2.5356   8.7329  10.7636  12.7151  21.3054  23.0685

     occupation numbers 
     1.0000  -0.0006  -0.0000  -0.0000  -0.0000  -0.0000

          k = 0.3830-0.1473 0.6776 (   437 PWs)   bands (ev):

     4.2103   7.5677   9.5959  11.5813  22.4388  22.9572

     occupation numbers 
     1.0000   1.0215  -0.0000  -0.0000  -0.0000  -0.0000

          k = 0.3241-0.0884 0.6187 (   437 PWs)   bands (ev):

     5.4719   6.2283   9.9296  10.8759  21.6832  23.6608

     occupation numbers 
     1.0000   1.0000  -0.0000  -0.0000  -0.0000  -0.0000

          k = 0.2652-0.0295 0.5598 (   440 PWs)   bands (ev):

     3.6121   8.3807  10.2915  11.1206  20.9829  23.0079

     occupation numbers 
     1.0000  -0.0333  -0.0000  -0.0000  -0.0000  -0.0000

          k =-0.1473 0.5009 0.1473 (   438 PWs)   bands (ev):

     2.0504   8.4681  12.1854  14.8991  16.5392  22.7668

     occupation numbers 
     1.0000  -0.0196  -0.0000  -0.0000  -0.0000  -0.0000

          k = 0.5009-0.1473 0.7955 (   438 PWs)   bands (ev):

     3.2515   8.2009  10.5609  12.7029  18.2575  22.6000

     occupation numbers 
     1.0000   0.0426  -0.0000  -0.0000  -0.0000  -0.0000

          k = 0.4419-0.0884 0.7366 (   438 PWs)   bands (ev):

     4.7777   8.1381   9.2228  10.3674  20.7644  22.8730

     occupation numbers 
     1.0000   0.1514  -0.0000  -0.0000  -0.0000  -0.0000

          k = 0.3830-0.0295 0.6776 (   439 PWs)   bands (ev):

     6.5037   7.2061   8.4075   9.4905  22.5703  24.1594

     occupation numbers 
     1.0000   1.0001  -0.0297  -0.0000  -0.0000  -0.0000

          k = 0.3241 0.0295 0.6187 (   435 PWs)   bands (ev):

     5.3677   7.3327   9.2338  10.1239  22.6616  23.4643

     occupation numbers 
     1.0000   1.0012  -0.0000  -0.0000  -0.0000  -0.0000

          k =-0.1473-0.7955 0.1473 (   438 PWs)   bands (ev):

     4.3021   7.8444   8.8892  14.3621  15.9490  22.2737

     occupation numbers 
     1.0000   0.9276  -0.0000  -0.0000  -0.0000  -0.0000

          k =-0.2062-0.7366 0.0884 (   439 PWs)   bands (ev):

     5.5753   7.4473   8.0005  12.3484  17.9212  22.3092

     occupation numbers 
     1.0000   1.0062   0.5370  -0.0000  -0.0000  -0.0000

          k =-0.2652-0.6776 0.0295 (   436 PWs)   bands (ev):

     5.9256   7.7997   8.1364  10.1939  20.6544  22.7940

     occupation numbers 
     1.0000   0.9851   0.1551  -0.0000  -0.0000  -0.0000

          k =-0.1473-0.6776 0.1473 (   434 PWs)   bands (ev):

     5.4584   7.3284   7.9141  14.2548  15.8295  22.1733

     occupation numbers 
     1.0000   1.0011   0.7846  -0.0000  -0.0000  -0.0000

          k =-0.2062-0.6187 0.0884 (   440 PWs)   bands (ev):

     4.4212   7.9403   8.9932  12.4655  18.0337  22.4070

     occupation numbers 
     1.0000   0.7157  -0.0000  -0.0000  -0.0000  -0.0000

          k =-0.1473-0.5598 0.1473 (   439 PWs)   bands (ev):

     3.1311   8.1087  10.4645  14.5769  16.1866  22.4730

     occupation numbers 
     1.0000   0.2202  -0.0000  -0.0000  -0.0000  -0.0000

          k =-0.2062 0.2062 0.2062 (   432 PWs)   bands (ev):

    -0.8927   9.8991  18.7782  18.7782  22.0093  22.0093

     occupation numbers 
     1.0000  -0.0000  -0.0000  -0.0000  -0.0000  -0.0000

          k =-0.2652 0.2652 0.1473 (   441 PWs)   bands (ev):

    -0.2736   9.0769  16.0685  19.9576  20.6513  21.7234

     occupation numbers 
     1.0000  -0.0000  -0.0000  -0.0000  -0.0000  -0.0000

          k =-0.3241 0.3241 0.0884 (   436 PWs)   bands (ev):

     0.7114   8.5700  13.0317  18.2539  20.2230  22.8052

     occupation numbers 
     1.0000  -0.0068  -0.0000  -0.0000  -0.0000  -0.0000

          k = 0.3241-0.3241 0.7366 (   435 PWs)   bands (ev):

     2.0542   8.2692  10.3438  16.8500  18.7759  25.2776

     occupation numbers 
     1.0000  -0.0183  -0.0000  -0.0000  -0.0000  -0.0000

          k = 0.2652-0.2652 0.6776 (   439 PWs)   bands (ev):

     3.7423   7.1029   9.1664  15.7683  17.5943  26.8057

     occupation numbers 
     1.0000   1.0000  -0.0000  -0.0000  -0.0000  -0.0000

          k = 0.2062-0.2062 0.6187 (   441 PWs)   bands (ev):

     4.9990   5.7948   9.5666  15.0107  16.7297  25.2747

     occupation numbers 
     1.0000   1.0000  -0.0000  -0.0000  -0.0000  -0.0000

          k =-0.2062 0.3241 0.2062 (   439 PWs)   bands (ev):

     0.2198   8.1483  17.1658  18.4895  18.7927  22.9915

     occupation numbers 
     1.0000   0.1300  -0.0000  -0.0000  -0.0000  -0.0000

          k =-0.2652 0.3830 0.1473 (   437 PWs)   bands (ev):

     1.0788   7.5509  14.6507  16.6988  20.2150  22.2817

     occupation numbers 
     1.0000   1.0187  -0.0000  -0.0000  -0.0000  -0.0000

          k = 0.3830-0.2652 0.7955 (   431 PWs)   bands (ev):

     2.2963   7.2775  11.7692  15.1431  20.8464  22.6017

     occupation numbers 
     1.0000   1.0005  -0.0000  -0.0000  -0.0000  -0.0000

          k = 0.3241-0.2062 0.7366 (   435 PWs)   bands (ev):

     3.8601   7.2194   9.2792  13.9042  19.6418  25.1625

     occupation numbers 
     1.0000   1.0001  -0.0000  -0.0000  -0.0000  -0.0000

          k = 0.2652-0.1473 0.6776 (   442 PWs)   bands (ev):

     5.7353   6.2982   8.3341  13.0039  18.7025  25.2418

     occupation numbers 
     1.0000   1.0000  -0.0352  -0.0000  -0.0000  -0.0000

          k =-0.2062 0.4419 0.2062 (   439 PWs)   bands (ev):

     1.8102   6.8499  14.6866  15.9800  17.7372  24.4103

     occupation numbers 
     1.0000   1.0000  -0.0000  -0.0000  -0.0000  -0.0000

          k = 0.4419-0.2062 0.8544 (   439 PWs)   bands (ev):

     2.8981   6.4867  12.9283  13.7357  19.3459  23.8111

     occupation numbers 
     1.0000   1.0000  -0.0000  -0.0000  -0.0000  -0.0000

          k = 0.3830-0.1473 0.7955 (   438 PWs)   bands (ev):

     4.3278   6.4532  10.8669  11.7538  21.8489  22.6967

     occupation numbers 
     1.0000   1.0000  -0.0000  -0.0000  -0.0000  -0.0000

          k = 0.3241-0.0884 0.7366 (   438 PWs)   bands (ev):

     6.0614   6.6449   8.6515  10.6981  21.5867  24.6337

     occupation numbers 
     1.0000   1.0000  -0.0022  -0.0000  -0.0000  -0.0000

          k =-0.2062-0.8544 0.2062 (   439 PWs)   bands (ev):

     3.8496   6.0212  11.1582  15.2259  16.9603  25.4234

     occupation numbers 
     1.0000   1.0000  -0.0000  -0.0000  -0.0000  -0.0000

          k =-0.2652-0.7955 0.1473 (   437 PWs)   bands (ev):

     5.1173   5.9064   9.6760  13.1201  18.8120  25.1955

     occupation numbers 
     1.0000   1.0000  -0.0000  -0.0000  -0.0000  -0.0000

          k =-0.2062-0.7366 0.2062 (   440 PWs)   bands (ev):

     5.6231   6.1820   8.2202  14.9031  16.6132  25.1960

     occupation numbers 
     1.0000   1.0000   0.0198  -0.0000  -0.0000  -0.0000

          k =-0.2652 0.2652 0.2652 (   431 PWs)   bands (ev):

     0.5889   7.0953  18.7949  18.7949  20.7444  20.7444

     occupation numbers 
     1.0000   1.0000  -0.0000  -0.0000  -0.0000  -0.0000

          k =-0.3241 0.3241 0.2062 (   439 PWs)   bands (ev):

     1.3238   6.3827  16.1819  18.7971  20.5132  20.7581

     occupation numbers 
     1.0000   1.0000  -0.0000  -0.0000  -0.0000  -0.0000

          k = 0.3241-0.3241 0.8544 (   439 PWs)   bands (ev):

     2.4182   6.0155  13.2243  17.1749  19.0697  23.0415

     occupation numbers 
     1.0000   1.0000  -0.0000  -0.0000  -0.0000  -0.0000

          k = 0.2652-0.2652 0.7955 (   438 PWs)   bands (ev):

     3.8606   5.9827  10.5027  15.8762  17.7051  25.6323

     occupation numbers 
     1.0000   1.0000  -0.0000  -0.0000  -0.0000  -0.0000

          k =-0.2652 0.3830 0.2652 (   438 PWs)   bands (ev):

     1.9331   5.5539  17.3894  17.4064  19.0275  21.9423

     occupation numbers 
     1.0000   1.0000  -0.0000  -0.0000  -0.0000  -0.0000

          k = 0.3830-0.2652 0.9133 (   439 PWs)   bands (ev):

     2.9002   5.0759  14.9574  15.7168  20.5614  21.3219

     occupation numbers 
     1.0000   1.0000  -0.0000  -0.0000  -0.0000  -0.0000

          k = 0.3241-0.2062 0.8544 (   437 PWs)   bands (ev):

     4.2038   4.9619  12.1818  14.2501  19.9471  23.0811

     occupation numbers 
     1.0000   1.0000  -0.0000  -0.0000  -0.0000  -0.0000

          k =-0.2652-0.9133 0.2652 (   443 PWs)   bands (ev):

     3.7275   4.4937  13.7825  16.4161  18.2366  23.5763

     occupation numbers 
     1.0000   1.0000  -0.0000  -0.0000  -0.0000  -0.0000

          k =-0.3241 0.3241 0.3241 (   434 PWs)   bands (ev):

     2.4183   4.6019  19.1272  19.1272  19.7798  19.7798

     occupation numbers 
     1.0000   1.0000  -0.0000  -0.0000  -0.0000  -0.0000

          k = 0.3241-0.3241 0.9723 (   439 PWs)   bands (ev):

     3.2534   4.0125  16.6293  17.9339  19.6087  21.1941

     occupation numbers 
     1.0000   1.0000  -0.0000  -0.0000  -0.0000  -0.0000

     the Fermi energy is     8.0124 ev

!    total energy              =     -39.50178433 Ry
     total all-electron energy =       -39.501784 Ry
     estimated scf accuracy    <          1.3E-17 Ry
     smearing contrib. (-TS)   =      -0.00008841 Ry
     internal energy E=F+TS    =     -39.50169593 Ry

     The total energy is F=E-TS. E is the sum of the following terms:
     one-electron contribution =       3.16255920 Ry
     hartree contribution      =       0.00827627 Ry
     xc contribution           =      -2.10402009 Ry
     ewald contribution        =      -5.40785601 Ry
     one-center paw contrib.   =     -35.16065531 Ry
      -> PAW hartree energy AE =       0.30754331 Ry
      -> PAW hartree energy PS =      -0.29821600 Ry
      -> PAW xc energy AE      =     -36.02482949 Ry
      -> PAW xc energy PS      =       0.85484687 Ry
      -> total E_H with PAW    =       0.01760359 Ry
      -> total E_XC with PAW   =     -37.27400271 Ry

     convergence has been achieved in  10 iterations

     negative rho (up, down):  7.343E-04 0.000E+00

     Forces acting on atoms (cartesian axes, Ry/au):

     atom    1 type  1   force =     0.00000000    0.00000000    0.00000000
     The non-local contrib.  to forces
     atom    1 type  1   force =     0.00000000    0.00000000    0.00000000
     The ionic contribution  to forces
     atom    1 type  1   force =     0.00000000    0.00000000    0.00000000
     The local contribution  to forces
     atom    1 type  1   force =     0.00000000    0.00000000   -0.00000000
     The core correction contribution to forces
     atom    1 type  1   force =     0.00000000    0.00000000    0.00000000
     The Hubbard contrib.    to forces
     atom    1 type  1   force =     0.00000000    0.00000000    0.00000000
     The SCF correction term to forces
     atom    1 type  1   force =    -0.00000000    0.00000000    0.00000000

     Total force =     0.000000     Total SCF correction =     0.000000

     Writing all to output data dir ./tmp/al.save/ :
     XML data file, charge density, pseudopotentials, collected wavefunctions
 
     init_run     :      0.07s CPU      0.08s WALL (       1 calls)
     electrons    :      0.58s CPU      0.66s WALL (       1 calls)
     forces       :      0.00s CPU      0.00s WALL (       1 calls)

     Called by init_run:
     wfcinit      :      0.02s CPU      0.03s WALL (       1 calls)
     wfcinit:atom :      0.00s CPU      0.00s WALL (      91 calls)
     wfcinit:wfcr :      0.02s CPU      0.03s WALL (      91 calls)
     potinit      :      0.02s CPU      0.02s WALL (       1 calls)
     hinit0       :      0.03s CPU      0.03s WALL (       1 calls)

     Called by electrons:
     c_bands      :      0.42s CPU      0.47s WALL (      11 calls)
     sum_band     :      0.07s CPU      0.08s WALL (      11 calls)
     v_of_rho     :      0.00s CPU      0.00s WALL (      11 calls)
     v_h          :      0.00s CPU      0.00s WALL (      11 calls)
     v_xc         :      0.00s CPU      0.00s WALL (      12 calls)
     newd         :      0.00s CPU      0.00s WALL (      11 calls)
     PAW_pot      :      0.09s CPU      0.11s WALL (      11 calls)
     mix_rho      :      0.00s CPU      0.00s WALL (      11 calls)

     Called by c_bands:
     init_us_2    :      0.01s CPU      0.01s WALL (    2184 calls)
     cegterg      :      0.39s CPU      0.43s WALL (    1001 calls)

     Called by sum_band:
     sum_band:wei :      0.01s CPU      0.01s WALL (      11 calls)
     sum_band:loo :      0.06s CPU      0.07s WALL (      11 calls)
     sum_band:buf :      0.00s CPU      0.00s WALL (    1001 calls)
     sum_band:ini :      0.01s CPU      0.01s WALL (    1001 calls)
     sum_band:cal :      0.01s CPU      0.01s WALL (    1001 calls)
     sum_band:bec :      0.00s CPU      0.00s WALL (    1001 calls)
     addusdens    :      0.00s CPU      0.00s WALL (      11 calls)
                                        0.00s GPU  (      11 calls)
     addusd:skk   :      0.00s CPU      0.00s WALL (      11 calls)
                                        0.00s GPU  (      11 calls)

     Called by *egterg:
     cdiaghg      :      0.06s CPU      0.07s WALL (    2906 calls)
     cegterg:over :      0.02s CPU      0.02s WALL (    1996 calls)
     cegterg:upda :      0.00s CPU      0.00s WALL (    1996 calls)
     cegterg:last :      0.00s CPU      0.00s WALL (    1617 calls)
     h_psi        :      0.28s CPU      0.32s WALL (    3088 calls)
     s_psi        :      0.00s CPU      0.00s WALL (    3088 calls)
     g_psi        :      0.00s CPU      0.00s WALL (    1996 calls)

     Called by h_psi:
     h_psi:calbec :      0.02s CPU      0.02s WALL (    3088 calls)
     vloc_psi     :      0.25s CPU      0.29s WALL (    3088 calls)
     add_vuspsi   :      0.00s CPU      0.01s WALL (    3088 calls)

     General routines
     calbec       :      0.02s CPU      0.02s WALL (    4453 calls)
     fft          :      0.00s CPU      0.01s WALL (     133 calls)
     ffts         :      0.00s CPU      0.00s WALL (      11 calls)
     fftw         :      0.27s CPU      0.30s WALL (   35924 calls)
 
     Parallel routines

     PAW routines
     PAW_pot      :      0.09s CPU      0.11s WALL (      11 calls)
     PAW_symme    :      0.00s CPU      0.00s WALL (      22 calls)
 
     PWSCF        :      0.74s CPU      0.84s WALL

 
   This run was terminated on:  12:28:35   1Apr2026            

=------------------------------------------------------------------------------=
   JOB DONE.
=------------------------------------------------------------------------------=
