
     Program PWSCF v.7.4 starts on  1May2026 at 11:19:31 

     This program is part of the open-source Quantum ESPRESSO suite
     for quantum simulation of materials; please cite
         "P. Giannozzi et al., J. Phys.:Condens. Matter 21 395502 (2009);
         "P. Giannozzi et al., J. Phys.:Condens. Matter 29 465901 (2017);
         "P. Giannozzi et al., J. Chem. Phys. 152 154105 (2020);
          URL http://www.quantum-espresso.org", 
     in publications or presentations arising from this work. More details at
     http://www.quantum-espresso.org/quote

     Parallel version (MPI), running on    12 processors

     MPI processes distributed on     1 nodes
     97686 MiB available memory on the printing compute node when the environment starts
 
     Waiting for input...
     Reading input from standard input

     Current dimensions of program PWSCF are:
     Max number of different atomic species (ntypx) = 10
     Max number of k-points (npk) =  40000
     Max angular momentum in pseudopotentials (lmaxx) =  4
read_pp_mesh; mismatch in mesh size, discarding the one in header
     Message from routine set_cutoff:
     ecutrho < 4*ecutwfc, are you sure?
     Message from routine setup:
     using ibrav=0 with symmetry is DISCOURAGED, use correct ibrav instead
 
     K-points division:     npool     =       2
     R & G space division:  proc/nbgrp/npool/nimage =       6
     Subspace diagonalization in iterative solution of the eigenvalue problem:
     a serial algorithm will be used

 
     Parallelization info
     --------------------
     sticks:   dense  smooth     PW     G-vecs:    dense   smooth      PW
     Min          27      27     18                  226      226     124
     Max          28      28     19                  228      228     127
     Sum         163     163    109                 1363     1363     749
 
     Using Slab Decomposition
 


     bravais-lattice index     =            0
     lattice parameter (alat)  =       5.3955  a.u.
     unit-cell volume          =     111.0634 (a.u.)^3
     number of atoms/cell      =            1
     number of atomic types    =            1
     number of electrons       =         3.00
     number of Kohn-Sham states=            6
     kinetic-energy cutoff     =      38.0000  Ry
     charge density cutoff     =      80.0000  Ry
     scf convergence threshold =      1.0E-16
     mixing beta               =       0.7000
     number of iterations used =            8  plain     mixing
     energy convergence thresh.=      1.0E-04
     force convergence thresh. =      1.0E-03
     press convergence thresh. =      1.0E-01
     Exchange-correlation= SLA PW PBX PBC
                           (   1   4   3   4   0   0   0)
     nstep                     =           50


     celldm(1)=   5.395462  celldm(2)=   0.000000  celldm(3)=   0.000000
     celldm(4)=   0.000000  celldm(5)=   0.000000  celldm(6)=   0.000000

     crystal axes: (cart. coord. in units of alat)
               a(1) = (  -0.707107   0.000000   0.707107 )  
               a(2) = (   0.000000   0.707107   0.707107 )  
               a(3) = (  -0.707107   0.707107   0.000000 )  

     reciprocal axes: (cart. coord. in units 2 pi/alat)
               b(1) = ( -0.707107 -0.707107  0.707107 )  
               b(2) = (  0.707107  0.707107  0.707107 )  
               b(3) = ( -0.707107  0.707107 -0.707107 )  


     PseudoPot. # 1 for Al read from file:
     ./Al.upf
     MD5 check sum: fd3ab6bbf4b2322b308692f0f9c61a66
     Pseudo is Projector augmented-wave + core cor, Zval =  3.0
     Generated using ATOMPAW code
     Shape of augmentation charge: SINC**2
     Using radial grid of 2342 points,  4 beta functions with: 
                l(1) =   0
                l(2) =   0
                l(3) =   1
                l(4) =   1
     Q(r) pseudized with 0 coefficients 


     atomic species   valence    mass     pseudopotential
     Al                3.00    26.98150     Al( 1.00)

     48 Sym. Ops., with inversion, found


                                    s                        frac. trans.

      isym =  1     identity                                     

 cryst.   s( 1) = (     1          0          0      )
                  (     0          1          0      )
                  (     0          0          1      )

 cart.    s( 1) = (  1.0000000  0.0000000  0.0000000 )
                  (  0.0000000  1.0000000  0.0000000 )
                  (  0.0000000  0.0000000  1.0000000 )


      isym =  2     180 deg rotation - cart. axis [0,0,1]        

 cryst.   s( 2) = (     0          1         -1      )
                  (     1          0         -1      )
                  (     0          0         -1      )

 cart.    s( 2) = ( -1.0000000  0.0000000  0.0000000 )
                  (  0.0000000 -1.0000000  0.0000000 )
                  (  0.0000000  0.0000000  1.0000000 )


      isym =  3     180 deg rotation - cart. axis [0,1,0]        

 cryst.   s( 3) = (    -1          0          0      )
                  (    -1          0          1      )
                  (    -1          1          0      )

 cart.    s( 3) = ( -1.0000000  0.0000000  0.0000000 )
                  (  0.0000000  1.0000000  0.0000000 )
                  (  0.0000000  0.0000000 -1.0000000 )


      isym =  4     180 deg rotation - cart. axis [1,0,0]        

 cryst.   s( 4) = (     0         -1          1      )
                  (     0         -1          0      )
                  (     1         -1          0      )

 cart.    s( 4) = (  1.0000000  0.0000000  0.0000000 )
                  (  0.0000000 -1.0000000  0.0000000 )
                  (  0.0000000  0.0000000 -1.0000000 )


      isym =  5     180 deg rotation - cart. axis [1,1,0]        

 cryst.   s( 5) = (     0         -1          0      )
                  (    -1          0          0      )
                  (     0          0         -1      )

 cart.    s( 5) = (  0.0000000  1.0000000  0.0000000 )
                  (  1.0000000  0.0000000  0.0000000 )
                  (  0.0000000  0.0000000 -1.0000000 )


      isym =  6     180 deg rotation - cart. axis [1,-1,0]       

 cryst.   s( 6) = (    -1          0          1      )
                  (     0         -1          1      )
                  (     0          0          1      )

 cart.    s( 6) = (  0.0000000 -1.0000000  0.0000000 )
                  ( -1.0000000  0.0000000  0.0000000 )
                  (  0.0000000  0.0000000 -1.0000000 )


      isym =  7      90 deg rotation - cart. axis [0,0,-1]       

 cryst.   s( 7) = (     0          1          0      )
                  (     0          1         -1      )
                  (    -1          1          0      )

 cart.    s( 7) = (  0.0000000  1.0000000  0.0000000 )
                  ( -1.0000000  0.0000000  0.0000000 )
                  (  0.0000000  0.0000000  1.0000000 )


      isym =  8      90 deg rotation - cart. axis [0,0,1]        

 cryst.   s( 8) = (     1          0         -1      )
                  (     1          0          0      )
                  (     1         -1          0      )

 cart.    s( 8) = (  0.0000000 -1.0000000  0.0000000 )
                  (  1.0000000  0.0000000  0.0000000 )
                  (  0.0000000  0.0000000  1.0000000 )


      isym =  9     180 deg rotation - cart. axis [1,0,1]        

 cryst.   s( 9) = (    -1          0          0      )
                  (     0          0         -1      )
                  (     0         -1          0      )

 cart.    s( 9) = (  0.0000000  0.0000000  1.0000000 )
                  (  0.0000000 -1.0000000  0.0000000 )
                  (  1.0000000  0.0000000  0.0000000 )


      isym = 10     180 deg rotation - cart. axis [-1,0,1]       

 cryst.   s(10) = (     1          0          0      )
                  (     1         -1          0      )
                  (     1          0         -1      )

 cart.    s(10) = (  0.0000000  0.0000000 -1.0000000 )
                  (  0.0000000 -1.0000000  0.0000000 )
                  ( -1.0000000  0.0000000  0.0000000 )


      isym = 11      90 deg rotation - cart. axis [0,1,0]        

 cryst.   s(11) = (     0          1         -1      )
                  (    -1          1          0      )
                  (     0          1          0      )

 cart.    s(11) = (  0.0000000  0.0000000  1.0000000 )
                  (  0.0000000  1.0000000  0.0000000 )
                  ( -1.0000000  0.0000000  0.0000000 )


      isym = 12      90 deg rotation - cart. axis [0,-1,0]       

 cryst.   s(12) = (     0         -1          1      )
                  (     0          0          1      )
                  (    -1          0          1      )

 cart.    s(12) = (  0.0000000  0.0000000 -1.0000000 )
                  (  0.0000000  1.0000000  0.0000000 )
                  (  1.0000000  0.0000000  0.0000000 )


      isym = 13     180 deg rotation - cart. axis [0,1,1]        

 cryst.   s(13) = (    -1          1          0      )
                  (     0          1          0      )
                  (     0          1         -1      )

 cart.    s(13) = ( -1.0000000  0.0000000  0.0000000 )
                  (  0.0000000  0.0000000  1.0000000 )
                  (  0.0000000  1.0000000  0.0000000 )


      isym = 14     180 deg rotation - cart. axis [0,1,-1]       

 cryst.   s(14) = (     0          0         -1      )
                  (     0         -1          0      )
                  (    -1          0          0      )

 cart.    s(14) = ( -1.0000000  0.0000000  0.0000000 )
                  (  0.0000000  0.0000000 -1.0000000 )
                  (  0.0000000 -1.0000000  0.0000000 )


      isym = 15      90 deg rotation - cart. axis [-1,0,0]       

 cryst.   s(15) = (     0          0          1      )
                  (    -1          0          1      )
                  (     0         -1          1      )

 cart.    s(15) = (  1.0000000  0.0000000  0.0000000 )
                  (  0.0000000  0.0000000  1.0000000 )
                  (  0.0000000 -1.0000000  0.0000000 )


      isym = 16      90 deg rotation - cart. axis [1,0,0]        

 cryst.   s(16) = (     1         -1          0      )
                  (     1          0         -1      )
                  (     1          0          0      )

 cart.    s(16) = (  1.0000000  0.0000000  0.0000000 )
                  (  0.0000000  0.0000000 -1.0000000 )
                  (  0.0000000  1.0000000  0.0000000 )


      isym = 17     120 deg rotation - cart. axis [-1,-1,-1]     

 cryst.   s(17) = (    -1          0          1      )
                  (    -1          1          0      )
                  (    -1          0          0      )

 cart.    s(17) = (  0.0000000  1.0000000  0.0000000 )
                  (  0.0000000  0.0000000  1.0000000 )
                  (  1.0000000  0.0000000  0.0000000 )


      isym = 18     120 deg rotation - cart. axis [-1,1,1]       

 cryst.   s(18) = (     0          1          0      )
                  (     0          0          1      )
                  (     1          0          0      )

 cart.    s(18) = (  0.0000000 -1.0000000  0.0000000 )
                  (  0.0000000  0.0000000  1.0000000 )
                  ( -1.0000000  0.0000000  0.0000000 )


      isym = 19     120 deg rotation - cart. axis [1,1,-1]       

 cryst.   s(19) = (     1          0         -1      )
                  (     0          0         -1      )
                  (     0          1         -1      )

 cart.    s(19) = (  0.0000000  1.0000000  0.0000000 )
                  (  0.0000000  0.0000000 -1.0000000 )
                  ( -1.0000000  0.0000000  0.0000000 )


      isym = 20     120 deg rotation - cart. axis [1,-1,1]       

 cryst.   s(20) = (     0         -1          0      )
                  (     1         -1          0      )
                  (     0         -1          1      )

 cart.    s(20) = (  0.0000000 -1.0000000  0.0000000 )
                  (  0.0000000  0.0000000 -1.0000000 )
                  (  1.0000000  0.0000000  0.0000000 )


      isym = 21     120 deg rotation - cart. axis [1,1,1]        

 cryst.   s(21) = (     0          0         -1      )
                  (     0          1         -1      )
                  (     1          0         -1      )

 cart.    s(21) = (  0.0000000  0.0000000  1.0000000 )
                  (  1.0000000  0.0000000  0.0000000 )
                  (  0.0000000  1.0000000  0.0000000 )


      isym = 22     120 deg rotation - cart. axis [-1,1,-1]      

 cryst.   s(22) = (    -1          1          0      )
                  (    -1          0          0      )
                  (    -1          0          1      )

 cart.    s(22) = (  0.0000000  0.0000000  1.0000000 )
                  ( -1.0000000  0.0000000  0.0000000 )
                  (  0.0000000 -1.0000000  0.0000000 )


      isym = 23     120 deg rotation - cart. axis [1,-1,-1]      

 cryst.   s(23) = (     0          0          1      )
                  (     1          0          0      )
                  (     0          1          0      )

 cart.    s(23) = (  0.0000000  0.0000000 -1.0000000 )
                  ( -1.0000000  0.0000000  0.0000000 )
                  (  0.0000000  1.0000000  0.0000000 )


      isym = 24     120 deg rotation - cart. axis [-1,-1,1]      

 cryst.   s(24) = (     1         -1          0      )
                  (     0         -1          1      )
                  (     0         -1          0      )

 cart.    s(24) = (  0.0000000  0.0000000 -1.0000000 )
                  (  1.0000000  0.0000000  0.0000000 )
                  (  0.0000000 -1.0000000  0.0000000 )


      isym = 25     inversion                                    

 cryst.   s(25) = (    -1          0          0      )
                  (     0         -1          0      )
                  (     0          0         -1      )

 cart.    s(25) = ( -1.0000000  0.0000000  0.0000000 )
                  (  0.0000000 -1.0000000  0.0000000 )
                  (  0.0000000  0.0000000 -1.0000000 )


      isym = 26     inv. 180 deg rotation - cart. axis [0,0,1]   

 cryst.   s(26) = (     0         -1          1      )
                  (    -1          0          1      )
                  (     0          0          1      )

 cart.    s(26) = (  1.0000000  0.0000000  0.0000000 )
                  (  0.0000000  1.0000000  0.0000000 )
                  (  0.0000000  0.0000000 -1.0000000 )


      isym = 27     inv. 180 deg rotation - cart. axis [0,1,0]   

 cryst.   s(27) = (     1          0          0      )
                  (     1          0         -1      )
                  (     1         -1          0      )

 cart.    s(27) = (  1.0000000  0.0000000  0.0000000 )
                  (  0.0000000 -1.0000000  0.0000000 )
                  (  0.0000000  0.0000000  1.0000000 )


      isym = 28     inv. 180 deg rotation - cart. axis [1,0,0]   

 cryst.   s(28) = (     0          1         -1      )
                  (     0          1          0      )
                  (    -1          1          0      )

 cart.    s(28) = ( -1.0000000  0.0000000  0.0000000 )
                  (  0.0000000  1.0000000  0.0000000 )
                  (  0.0000000  0.0000000  1.0000000 )


      isym = 29     inv. 180 deg rotation - cart. axis [1,1,0]   

 cryst.   s(29) = (     0          1          0      )
                  (     1          0          0      )
                  (     0          0          1      )

 cart.    s(29) = (  0.0000000 -1.0000000  0.0000000 )
                  ( -1.0000000  0.0000000  0.0000000 )
                  (  0.0000000  0.0000000  1.0000000 )


      isym = 30     inv. 180 deg rotation - cart. axis [1,-1,0]  

 cryst.   s(30) = (     1          0         -1      )
                  (     0          1         -1      )
                  (     0          0         -1      )

 cart.    s(30) = (  0.0000000  1.0000000  0.0000000 )
                  (  1.0000000  0.0000000  0.0000000 )
                  (  0.0000000  0.0000000  1.0000000 )


      isym = 31     inv.  90 deg rotation - cart. axis [0,0,-1]  

 cryst.   s(31) = (     0         -1          0      )
                  (     0         -1          1      )
                  (     1         -1          0      )

 cart.    s(31) = (  0.0000000 -1.0000000  0.0000000 )
                  (  1.0000000  0.0000000  0.0000000 )
                  (  0.0000000  0.0000000 -1.0000000 )


      isym = 32     inv.  90 deg rotation - cart. axis [0,0,1]   

 cryst.   s(32) = (    -1          0          1      )
                  (    -1          0          0      )
                  (    -1          1          0      )

 cart.    s(32) = (  0.0000000  1.0000000  0.0000000 )
                  ( -1.0000000  0.0000000  0.0000000 )
                  (  0.0000000  0.0000000 -1.0000000 )


      isym = 33     inv. 180 deg rotation - cart. axis [1,0,1]   

 cryst.   s(33) = (     1          0          0      )
                  (     0          0          1      )
                  (     0          1          0      )

 cart.    s(33) = (  0.0000000  0.0000000 -1.0000000 )
                  (  0.0000000  1.0000000  0.0000000 )
                  ( -1.0000000  0.0000000  0.0000000 )


      isym = 34     inv. 180 deg rotation - cart. axis [-1,0,1]  

 cryst.   s(34) = (    -1          0          0      )
                  (    -1          1          0      )
                  (    -1          0          1      )

 cart.    s(34) = (  0.0000000  0.0000000  1.0000000 )
                  (  0.0000000  1.0000000  0.0000000 )
                  (  1.0000000  0.0000000  0.0000000 )


      isym = 35     inv.  90 deg rotation - cart. axis [0,1,0]   

 cryst.   s(35) = (     0         -1          1      )
                  (     1         -1          0      )
                  (     0         -1          0      )

 cart.    s(35) = (  0.0000000  0.0000000 -1.0000000 )
                  (  0.0000000 -1.0000000  0.0000000 )
                  (  1.0000000  0.0000000  0.0000000 )


      isym = 36     inv.  90 deg rotation - cart. axis [0,-1,0]  

 cryst.   s(36) = (     0          1         -1      )
                  (     0          0         -1      )
                  (     1          0         -1      )

 cart.    s(36) = (  0.0000000  0.0000000  1.0000000 )
                  (  0.0000000 -1.0000000  0.0000000 )
                  ( -1.0000000  0.0000000  0.0000000 )


      isym = 37     inv. 180 deg rotation - cart. axis [0,1,1]   

 cryst.   s(37) = (     1         -1          0      )
                  (     0         -1          0      )
                  (     0         -1          1      )

 cart.    s(37) = (  1.0000000  0.0000000  0.0000000 )
                  (  0.0000000  0.0000000 -1.0000000 )
                  (  0.0000000 -1.0000000  0.0000000 )


      isym = 38     inv. 180 deg rotation - cart. axis [0,1,-1]  

 cryst.   s(38) = (     0          0          1      )
                  (     0          1          0      )
                  (     1          0          0      )

 cart.    s(38) = (  1.0000000  0.0000000  0.0000000 )
                  (  0.0000000  0.0000000  1.0000000 )
                  (  0.0000000  1.0000000  0.0000000 )


      isym = 39     inv.  90 deg rotation - cart. axis [-1,0,0]  

 cryst.   s(39) = (     0          0         -1      )
                  (     1          0         -1      )
                  (     0          1         -1      )

 cart.    s(39) = ( -1.0000000  0.0000000  0.0000000 )
                  (  0.0000000  0.0000000 -1.0000000 )
                  (  0.0000000  1.0000000  0.0000000 )


      isym = 40     inv.  90 deg rotation - cart. axis [1,0,0]   

 cryst.   s(40) = (    -1          1          0      )
                  (    -1          0          1      )
                  (    -1          0          0      )

 cart.    s(40) = ( -1.0000000  0.0000000  0.0000000 )
                  (  0.0000000  0.0000000  1.0000000 )
                  (  0.0000000 -1.0000000  0.0000000 )


      isym = 41     inv. 120 deg rotation - cart. axis [-1,-1,-1]

 cryst.   s(41) = (     1          0         -1      )
                  (     1         -1          0      )
                  (     1          0          0      )

 cart.    s(41) = (  0.0000000 -1.0000000  0.0000000 )
                  (  0.0000000  0.0000000 -1.0000000 )
                  ( -1.0000000  0.0000000  0.0000000 )


      isym = 42     inv. 120 deg rotation - cart. axis [-1,1,1]  

 cryst.   s(42) = (     0         -1          0      )
                  (     0          0         -1      )
                  (    -1          0          0      )

 cart.    s(42) = (  0.0000000  1.0000000  0.0000000 )
                  (  0.0000000  0.0000000 -1.0000000 )
                  (  1.0000000  0.0000000  0.0000000 )


      isym = 43     inv. 120 deg rotation - cart. axis [1,1,-1]  

 cryst.   s(43) = (    -1          0          1      )
                  (     0          0          1      )
                  (     0         -1          1      )

 cart.    s(43) = (  0.0000000 -1.0000000  0.0000000 )
                  (  0.0000000  0.0000000  1.0000000 )
                  (  1.0000000  0.0000000  0.0000000 )


      isym = 44     inv. 120 deg rotation - cart. axis [1,-1,1]  

 cryst.   s(44) = (     0          1          0      )
                  (    -1          1          0      )
                  (     0          1         -1      )

 cart.    s(44) = (  0.0000000  1.0000000  0.0000000 )
                  (  0.0000000  0.0000000  1.0000000 )
                  ( -1.0000000  0.0000000  0.0000000 )


      isym = 45     inv. 120 deg rotation - cart. axis [1,1,1]   

 cryst.   s(45) = (     0          0          1      )
                  (     0         -1          1      )
                  (    -1          0          1      )

 cart.    s(45) = (  0.0000000  0.0000000 -1.0000000 )
                  ( -1.0000000  0.0000000  0.0000000 )
                  (  0.0000000 -1.0000000  0.0000000 )


      isym = 46     inv. 120 deg rotation - cart. axis [-1,1,-1] 

 cryst.   s(46) = (     1         -1          0      )
                  (     1          0          0      )
                  (     1          0         -1      )

 cart.    s(46) = (  0.0000000  0.0000000 -1.0000000 )
                  (  1.0000000  0.0000000  0.0000000 )
                  (  0.0000000  1.0000000  0.0000000 )


      isym = 47     inv. 120 deg rotation - cart. axis [1,-1,-1] 

 cryst.   s(47) = (     0          0         -1      )
                  (    -1          0          0      )
                  (     0         -1          0      )

 cart.    s(47) = (  0.0000000  0.0000000  1.0000000 )
                  (  1.0000000  0.0000000  0.0000000 )
                  (  0.0000000 -1.0000000  0.0000000 )


      isym = 48     inv. 120 deg rotation - cart. axis [-1,-1,1] 

 cryst.   s(48) = (    -1          1          0      )
                  (     0          1         -1      )
                  (     0          1          0      )

 cart.    s(48) = (  0.0000000  0.0000000  1.0000000 )
                  ( -1.0000000  0.0000000  0.0000000 )
                  (  0.0000000  1.0000000  0.0000000 )


   Cartesian axes

     site n.     atom                  positions (alat units)
         1        Al     tau(   1) = (   0.0000000   0.0000000   0.0000000  )

   Crystallographic axes

     site n.     atom                  positions (cryst. coord.)
         1        Al     tau(   1) = (  0.0000000  0.0000000  0.0000000  )

     number of k points=   182  Methfessel-Paxton smearing, width (Ry)=  0.0200
                       cart. coord. in units 2pi/alat
        k(    1) = (  -0.0294628   0.0294628   0.0294628), wk =   0.0023148
        k(    2) = (  -0.0883883   0.0883883  -0.0294628), wk =   0.0069444
        k(    3) = (  -0.1473139   0.1473139  -0.0883883), wk =   0.0069444
        k(    4) = (  -0.2062395   0.2062395  -0.1473139), wk =   0.0069444
        k(    5) = (  -0.2651650   0.2651650  -0.2062395), wk =   0.0069444
        k(    6) = (  -0.3240906   0.3240906  -0.2651650), wk =   0.0069444
        k(    7) = (   0.3240906  -0.3240906   0.3830162), wk =   0.0069444
        k(    8) = (   0.2651650  -0.2651650   0.3240906), wk =   0.0069444
        k(    9) = (   0.2062395  -0.2062395   0.2651650), wk =   0.0069444
        k(   10) = (   0.1473139  -0.1473139   0.2062395), wk =   0.0069444
        k(   11) = (   0.0883883  -0.0883883   0.1473139), wk =   0.0069444
        k(   12) = (   0.0294628  -0.0294628   0.0883883), wk =   0.0069444
        k(   13) = (  -0.0294628   0.1473139   0.0294628), wk =   0.0069444
        k(   14) = (  -0.0883883   0.2062395  -0.0294628), wk =   0.0138889
        k(   15) = (  -0.1473139   0.2651650  -0.0883883), wk =   0.0138889
        k(   16) = (  -0.2062395   0.3240906  -0.1473139), wk =   0.0138889
        k(   17) = (  -0.2651650   0.3830162  -0.2062395), wk =   0.0138889
        k(   18) = (   0.3830162  -0.2651650   0.4419417), wk =   0.0138889
        k(   19) = (   0.3240906  -0.2062395   0.3830162), wk =   0.0138889
        k(   20) = (   0.2651650  -0.1473139   0.3240906), wk =   0.0138889
        k(   21) = (   0.2062395  -0.0883883   0.2651650), wk =   0.0138889
        k(   22) = (   0.1473139  -0.0294628   0.2062395), wk =   0.0138889
        k(   23) = (   0.0883883   0.0294628   0.1473139), wk =   0.0138889
        k(   24) = (  -0.0294628   0.2651650   0.0294628), wk =   0.0069444
        k(   25) = (  -0.0883883   0.3240906  -0.0294628), wk =   0.0138889
        k(   26) = (  -0.1473139   0.3830162  -0.0883883), wk =   0.0138889
        k(   27) = (  -0.2062395   0.4419417  -0.1473139), wk =   0.0138889
        k(   28) = (   0.4419417  -0.2062395   0.5008673), wk =   0.0138889
        k(   29) = (   0.3830162  -0.1473139   0.4419417), wk =   0.0138889
        k(   30) = (   0.3240906  -0.0883883   0.3830162), wk =   0.0138889
        k(   31) = (   0.2651650  -0.0294628   0.3240906), wk =   0.0138889
        k(   32) = (   0.2062395   0.0294628   0.2651650), wk =   0.0138889
        k(   33) = (   0.1473139   0.0883883   0.2062395), wk =   0.0138889
        k(   34) = (  -0.0294628   0.3830162   0.0294628), wk =   0.0069444
        k(   35) = (  -0.0883883   0.4419417  -0.0294628), wk =   0.0138889
        k(   36) = (  -0.1473139   0.5008673  -0.0883883), wk =   0.0138889
        k(   37) = (   0.5008673  -0.1473139   0.5597929), wk =   0.0138889
        k(   38) = (   0.4419417  -0.0883883   0.5008673), wk =   0.0138889
        k(   39) = (   0.3830162  -0.0294628   0.4419417), wk =   0.0138889
        k(   40) = (   0.3240906   0.0294628   0.3830162), wk =   0.0138889
        k(   41) = (   0.2651650   0.0883883   0.3240906), wk =   0.0138889
        k(   42) = (   0.2062395   0.1473139   0.2651650), wk =   0.0138889
        k(   43) = (  -0.0294628   0.5008673   0.0294628), wk =   0.0069444
        k(   44) = (  -0.0883883   0.5597929  -0.0294628), wk =   0.0138889
        k(   45) = (   0.5597929  -0.0883883   0.6187184), wk =   0.0138889
        k(   46) = (   0.5008673  -0.0294628   0.5597929), wk =   0.0138889
        k(   47) = (   0.4419417   0.0294628   0.5008673), wk =   0.0138889
        k(   48) = (   0.3830162   0.0883883   0.4419417), wk =   0.0138889
        k(   49) = (   0.3240906   0.1473139   0.3830162), wk =   0.0138889
        k(   50) = (   0.2651650   0.2062395   0.3240906), wk =   0.0138889
        k(   51) = (  -0.0294628   0.6187184   0.0294628), wk =   0.0069444
        k(   52) = (   0.6187184  -0.0294628   0.6776440), wk =   0.0138889
        k(   53) = (   0.5597929   0.0294628   0.6187184), wk =   0.0138889
        k(   54) = (   0.5008673   0.0883883   0.5597929), wk =   0.0138889
        k(   55) = (   0.4419417   0.1473139   0.5008673), wk =   0.0138889
        k(   56) = (   0.3830162   0.2062395   0.4419417), wk =   0.0138889
        k(   57) = (   0.3240906   0.2651650   0.3830162), wk =   0.0138889
        k(   58) = (  -0.0294628  -0.6776440   0.0294628), wk =   0.0069444
        k(   59) = (  -0.0883883  -0.6187184  -0.0294628), wk =   0.0138889
        k(   60) = (  -0.1473139  -0.5597929  -0.0883883), wk =   0.0138889
        k(   61) = (  -0.2062395  -0.5008673  -0.1473139), wk =   0.0138889
        k(   62) = (  -0.2651650  -0.4419417  -0.2062395), wk =   0.0138889
        k(   63) = (  -0.0294628  -0.5597929   0.0294628), wk =   0.0069444
        k(   64) = (  -0.0883883  -0.5008673  -0.0294628), wk =   0.0138889
        k(   65) = (  -0.1473139  -0.4419417  -0.0883883), wk =   0.0138889
        k(   66) = (  -0.2062395  -0.3830162  -0.1473139), wk =   0.0138889
        k(   67) = (  -0.0294628  -0.4419417   0.0294628), wk =   0.0069444
        k(   68) = (  -0.0883883  -0.3830162  -0.0294628), wk =   0.0138889
        k(   69) = (  -0.1473139  -0.3240906  -0.0883883), wk =   0.0138889
        k(   70) = (  -0.0294628  -0.3240906   0.0294628), wk =   0.0069444
        k(   71) = (  -0.0883883  -0.2651650  -0.0294628), wk =   0.0138889
        k(   72) = (  -0.0294628  -0.2062395   0.0294628), wk =   0.0069444
        k(   73) = (  -0.0883883   0.0883883   0.0883883), wk =   0.0023148
        k(   74) = (  -0.1473139   0.1473139   0.0294628), wk =   0.0069444
        k(   75) = (  -0.2062395   0.2062395  -0.0294628), wk =   0.0069444
        k(   76) = (  -0.2651650   0.2651650  -0.0883883), wk =   0.0069444
        k(   77) = (  -0.3240906   0.3240906  -0.1473139), wk =   0.0069444
        k(   78) = (   0.3240906  -0.3240906   0.5008673), wk =   0.0069444
        k(   79) = (   0.2651650  -0.2651650   0.4419417), wk =   0.0069444
        k(   80) = (   0.2062395  -0.2062395   0.3830162), wk =   0.0069444
        k(   81) = (   0.1473139  -0.1473139   0.3240906), wk =   0.0069444
        k(   82) = (   0.0883883  -0.0883883   0.2651650), wk =   0.0069444
        k(   83) = (  -0.0883883   0.2062395   0.0883883), wk =   0.0069444
        k(   84) = (  -0.1473139   0.2651650   0.0294628), wk =   0.0138889
        k(   85) = (  -0.2062395   0.3240906  -0.0294628), wk =   0.0138889
        k(   86) = (  -0.2651650   0.3830162  -0.0883883), wk =   0.0138889
        k(   87) = (   0.3830162  -0.2651650   0.5597929), wk =   0.0138889
        k(   88) = (   0.3240906  -0.2062395   0.5008673), wk =   0.0138889
        k(   89) = (   0.2651650  -0.1473139   0.4419417), wk =   0.0138889
        k(   90) = (   0.2062395  -0.0883883   0.3830162), wk =   0.0138889
        k(   91) = (   0.1473139  -0.0294628   0.3240906), wk =   0.0138889
        k(   92) = (  -0.0883883   0.3240906   0.0883883), wk =   0.0069444
        k(   93) = (  -0.1473139   0.3830162   0.0294628), wk =   0.0138889
        k(   94) = (  -0.2062395   0.4419417  -0.0294628), wk =   0.0138889
        k(   95) = (   0.4419417  -0.2062395   0.6187184), wk =   0.0138889
        k(   96) = (   0.3830162  -0.1473139   0.5597929), wk =   0.0138889
        k(   97) = (   0.3240906  -0.0883883   0.5008673), wk =   0.0138889
        k(   98) = (   0.2651650  -0.0294628   0.4419417), wk =   0.0138889
        k(   99) = (   0.2062395   0.0294628   0.3830162), wk =   0.0138889
        k(  100) = (  -0.0883883   0.4419417   0.0883883), wk =   0.0069444
        k(  101) = (  -0.1473139   0.5008673   0.0294628), wk =   0.0138889
        k(  102) = (   0.5008673  -0.1473139   0.6776440), wk =   0.0138889
        k(  103) = (   0.4419417  -0.0883883   0.6187184), wk =   0.0138889
        k(  104) = (   0.3830162  -0.0294628   0.5597929), wk =   0.0138889
        k(  105) = (   0.3240906   0.0294628   0.5008673), wk =   0.0138889
        k(  106) = (   0.2651650   0.0883883   0.4419417), wk =   0.0138889
        k(  107) = (  -0.0883883   0.5597929   0.0883883), wk =   0.0069444
        k(  108) = (   0.5597929  -0.0883883   0.7365696), wk =   0.0138889
        k(  109) = (   0.5008673  -0.0294628   0.6776440), wk =   0.0138889
        k(  110) = (   0.4419417   0.0294628   0.6187184), wk =   0.0138889
        k(  111) = (   0.3830162   0.0883883   0.5597929), wk =   0.0138889
        k(  112) = (   0.3240906   0.1473139   0.5008673), wk =   0.0138889
        k(  113) = (  -0.0883883  -0.7365696   0.0883883), wk =   0.0069444
        k(  114) = (  -0.1473139  -0.6776440   0.0294628), wk =   0.0138889
        k(  115) = (  -0.2062395  -0.6187184  -0.0294628), wk =   0.0138889
        k(  116) = (  -0.2651650  -0.5597929  -0.0883883), wk =   0.0138889
        k(  117) = (  -0.0883883  -0.6187184   0.0883883), wk =   0.0069444
        k(  118) = (  -0.1473139  -0.5597929   0.0294628), wk =   0.0138889
        k(  119) = (  -0.2062395  -0.5008673  -0.0294628), wk =   0.0138889
        k(  120) = (  -0.0883883  -0.5008673   0.0883883), wk =   0.0069444
        k(  121) = (  -0.1473139  -0.4419417   0.0294628), wk =   0.0138889
        k(  122) = (  -0.0883883  -0.3830162   0.0883883), wk =   0.0069444
        k(  123) = (  -0.1473139   0.1473139   0.1473139), wk =   0.0023148
        k(  124) = (  -0.2062395   0.2062395   0.0883883), wk =   0.0069444
        k(  125) = (  -0.2651650   0.2651650   0.0294628), wk =   0.0069444
        k(  126) = (  -0.3240906   0.3240906  -0.0294628), wk =   0.0069444
        k(  127) = (   0.3240906  -0.3240906   0.6187184), wk =   0.0069444
        k(  128) = (   0.2651650  -0.2651650   0.5597929), wk =   0.0069444
        k(  129) = (   0.2062395  -0.2062395   0.5008673), wk =   0.0069444
        k(  130) = (   0.1473139  -0.1473139   0.4419417), wk =   0.0069444
        k(  131) = (  -0.1473139   0.2651650   0.1473139), wk =   0.0069444
        k(  132) = (  -0.2062395   0.3240906   0.0883883), wk =   0.0138889
        k(  133) = (  -0.2651650   0.3830162   0.0294628), wk =   0.0138889
        k(  134) = (   0.3830162  -0.2651650   0.6776440), wk =   0.0138889
        k(  135) = (   0.3240906  -0.2062395   0.6187184), wk =   0.0138889
        k(  136) = (   0.2651650  -0.1473139   0.5597929), wk =   0.0138889
        k(  137) = (   0.2062395  -0.0883883   0.5008673), wk =   0.0138889
        k(  138) = (  -0.1473139   0.3830162   0.1473139), wk =   0.0069444
        k(  139) = (  -0.2062395   0.4419417   0.0883883), wk =   0.0138889
        k(  140) = (   0.4419417  -0.2062395   0.7365696), wk =   0.0138889
        k(  141) = (   0.3830162  -0.1473139   0.6776440), wk =   0.0138889
        k(  142) = (   0.3240906  -0.0883883   0.6187184), wk =   0.0138889
        k(  143) = (   0.2651650  -0.0294628   0.5597929), wk =   0.0138889
        k(  144) = (  -0.1473139   0.5008673   0.1473139), wk =   0.0069444
        k(  145) = (   0.5008673  -0.1473139   0.7954951), wk =   0.0138889
        k(  146) = (   0.4419417  -0.0883883   0.7365696), wk =   0.0138889
        k(  147) = (   0.3830162  -0.0294628   0.6776440), wk =   0.0138889
        k(  148) = (   0.3240906   0.0294628   0.6187184), wk =   0.0138889
        k(  149) = (  -0.1473139  -0.7954951   0.1473139), wk =   0.0069444
        k(  150) = (  -0.2062395  -0.7365696   0.0883883), wk =   0.0138889
        k(  151) = (  -0.2651650  -0.6776440   0.0294628), wk =   0.0138889
        k(  152) = (  -0.1473139  -0.6776440   0.1473139), wk =   0.0069444
        k(  153) = (  -0.2062395  -0.6187184   0.0883883), wk =   0.0138889
        k(  154) = (  -0.1473139  -0.5597929   0.1473139), wk =   0.0069444
        k(  155) = (  -0.2062395   0.2062395   0.2062395), wk =   0.0023148
        k(  156) = (  -0.2651650   0.2651650   0.1473139), wk =   0.0069444
        k(  157) = (  -0.3240906   0.3240906   0.0883883), wk =   0.0069444
        k(  158) = (   0.3240906  -0.3240906   0.7365696), wk =   0.0069444
        k(  159) = (   0.2651650  -0.2651650   0.6776440), wk =   0.0069444
        k(  160) = (   0.2062395  -0.2062395   0.6187184), wk =   0.0069444
        k(  161) = (  -0.2062395   0.3240906   0.2062395), wk =   0.0069444
        k(  162) = (  -0.2651650   0.3830162   0.1473139), wk =   0.0138889
        k(  163) = (   0.3830162  -0.2651650   0.7954951), wk =   0.0138889
        k(  164) = (   0.3240906  -0.2062395   0.7365696), wk =   0.0138889
        k(  165) = (   0.2651650  -0.1473139   0.6776440), wk =   0.0138889
        k(  166) = (  -0.2062395   0.4419417   0.2062395), wk =   0.0069444
        k(  167) = (   0.4419417  -0.2062395   0.8544207), wk =   0.0138889
        k(  168) = (   0.3830162  -0.1473139   0.7954951), wk =   0.0138889
        k(  169) = (   0.3240906  -0.0883883   0.7365696), wk =   0.0138889
        k(  170) = (  -0.2062395  -0.8544207   0.2062395), wk =   0.0069444
        k(  171) = (  -0.2651650  -0.7954951   0.1473139), wk =   0.0138889
        k(  172) = (  -0.2062395  -0.7365696   0.2062395), wk =   0.0069444
        k(  173) = (  -0.2651650   0.2651650   0.2651650), wk =   0.0023148
        k(  174) = (  -0.3240906   0.3240906   0.2062395), wk =   0.0069444
        k(  175) = (   0.3240906  -0.3240906   0.8544207), wk =   0.0069444
        k(  176) = (   0.2651650  -0.2651650   0.7954951), wk =   0.0069444
        k(  177) = (  -0.2651650   0.3830162   0.2651650), wk =   0.0069444
        k(  178) = (   0.3830162  -0.2651650   0.9133463), wk =   0.0138889
        k(  179) = (   0.3240906  -0.2062395   0.8544207), wk =   0.0138889
        k(  180) = (  -0.2651650  -0.9133463   0.2651650), wk =   0.0069444
        k(  181) = (  -0.3240906   0.3240906   0.3240906), wk =   0.0023148
        k(  182) = (   0.3240906  -0.3240906   0.9722718), wk =   0.0069444

                       cryst. coord.
        k(    1) = (   0.0416667   0.0416667   0.0416667), wk =   0.0023148
        k(    2) = (   0.0416667   0.0416667   0.1250000), wk =   0.0069444
        k(    3) = (   0.0416667   0.0416667   0.2083333), wk =   0.0069444
        k(    4) = (   0.0416667   0.0416667   0.2916667), wk =   0.0069444
        k(    5) = (   0.0416667   0.0416667   0.3750000), wk =   0.0069444
        k(    6) = (   0.0416667   0.0416667   0.4583333), wk =   0.0069444
        k(    7) = (   0.0416667   0.0416667  -0.4583333), wk =   0.0069444
        k(    8) = (   0.0416667   0.0416667  -0.3750000), wk =   0.0069444
        k(    9) = (   0.0416667   0.0416667  -0.2916667), wk =   0.0069444
        k(   10) = (   0.0416667   0.0416667  -0.2083333), wk =   0.0069444
        k(   11) = (   0.0416667   0.0416667  -0.1250000), wk =   0.0069444
        k(   12) = (   0.0416667   0.0416667  -0.0416667), wk =   0.0069444
        k(   13) = (   0.0416667   0.1250000   0.1250000), wk =   0.0069444
        k(   14) = (   0.0416667   0.1250000   0.2083333), wk =   0.0138889
        k(   15) = (   0.0416667   0.1250000   0.2916667), wk =   0.0138889
        k(   16) = (   0.0416667   0.1250000   0.3750000), wk =   0.0138889
        k(   17) = (   0.0416667   0.1250000   0.4583333), wk =   0.0138889
        k(   18) = (   0.0416667   0.1250000  -0.4583333), wk =   0.0138889
        k(   19) = (   0.0416667   0.1250000  -0.3750000), wk =   0.0138889
        k(   20) = (   0.0416667   0.1250000  -0.2916667), wk =   0.0138889
        k(   21) = (   0.0416667   0.1250000  -0.2083333), wk =   0.0138889
        k(   22) = (   0.0416667   0.1250000  -0.1250000), wk =   0.0138889
        k(   23) = (   0.0416667   0.1250000  -0.0416667), wk =   0.0138889
        k(   24) = (   0.0416667   0.2083333   0.2083333), wk =   0.0069444
        k(   25) = (   0.0416667   0.2083333   0.2916667), wk =   0.0138889
        k(   26) = (   0.0416667   0.2083333   0.3750000), wk =   0.0138889
        k(   27) = (   0.0416667   0.2083333   0.4583333), wk =   0.0138889
        k(   28) = (   0.0416667   0.2083333  -0.4583333), wk =   0.0138889
        k(   29) = (   0.0416667   0.2083333  -0.3750000), wk =   0.0138889
        k(   30) = (   0.0416667   0.2083333  -0.2916667), wk =   0.0138889
        k(   31) = (   0.0416667   0.2083333  -0.2083333), wk =   0.0138889
        k(   32) = (   0.0416667   0.2083333  -0.1250000), wk =   0.0138889
        k(   33) = (   0.0416667   0.2083333  -0.0416667), wk =   0.0138889
        k(   34) = (   0.0416667   0.2916667   0.2916667), wk =   0.0069444
        k(   35) = (   0.0416667   0.2916667   0.3750000), wk =   0.0138889
        k(   36) = (   0.0416667   0.2916667   0.4583333), wk =   0.0138889
        k(   37) = (   0.0416667   0.2916667  -0.4583333), wk =   0.0138889
        k(   38) = (   0.0416667   0.2916667  -0.3750000), wk =   0.0138889
        k(   39) = (   0.0416667   0.2916667  -0.2916667), wk =   0.0138889
        k(   40) = (   0.0416667   0.2916667  -0.2083333), wk =   0.0138889
        k(   41) = (   0.0416667   0.2916667  -0.1250000), wk =   0.0138889
        k(   42) = (   0.0416667   0.2916667  -0.0416667), wk =   0.0138889
        k(   43) = (   0.0416667   0.3750000   0.3750000), wk =   0.0069444
        k(   44) = (   0.0416667   0.3750000   0.4583333), wk =   0.0138889
        k(   45) = (   0.0416667   0.3750000  -0.4583333), wk =   0.0138889
        k(   46) = (   0.0416667   0.3750000  -0.3750000), wk =   0.0138889
        k(   47) = (   0.0416667   0.3750000  -0.2916667), wk =   0.0138889
        k(   48) = (   0.0416667   0.3750000  -0.2083333), wk =   0.0138889
        k(   49) = (   0.0416667   0.3750000  -0.1250000), wk =   0.0138889
        k(   50) = (   0.0416667   0.3750000  -0.0416667), wk =   0.0138889
        k(   51) = (   0.0416667   0.4583333   0.4583333), wk =   0.0069444
        k(   52) = (   0.0416667   0.4583333  -0.4583333), wk =   0.0138889
        k(   53) = (   0.0416667   0.4583333  -0.3750000), wk =   0.0138889
        k(   54) = (   0.0416667   0.4583333  -0.2916667), wk =   0.0138889
        k(   55) = (   0.0416667   0.4583333  -0.2083333), wk =   0.0138889
        k(   56) = (   0.0416667   0.4583333  -0.1250000), wk =   0.0138889
        k(   57) = (   0.0416667   0.4583333  -0.0416667), wk =   0.0138889
        k(   58) = (   0.0416667  -0.4583333  -0.4583333), wk =   0.0069444
        k(   59) = (   0.0416667  -0.4583333  -0.3750000), wk =   0.0138889
        k(   60) = (   0.0416667  -0.4583333  -0.2916667), wk =   0.0138889
        k(   61) = (   0.0416667  -0.4583333  -0.2083333), wk =   0.0138889
        k(   62) = (   0.0416667  -0.4583333  -0.1250000), wk =   0.0138889
        k(   63) = (   0.0416667  -0.3750000  -0.3750000), wk =   0.0069444
        k(   64) = (   0.0416667  -0.3750000  -0.2916667), wk =   0.0138889
        k(   65) = (   0.0416667  -0.3750000  -0.2083333), wk =   0.0138889
        k(   66) = (   0.0416667  -0.3750000  -0.1250000), wk =   0.0138889
        k(   67) = (   0.0416667  -0.2916667  -0.2916667), wk =   0.0069444
        k(   68) = (   0.0416667  -0.2916667  -0.2083333), wk =   0.0138889
        k(   69) = (   0.0416667  -0.2916667  -0.1250000), wk =   0.0138889
        k(   70) = (   0.0416667  -0.2083333  -0.2083333), wk =   0.0069444
        k(   71) = (   0.0416667  -0.2083333  -0.1250000), wk =   0.0138889
        k(   72) = (   0.0416667  -0.1250000  -0.1250000), wk =   0.0069444
        k(   73) = (   0.1250000   0.1250000   0.1250000), wk =   0.0023148
        k(   74) = (   0.1250000   0.1250000   0.2083333), wk =   0.0069444
        k(   75) = (   0.1250000   0.1250000   0.2916667), wk =   0.0069444
        k(   76) = (   0.1250000   0.1250000   0.3750000), wk =   0.0069444
        k(   77) = (   0.1250000   0.1250000   0.4583333), wk =   0.0069444
        k(   78) = (   0.1250000   0.1250000  -0.4583333), wk =   0.0069444
        k(   79) = (   0.1250000   0.1250000  -0.3750000), wk =   0.0069444
        k(   80) = (   0.1250000   0.1250000  -0.2916667), wk =   0.0069444
        k(   81) = (   0.1250000   0.1250000  -0.2083333), wk =   0.0069444
        k(   82) = (   0.1250000   0.1250000  -0.1250000), wk =   0.0069444
        k(   83) = (   0.1250000   0.2083333   0.2083333), wk =   0.0069444
        k(   84) = (   0.1250000   0.2083333   0.2916667), wk =   0.0138889
        k(   85) = (   0.1250000   0.2083333   0.3750000), wk =   0.0138889
        k(   86) = (   0.1250000   0.2083333   0.4583333), wk =   0.0138889
        k(   87) = (   0.1250000   0.2083333  -0.4583333), wk =   0.0138889
        k(   88) = (   0.1250000   0.2083333  -0.3750000), wk =   0.0138889
        k(   89) = (   0.1250000   0.2083333  -0.2916667), wk =   0.0138889
        k(   90) = (   0.1250000   0.2083333  -0.2083333), wk =   0.0138889
        k(   91) = (   0.1250000   0.2083333  -0.1250000), wk =   0.0138889
        k(   92) = (   0.1250000   0.2916667   0.2916667), wk =   0.0069444
        k(   93) = (   0.1250000   0.2916667   0.3750000), wk =   0.0138889
        k(   94) = (   0.1250000   0.2916667   0.4583333), wk =   0.0138889
        k(   95) = (   0.1250000   0.2916667  -0.4583333), wk =   0.0138889
        k(   96) = (   0.1250000   0.2916667  -0.3750000), wk =   0.0138889
        k(   97) = (   0.1250000   0.2916667  -0.2916667), wk =   0.0138889
        k(   98) = (   0.1250000   0.2916667  -0.2083333), wk =   0.0138889
        k(   99) = (   0.1250000   0.2916667  -0.1250000), wk =   0.0138889
        k(  100) = (   0.1250000   0.3750000   0.3750000), wk =   0.0069444
        k(  101) = (   0.1250000   0.3750000   0.4583333), wk =   0.0138889
        k(  102) = (   0.1250000   0.3750000  -0.4583333), wk =   0.0138889
        k(  103) = (   0.1250000   0.3750000  -0.3750000), wk =   0.0138889
        k(  104) = (   0.1250000   0.3750000  -0.2916667), wk =   0.0138889
        k(  105) = (   0.1250000   0.3750000  -0.2083333), wk =   0.0138889
        k(  106) = (   0.1250000   0.3750000  -0.1250000), wk =   0.0138889
        k(  107) = (   0.1250000   0.4583333   0.4583333), wk =   0.0069444
        k(  108) = (   0.1250000   0.4583333  -0.4583333), wk =   0.0138889
        k(  109) = (   0.1250000   0.4583333  -0.3750000), wk =   0.0138889
        k(  110) = (   0.1250000   0.4583333  -0.2916667), wk =   0.0138889
        k(  111) = (   0.1250000   0.4583333  -0.2083333), wk =   0.0138889
        k(  112) = (   0.1250000   0.4583333  -0.1250000), wk =   0.0138889
        k(  113) = (   0.1250000  -0.4583333  -0.4583333), wk =   0.0069444
        k(  114) = (   0.1250000  -0.4583333  -0.3750000), wk =   0.0138889
        k(  115) = (   0.1250000  -0.4583333  -0.2916667), wk =   0.0138889
        k(  116) = (   0.1250000  -0.4583333  -0.2083333), wk =   0.0138889
        k(  117) = (   0.1250000  -0.3750000  -0.3750000), wk =   0.0069444
        k(  118) = (   0.1250000  -0.3750000  -0.2916667), wk =   0.0138889
        k(  119) = (   0.1250000  -0.3750000  -0.2083333), wk =   0.0138889
        k(  120) = (   0.1250000  -0.2916667  -0.2916667), wk =   0.0069444
        k(  121) = (   0.1250000  -0.2916667  -0.2083333), wk =   0.0138889
        k(  122) = (   0.1250000  -0.2083333  -0.2083333), wk =   0.0069444
        k(  123) = (   0.2083333   0.2083333   0.2083333), wk =   0.0023148
        k(  124) = (   0.2083333   0.2083333   0.2916667), wk =   0.0069444
        k(  125) = (   0.2083333   0.2083333   0.3750000), wk =   0.0069444
        k(  126) = (   0.2083333   0.2083333   0.4583333), wk =   0.0069444
        k(  127) = (   0.2083333   0.2083333  -0.4583333), wk =   0.0069444
        k(  128) = (   0.2083333   0.2083333  -0.3750000), wk =   0.0069444
        k(  129) = (   0.2083333   0.2083333  -0.2916667), wk =   0.0069444
        k(  130) = (   0.2083333   0.2083333  -0.2083333), wk =   0.0069444
        k(  131) = (   0.2083333   0.2916667   0.2916667), wk =   0.0069444
        k(  132) = (   0.2083333   0.2916667   0.3750000), wk =   0.0138889
        k(  133) = (   0.2083333   0.2916667   0.4583333), wk =   0.0138889
        k(  134) = (   0.2083333   0.2916667  -0.4583333), wk =   0.0138889
        k(  135) = (   0.2083333   0.2916667  -0.3750000), wk =   0.0138889
        k(  136) = (   0.2083333   0.2916667  -0.2916667), wk =   0.0138889
        k(  137) = (   0.2083333   0.2916667  -0.2083333), wk =   0.0138889
        k(  138) = (   0.2083333   0.3750000   0.3750000), wk =   0.0069444
        k(  139) = (   0.2083333   0.3750000   0.4583333), wk =   0.0138889
        k(  140) = (   0.2083333   0.3750000  -0.4583333), wk =   0.0138889
        k(  141) = (   0.2083333   0.3750000  -0.3750000), wk =   0.0138889
        k(  142) = (   0.2083333   0.3750000  -0.2916667), wk =   0.0138889
        k(  143) = (   0.2083333   0.3750000  -0.2083333), wk =   0.0138889
        k(  144) = (   0.2083333   0.4583333   0.4583333), wk =   0.0069444
        k(  145) = (   0.2083333   0.4583333  -0.4583333), wk =   0.0138889
        k(  146) = (   0.2083333   0.4583333  -0.3750000), wk =   0.0138889
        k(  147) = (   0.2083333   0.4583333  -0.2916667), wk =   0.0138889
        k(  148) = (   0.2083333   0.4583333  -0.2083333), wk =   0.0138889
        k(  149) = (   0.2083333  -0.4583333  -0.4583333), wk =   0.0069444
        k(  150) = (   0.2083333  -0.4583333  -0.3750000), wk =   0.0138889
        k(  151) = (   0.2083333  -0.4583333  -0.2916667), wk =   0.0138889
        k(  152) = (   0.2083333  -0.3750000  -0.3750000), wk =   0.0069444
        k(  153) = (   0.2083333  -0.3750000  -0.2916667), wk =   0.0138889
        k(  154) = (   0.2083333  -0.2916667  -0.2916667), wk =   0.0069444
        k(  155) = (   0.2916667   0.2916667   0.2916667), wk =   0.0023148
        k(  156) = (   0.2916667   0.2916667   0.3750000), wk =   0.0069444
        k(  157) = (   0.2916667   0.2916667   0.4583333), wk =   0.0069444
        k(  158) = (   0.2916667   0.2916667  -0.4583333), wk =   0.0069444
        k(  159) = (   0.2916667   0.2916667  -0.3750000), wk =   0.0069444
        k(  160) = (   0.2916667   0.2916667  -0.2916667), wk =   0.0069444
        k(  161) = (   0.2916667   0.3750000   0.3750000), wk =   0.0069444
        k(  162) = (   0.2916667   0.3750000   0.4583333), wk =   0.0138889
        k(  163) = (   0.2916667   0.3750000  -0.4583333), wk =   0.0138889
        k(  164) = (   0.2916667   0.3750000  -0.3750000), wk =   0.0138889
        k(  165) = (   0.2916667   0.3750000  -0.2916667), wk =   0.0138889
        k(  166) = (   0.2916667   0.4583333   0.4583333), wk =   0.0069444
        k(  167) = (   0.2916667   0.4583333  -0.4583333), wk =   0.0138889
        k(  168) = (   0.2916667   0.4583333  -0.3750000), wk =   0.0138889
        k(  169) = (   0.2916667   0.4583333  -0.2916667), wk =   0.0138889
        k(  170) = (   0.2916667  -0.4583333  -0.4583333), wk =   0.0069444
        k(  171) = (   0.2916667  -0.4583333  -0.3750000), wk =   0.0138889
        k(  172) = (   0.2916667  -0.3750000  -0.3750000), wk =   0.0069444
        k(  173) = (   0.3750000   0.3750000   0.3750000), wk =   0.0023148
        k(  174) = (   0.3750000   0.3750000   0.4583333), wk =   0.0069444
        k(  175) = (   0.3750000   0.3750000  -0.4583333), wk =   0.0069444
        k(  176) = (   0.3750000   0.3750000  -0.3750000), wk =   0.0069444
        k(  177) = (   0.3750000   0.4583333   0.4583333), wk =   0.0069444
        k(  178) = (   0.3750000   0.4583333  -0.4583333), wk =   0.0138889
        k(  179) = (   0.3750000   0.4583333  -0.3750000), wk =   0.0138889
        k(  180) = (   0.3750000  -0.4583333  -0.4583333), wk =   0.0069444
        k(  181) = (   0.4583333   0.4583333   0.4583333), wk =   0.0023148
        k(  182) = (   0.4583333   0.4583333  -0.4583333), wk =   0.0069444

     Dense  grid:     1363 G-vectors     FFT dimensions: (  15,  15,  15)

     Dynamical RAM for                 wfc:       0.01 MB

     Dynamical RAM for     wfc (w. buffer):       0.61 MB

     Dynamical RAM for           str. fact:       0.00 MB

     Dynamical RAM for           local pot:       0.00 MB

     Dynamical RAM for          nlocal pot:       0.01 MB

     Dynamical RAM for                qrad:       0.41 MB

     Dynamical RAM for          rho,v,vnew:       0.03 MB

     Dynamical RAM for               rhoin:       0.01 MB

     Dynamical RAM for            rho*nmix:       0.06 MB

     Dynamical RAM for           G-vectors:       0.01 MB

     Dynamical RAM for          h,s,v(r/c):       0.01 MB

     Dynamical RAM for          <psi|beta>:       0.00 MB

     Dynamical RAM for                 psi:       0.01 MB

     Dynamical RAM for                hpsi:       0.01 MB

     Dynamical RAM for                spsi:       0.01 MB

     Dynamical RAM for      wfcinit/wfcrot:       0.01 MB

     Dynamical RAM for           addusdens:       0.08 MB

     Dynamical RAM for          addusforce:       0.08 MB

     Dynamical RAM for         addusstress:       0.09 MB

     Estimated static dynamical RAM per process >       1.12 MB

     Estimated max dynamical RAM per process >       1.26 MB

     Estimated total dynamical RAM >      14.83 MB

     Initial potential from superposition of free atoms

     starting charge       2.9975, renormalised to       3.0000

     negative rho (up, down):  6.641E-04 0.000E+00
     Starting wfcs are    8 randomized atomic wfcs
     Checking if some PAW data can be deallocated... 

     total cpu time spent up to now is        0.2 secs

     per-process dynamical memory:    34.6 Mb

     Self-consistent Calculation

     iteration #  1     ecut=    38.00 Ry     beta= 0.70
     Davidson diagonalization with overlap

---- Real-time Memory Report at c_bands before calling an iterative solver
           103 MiB given to the printing process from OS
            33 MiB allocation reported by mallinfo(arena+hblkhd)
         97546 MiB available memory on the node where the printing process lives
------------------
     ethr =  1.00E-02,  avg # of iterations =  5.9

     Threshold (ethr) on eigenvalues was too large:
     Diagonalizing with lowered threshold

     Davidson diagonalization with overlap

---- Real-time Memory Report at c_bands before calling an iterative solver
           105 MiB given to the printing process from OS
            33 MiB allocation reported by mallinfo(arena+hblkhd)
         97530 MiB available memory on the node where the printing process lives
------------------
     ethr =  1.92E-04,  avg # of iterations =  2.2

     negative rho (up, down):  7.402E-04 0.000E+00

     total cpu time spent up to now is        0.4 secs

     total energy              =     -39.50158383 Ry
     estimated scf accuracy    <       0.00568846 Ry

     iteration #  2     ecut=    38.00 Ry     beta= 0.70
     Davidson diagonalization with overlap

---- Real-time Memory Report at c_bands before calling an iterative solver
           109 MiB given to the printing process from OS
            34 MiB allocation reported by mallinfo(arena+hblkhd)
         97524 MiB available memory on the node where the printing process lives
------------------
     ethr =  1.90E-04,  avg # of iterations =  1.0

     negative rho (up, down):  7.898E-04 0.000E+00

     total cpu time spent up to now is        0.4 secs

     total energy              =     -39.50176232 Ry
     estimated scf accuracy    <       0.00036934 Ry

     iteration #  3     ecut=    38.00 Ry     beta= 0.70
     Davidson diagonalization with overlap

---- Real-time Memory Report at c_bands before calling an iterative solver
           111 MiB given to the printing process from OS
            34 MiB allocation reported by mallinfo(arena+hblkhd)
         97524 MiB available memory on the node where the printing process lives
------------------
     ethr =  1.23E-05,  avg # of iterations =  2.1

     negative rho (up, down):  7.584E-04 0.000E+00

     total cpu time spent up to now is        0.5 secs

     total energy              =     -39.50178316 Ry
     estimated scf accuracy    <       0.00000048 Ry

     iteration #  4     ecut=    38.00 Ry     beta= 0.70
     Davidson diagonalization with overlap

---- Real-time Memory Report at c_bands before calling an iterative solver
           111 MiB given to the printing process from OS
            34 MiB allocation reported by mallinfo(arena+hblkhd)
         97524 MiB available memory on the node where the printing process lives
------------------
     ethr =  1.61E-08,  avg # of iterations =  3.2

     negative rho (up, down):  7.354E-04 0.000E+00

     total cpu time spent up to now is        0.6 secs

     total energy              =     -39.50178433 Ry
     estimated scf accuracy    <       0.00000004 Ry

     iteration #  5     ecut=    38.00 Ry     beta= 0.70
     Davidson diagonalization with overlap

---- Real-time Memory Report at c_bands before calling an iterative solver
           111 MiB given to the printing process from OS
            34 MiB allocation reported by mallinfo(arena+hblkhd)
         97523 MiB available memory on the node where the printing process lives
------------------
     ethr =  1.19E-09,  avg # of iterations =  1.1

     negative rho (up, down):  7.347E-04 0.000E+00

     total cpu time spent up to now is        0.6 secs

     total energy              =     -39.50178433 Ry
     estimated scf accuracy    <          4.2E-09 Ry

     iteration #  6     ecut=    38.00 Ry     beta= 0.70
     Davidson diagonalization with overlap

---- Real-time Memory Report at c_bands before calling an iterative solver
           111 MiB given to the printing process from OS
            34 MiB allocation reported by mallinfo(arena+hblkhd)
         97523 MiB available memory on the node where the printing process lives
------------------
     ethr =  1.39E-10,  avg # of iterations =  1.0

     negative rho (up, down):  7.343E-04 0.000E+00

     total cpu time spent up to now is        0.6 secs

     total energy              =     -39.50178433 Ry
     estimated scf accuracy    <          1.4E-11 Ry

     iteration #  7     ecut=    38.00 Ry     beta= 0.70
     Davidson diagonalization with overlap

---- Real-time Memory Report at c_bands before calling an iterative solver
           111 MiB given to the printing process from OS
            34 MiB allocation reported by mallinfo(arena+hblkhd)
         97523 MiB available memory on the node where the printing process lives
------------------
     ethr =  4.80E-13,  avg # of iterations =  2.1

     negative rho (up, down):  7.343E-04 0.000E+00

     total cpu time spent up to now is        0.7 secs

     total energy              =     -39.50178433 Ry
     estimated scf accuracy    <          2.0E-14 Ry

     iteration #  8     ecut=    38.00 Ry     beta= 0.70
     Davidson diagonalization with overlap

---- Real-time Memory Report at c_bands before calling an iterative solver
           111 MiB given to the printing process from OS
            34 MiB allocation reported by mallinfo(arena+hblkhd)
         97523 MiB available memory on the node where the printing process lives
------------------
     ethr =  1.00E-13,  avg # of iterations =  1.0

     negative rho (up, down):  7.343E-04 0.000E+00

     total cpu time spent up to now is        0.7 secs

     total energy              =     -39.50178433 Ry
     estimated scf accuracy    <          1.1E-16 Ry

     iteration #  9     ecut=    38.00 Ry     beta= 0.70
     Davidson diagonalization with overlap

---- Real-time Memory Report at c_bands before calling an iterative solver
           111 MiB given to the printing process from OS
            34 MiB allocation reported by mallinfo(arena+hblkhd)
         97523 MiB available memory on the node where the printing process lives
------------------
     ethr =  1.00E-13,  avg # of iterations =  1.0

     negative rho (up, down):  7.343E-04 0.000E+00

     total cpu time spent up to now is        0.8 secs

     total energy              =     -39.50178433 Ry
     estimated scf accuracy    <          4.5E-16 Ry

     iteration # 10     ecut=    38.00 Ry     beta= 0.70
     Davidson diagonalization with overlap

---- Real-time Memory Report at c_bands before calling an iterative solver
           111 MiB given to the printing process from OS
            34 MiB allocation reported by mallinfo(arena+hblkhd)
         97523 MiB available memory on the node where the printing process lives
------------------
     ethr =  1.00E-13,  avg # of iterations =  1.0

     negative rho (up, down):  7.343E-04 0.000E+00

     total cpu time spent up to now is        0.8 secs

     End of self-consistent calculation

          k =-0.0295 0.0295 0.0295 (   441 PWs)   bands (ev):

    -3.1438  19.5992  20.4050  20.4050  22.3557  22.3560

     occupation numbers 
     1.0000  -0.0000  -0.0000  -0.0000  -0.0000  -0.0000

          k =-0.0884 0.0884-0.0295 (   437 PWs)   bands (ev):

    -2.8919  17.4035  18.7969  20.6420  22.5124  23.0185

     occupation numbers 
     1.0000  -0.0000  -0.0000  -0.0000  -0.0000  -0.0000

          k =-0.1473 0.1473-0.0884 (   447 PWs)   bands (ev):

    -2.2642  14.0912  18.0676  20.1025  22.8672  23.1497

     occupation numbers 
     1.0000  -0.0000  -0.0000  -0.0000  -0.0000  -0.0000

          k =-0.2062 0.2062-0.1473 (   443 PWs)   bands (ev):

    -1.2655  10.9322  17.6553  19.7320  21.6851  22.6465

     occupation numbers 
     1.0000  -0.0000  -0.0000  -0.0000  -0.0000  -0.0000

          k =-0.2652 0.2652-0.2062 (   437 PWs)   bands (ev):

     0.0967   8.0342  17.5608  19.6492  20.3182  21.5468

     occupation numbers 
     1.0000   0.4322  -0.0000  -0.0000  -0.0000  -0.0000

          k =-0.3241 0.3241-0.2652 (   433 PWs)   bands (ev):

     1.8117   5.4359  17.7886  19.2315  19.8913  20.4704

     occupation numbers 
     1.0000   1.0000  -0.0000  -0.0000  -0.0000  -0.0000

          k = 0.3241-0.3241 0.3830 (   438 PWs)   bands (ev):

     3.1340   3.8923  18.3399  18.4765  19.7001  20.4321

     occupation numbers 
     1.0000   1.0000  -0.0000  -0.0000  -0.0000  -0.0000

          k = 0.2652-0.2652 0.3241 (   432 PWs)   bands (ev):

     1.2017   6.2672  18.0386  19.2071  19.2548  21.2885

     occupation numbers 
     1.0000   1.0000  -0.0000  -0.0000  -0.0000  -0.0000

          k = 0.2062-0.2062 0.2652 (   438 PWs)   bands (ev):

    -0.3972   8.9687  17.9197  19.1140  20.4013  22.4452

     occupation numbers 
     1.0000  -0.0000  -0.0000  -0.0000  -0.0000  -0.0000

          k = 0.1473-0.1473 0.2062 (   445 PWs)   bands (ev):

    -1.6392  11.9604  18.1175  19.2888  21.8646  22.9333

     occupation numbers 
     1.0000  -0.0000  -0.0000  -0.0000  -0.0000  -0.0000

          k = 0.0884-0.0884 0.1473 (   444 PWs)   bands (ev):

    -2.5150  15.1952  18.6265  19.7283  22.9407  23.2842

     occupation numbers 
     1.0000  -0.0000  -0.0000  -0.0000  -0.0000  -0.0000

          k = 0.0295-0.0295 0.0884 (   435 PWs)   bands (ev):

    -3.0178  18.5287  19.4277  20.1657  22.0200  23.2590

     occupation numbers 
     1.0000  -0.0000  -0.0000  -0.0000  -0.0000  -0.0000

          k =-0.0295 0.1473 0.0295 (   437 PWs)   bands (ev):

    -2.7661  17.4605  18.4039  19.3065  21.5009  23.7163

     occupation numbers 
     1.0000  -0.0000  -0.0000  -0.0000  -0.0000  -0.0000

          k =-0.0884 0.2062-0.0295 (   448 PWs)   bands (ev):

    -2.2642  15.2958  16.9023  19.5081  21.4213  21.9511

     occupation numbers 
     1.0000  -0.0000  -0.0000  -0.0000  -0.0000  -0.0000

          k =-0.1473 0.2652-0.0884 (   443 PWs)   bands (ev):

    -1.3900  12.1567  16.3235  19.3131  19.7612  23.3878

     occupation numbers 
     1.0000  -0.0000  -0.0000  -0.0000  -0.0000  -0.0000

          k =-0.2062 0.3241-0.1473 (   440 PWs)   bands (ev):

    -0.1502   9.1903  16.1035  18.2265  19.1960  23.4770

     occupation numbers 
     1.0000  -0.0000  -0.0000  -0.0000  -0.0000  -0.0000

          k =-0.2652 0.3830-0.2062 (   438 PWs)   bands (ev):

     1.4457   6.5000  16.2083  17.0170  19.3509  22.3293

     occupation numbers 
     1.0000   1.0000  -0.0000  -0.0000  -0.0000  -0.0000

          k = 0.3830-0.2652 0.4419 (   442 PWs)   bands (ev):

     3.3723   4.1331  16.0826  16.6948  19.8193  21.4667

     occupation numbers 
     1.0000   1.0000  -0.0000  -0.0000  -0.0000  -0.0000

          k = 0.3241-0.2062 0.3830 (   440 PWs)   bands (ev):

     2.0546   5.6702  15.5376  17.4540  20.5710  20.9505

     occupation numbers 
     1.0000   1.0000  -0.0000  -0.0000  -0.0000  -0.0000

          k = 0.2652-0.1473 0.3241 (   436 PWs)   bands (ev):

     0.3428   8.2572  15.3182  18.5496  20.6342  21.7442

     occupation numbers 
     1.0000  -0.0114  -0.0000  -0.0000  -0.0000  -0.0000

          k = 0.2062-0.0884 0.2652 (   443 PWs)   bands (ev):

    -1.0169  11.1278  15.4442  19.9501  20.6913  23.1016

     occupation numbers 
     1.0000  -0.0000  -0.0000  -0.0000  -0.0000  -0.0000

          k = 0.1473-0.0295 0.2062 (   445 PWs)   bands (ev):

    -2.0139  14.1691  15.9805  20.8618  21.5957  22.9548

     occupation numbers 
     1.0000  -0.0000  -0.0000  -0.0000  -0.0000  -0.0000

          k = 0.0884 0.0295 0.1473 (   441 PWs)   bands (ev):

    -2.6405  16.3069  17.8358  20.3069  22.2225  23.7970

     occupation numbers 
     1.0000  -0.0000  -0.0000  -0.0000  -0.0000  -0.0000

          k =-0.0295 0.2652 0.0295 (   441 PWs)   bands (ev):

    -1.8889  15.5655  16.6044  17.4749  19.3938  20.2289

     occupation numbers 
     1.0000  -0.0000  -0.0000  -0.0000  -0.0000  -0.0000

          k =-0.0884 0.3241-0.0295 (   441 PWs)   bands (ev):

    -1.1412  13.5828  15.2858  17.4091  17.9133  20.4718

     occupation numbers 
     1.0000  -0.0000  -0.0000  -0.0000  -0.0000  -0.0000

          k =-0.1473 0.3830-0.0884 (   444 PWs)   bands (ev):

    -0.0271  10.6513  14.8845  15.7490  17.9857  22.2542

     occupation numbers 
     1.0000  -0.0000  -0.0000  -0.0000  -0.0000  -0.0000

          k =-0.2062 0.4419-0.1473 (   439 PWs)   bands (ev):

     1.4444   7.8981  14.3155  14.9550  18.0993  24.4593

     occupation numbers 
     1.0000   0.8229  -0.0000  -0.0000  -0.0000  -0.0000

          k = 0.4419-0.2062 0.5009 (   436 PWs)   bands (ev):

     3.2584   5.4323  13.3228  15.2594  18.4912  23.9205

     occupation numbers 
     1.0000   1.0000  -0.0000  -0.0000  -0.0000  -0.0000

          k = 0.3830-0.1473 0.4419 (   437 PWs)   bands (ev):

     3.2613   5.4233  12.6529  15.9220  19.2017  23.2775

     occupation numbers 
     1.0000   1.0000  -0.0000  -0.0000  -0.0000  -0.0000

          k = 0.3241-0.0884 0.3830 (   435 PWs)   bands (ev):

     1.4455   7.8660  12.3487  16.9170  20.2286  22.9175

     occupation numbers 
     1.0000   0.8902  -0.0000  -0.0000  -0.0000  -0.0000

          k = 0.2652-0.0295 0.3241 (   439 PWs)   bands (ev):

    -0.0268  10.4803  12.5247  18.2338  21.5392  22.7334

     occupation numbers 
     1.0000  -0.0000  -0.0000  -0.0000  -0.0000  -0.0000

          k = 0.2062 0.0295 0.2652 (   445 PWs)   bands (ev):

    -1.1412  12.2175  14.1846  19.8509  21.6775  22.9984

     occupation numbers 
     1.0000  -0.0000  -0.0000  -0.0000  -0.0000  -0.0000

          k = 0.1473 0.0884 0.2062 (   444 PWs)   bands (ev):

    -1.8889  13.0731  17.1720  19.9441  21.7196  23.6177

     occupation numbers 
     1.0000  -0.0000  -0.0000  -0.0000  -0.0000  -0.0000

          k =-0.0295 0.3830 0.0295 (   437 PWs)   bands (ev):

    -0.5213  14.0778  15.2140  15.2548  16.0043  18.9844

     occupation numbers 
     1.0000  -0.0000  -0.0000  -0.0000  -0.0000  -0.0000

          k =-0.0884 0.4419-0.0295 (   440 PWs)   bands (ev):

     0.4644  12.3057  13.4017  14.1437  16.6655  19.3840

     occupation numbers 
     1.0000  -0.0000  -0.0000  -0.0000  -0.0000  -0.0000

          k =-0.1473 0.5009-0.0884 (   438 PWs)   bands (ev):

     1.8072   9.5943  11.9476  13.9405  16.9776  21.3776

     occupation numbers 
     1.0000  -0.0000  -0.0000  -0.0000  -0.0000  -0.0000

          k = 0.5009-0.1473 0.5598 (   440 PWs)   bands (ev):

     3.4916   7.0690  10.8069  14.1486  17.3256  23.9773

     occupation numbers 
     1.0000   1.0000  -0.0000  -0.0000  -0.0000  -0.0000

          k = 0.4419-0.0884 0.5009 (   438 PWs)   bands (ev):

     4.7971   5.5255  10.0334  14.7028  17.9530  25.8777

     occupation numbers 
     1.0000   1.0000  -0.0000  -0.0000  -0.0000  -0.0000

          k = 0.3830-0.0295 0.4419 (   436 PWs)   bands (ev):

     2.9012   7.6860   9.7557  15.5920  18.8954  25.4345

     occupation numbers 
     1.0000   1.0354  -0.0000  -0.0000  -0.0000  -0.0000

          k = 0.3241 0.0295 0.3830 (   433 PWs)   bands (ev):

     1.3233   8.9683  11.0400  16.8085  20.1388  23.9817

     occupation numbers 
     1.0000  -0.0000  -0.0000  -0.0000  -0.0000  -0.0000

          k = 0.2652 0.0884 0.3241 (   441 PWs)   bands (ev):

     0.0965   9.3875  13.8127  18.3398  21.4981  21.8181

     occupation numbers 
     1.0000  -0.0000  -0.0000  -0.0000  -0.0000  -0.0000

          k = 0.2062 0.1473 0.2652 (   442 PWs)   bands (ev):

    -0.7687  10.0065  16.8531  19.6969  20.1548  22.9979

     occupation numbers 
     1.0000  -0.0000  -0.0000  -0.0000  -0.0000  -0.0000

          k =-0.0295 0.5009 0.0295 (   443 PWs)   bands (ev):

     1.3195  11.4642  13.0469  14.2497  14.9562  18.0329

     occupation numbers 
     1.0000  -0.0000  -0.0000  -0.0000  -0.0000  -0.0000

          k =-0.0884 0.5598-0.0295 (   443 PWs)   bands (ev):

     2.5277   9.8355  11.5137  13.3361  15.8625  18.6442

     occupation numbers 
     1.0000  -0.0000  -0.0000  -0.0000  -0.0000  -0.0000

          k = 0.5598-0.0884 0.6187 (   441 PWs)   bands (ev):

     4.0643   8.5115   9.1122  13.3769  16.4027  20.8666

     occupation numbers 
     1.0000  -0.0131  -0.0000  -0.0000  -0.0000  -0.0000

          k = 0.5009-0.0295 0.5598 (   436 PWs)   bands (ev):

     5.8032   6.6778   7.8849  13.8128  16.9847  23.7050

     occupation numbers 
     1.0000   1.0000   0.8522  -0.0000  -0.0000  -0.0000

          k = 0.4419 0.0295 0.5009 (   439 PWs)   bands (ev):

     4.6931   6.6373   8.6911  14.5916  17.8423  26.5825

     occupation numbers 
     1.0000   1.0000  -0.0012  -0.0000  -0.0000  -0.0000

          k = 0.3830 0.0884 0.4419 (   438 PWs)   bands (ev):

     3.0216   6.5712  11.0829  15.7021  18.9993  24.3354

     occupation numbers 
     1.0000   1.0000  -0.0000  -0.0000  -0.0000  -0.0000

          k = 0.3241 0.1473 0.3830 (   437 PWs)   bands (ev):

     1.6895   6.7259  13.8950  17.1331  20.3943  21.8694

     occupation numbers 
     1.0000   1.0000  -0.0000  -0.0000  -0.0000  -0.0000

          k = 0.2652 0.2062 0.3241 (   437 PWs)   bands (ev):

     0.7116   7.2101  16.8609  18.8536  19.7341  21.7350

     occupation numbers 
     1.0000   1.0001  -0.0000  -0.0000  -0.0000  -0.0000

          k =-0.0295 0.6187 0.0295 (   451 PWs)   bands (ev):

     3.5867   8.1111  12.4629  13.7143  14.3754  17.4760

     occupation numbers 
     1.0000   0.2143  -0.0000  -0.0000  -0.0000  -0.0000

          k = 0.6187-0.0295 0.6776 (   448 PWs)   bands (ev):

     4.8750   6.8416  11.1606  13.0008  15.5168  18.3170

     occupation numbers 
     1.0000   1.0000  -0.0000  -0.0000  -0.0000  -0.0000

          k = 0.5598 0.0295 0.6187 (   438 PWs)   bands (ev):

     5.2256   7.1879   8.9408  13.2647  16.2869  20.7629

     occupation numbers 
     1.0000   1.0001  -0.0000  -0.0000  -0.0000  -0.0000

          k = 0.5009 0.0884 0.5598 (   439 PWs)   bands (ev):

     4.6569   6.8272   9.2163  13.9247  17.0988  23.7973

     occupation numbers 
     1.0000   1.0000  -0.0000  -0.0000  -0.0000  -0.0000

          k = 0.4419 0.1473 0.5009 (   439 PWs)   bands (ev):

     4.3143   5.0894  11.6184  14.9252  18.1712  24.8697

     occupation numbers 
     1.0000   1.0000  -0.0000  -0.0000  -0.0000  -0.0000

          k = 0.3830 0.2062 0.4419 (   441 PWs)   bands (ev):

     3.6110   4.3713  14.3360  16.2512  19.4878  22.3151

     occupation numbers 
     1.0000   1.0000  -0.0000  -0.0000  -0.0000  -0.0000

          k = 0.3241 0.2652 0.3830 (   439 PWs)   bands (ev):

     2.5390   4.7208  17.1919  17.8716  20.0750  20.7656

     occupation numbers 
     1.0000   1.0000  -0.0000  -0.0000  -0.0000  -0.0000

          k =-0.0295-0.6776 0.0295 (   445 PWs)   bands (ev):

     4.7580   6.7219  12.3461  13.6073  14.2593  17.3629

     occupation numbers 
     1.0000   1.0000  -0.0000  -0.0000  -0.0000  -0.0000

          k =-0.0884-0.6187-0.0295 (   447 PWs)   bands (ev):

     3.7063   8.2266  11.2779  13.1125  15.6322  18.4264

     occupation numbers 
     1.0000   0.0132  -0.0000  -0.0000  -0.0000  -0.0000

          k =-0.1473-0.5598-0.0884 (   439 PWs)   bands (ev):

     2.8901   9.2196  10.2448  13.6016  16.6336  21.0729

     occupation numbers 
     1.0000  -0.0000  -0.0000  -0.0000  -0.0000  -0.0000

          k =-0.2062-0.5009-0.1473 (   437 PWs)   bands (ev):

     2.4145   7.4254  12.5222  14.4859  17.6617  24.2299

     occupation numbers 
     1.0000   1.0047  -0.0000  -0.0000  -0.0000  -0.0000

          k =-0.2652-0.4419-0.2062 (   437 PWs)   bands (ev):

     2.2962   5.9065  15.1017  15.7189  18.8970  23.0681

     occupation numbers 
     1.0000   1.0000  -0.0000  -0.0000  -0.0000  -0.0000

          k =-0.0295-0.5598 0.0295 (   446 PWs)   bands (ev):

     2.4067   9.7263  12.6964  13.9284  14.6077  17.7011

     occupation numbers 
     1.0000  -0.0000  -0.0000  -0.0000  -0.0000  -0.0000

          k =-0.0884-0.5009-0.0295 (   439 PWs)   bands (ev):

     1.4416  11.5353  11.8947  13.6734  16.2074  18.9655

     occupation numbers 
     1.0000  -0.0000  -0.0000  -0.0000  -0.0000  -0.0000

          k =-0.1473-0.4419-0.0884 (   445 PWs)   bands (ev):

     0.8327  10.0669  13.7457  14.4143  17.4303  21.7744

     occupation numbers 
     1.0000  -0.0000  -0.0000  -0.0000  -0.0000  -0.0000

          k =-0.2062-0.3830-0.1473 (   439 PWs)   bands (ev):

     0.5883   8.4869  15.4340  16.2883  18.6234  24.0723

     occupation numbers 
     1.0000  -0.0167  -0.0000  -0.0000  -0.0000  -0.0000

          k =-0.0295-0.4419 0.0295 (   439 PWs)   bands (ev):

     0.3415  13.2849  13.5343  14.6783  15.4206  18.4641

     occupation numbers 
     1.0000  -0.0000  -0.0000  -0.0000  -0.0000  -0.0000

          k =-0.0884-0.3830-0.0295 (   441 PWs)   bands (ev):

    -0.3976  12.8900  14.6058  15.4195  17.2346  19.8904

     occupation numbers 
     1.0000  -0.0000  -0.0000  -0.0000  -0.0000  -0.0000

          k =-0.1473-0.3241-0.0884 (   443 PWs)   bands (ev):

    -0.7688  11.3483  15.5617  17.7235  18.6291  22.8017

     occupation numbers 
     1.0000  -0.0000  -0.0000  -0.0000  -0.0000  -0.0000

          k =-0.0295-0.3241 0.0295 (   442 PWs)   bands (ev):

    -1.2656  14.7684  15.8563  16.6720  17.3028  19.5789

     occupation numbers 
     1.0000  -0.0000  -0.0000  -0.0000  -0.0000  -0.0000

          k =-0.0884-0.2652-0.0295 (   440 PWs)   bands (ev):

    -1.7640  14.3858  16.0480  18.6721  19.4918  21.1145

     occupation numbers 
     1.0000  -0.0000  -0.0000  -0.0000  -0.0000  -0.0000

          k =-0.0295-0.2062 0.0295 (   447 PWs)   bands (ev):

    -2.3895  16.4656  17.4557  18.3636  20.8665  21.5704

     occupation numbers 
     1.0000  -0.0000  -0.0000  -0.0000  -0.0000  -0.0000

          k =-0.0884 0.0884 0.0884 (   432 PWs)   bands (ev):

    -2.7662  16.2912  19.6540  19.6540  22.6978  23.6316

     occupation numbers 
     1.0000  -0.0000  -0.0000  -0.0000  -0.0000  -0.0000

          k =-0.1473 0.1473 0.0295 (   445 PWs)   bands (ev):

    -2.3895  15.1916  16.9072  21.1110  22.6077  23.5005

     occupation numbers 
     1.0000  -0.0000  -0.0000  -0.0000  -0.0000  -0.0000

          k =-0.2062 0.2062-0.0295 (   449 PWs)   bands (ev):

    -1.6392  13.1394  15.0507  21.2659  21.8723  23.2790

     occupation numbers 
     1.0000  -0.0000  -0.0000  -0.0000  -0.0000  -0.0000

          k =-0.2652 0.2652-0.0884 (   437 PWs)   bands (ev):

    -0.5210  10.2027  14.5883  19.7492  21.7012  21.7029

     occupation numbers 
     1.0000  -0.0000  -0.0000  -0.0000  -0.0000  -0.0000

          k =-0.3241 0.3241-0.1473 (   437 PWs)   bands (ev):

     0.9567   7.4345  14.5643  18.4712  20.3671  21.7324

     occupation numbers 
     1.0000   1.0053  -0.0000  -0.0000  -0.0000  -0.0000

          k = 0.3241-0.3241 0.5009 (   445 PWs)   bands (ev):

     2.7803   4.9567  14.8956  17.4998  19.3336  22.0639

     occupation numbers 
     1.0000   1.0000  -0.0000  -0.0000  -0.0000  -0.0000

          k = 0.2652-0.2652 0.4419 (   441 PWs)   bands (ev):

     2.7795   4.9589  15.5690  16.8485  18.6251  22.7053

     occupation numbers 
     1.0000   1.0000  -0.0000  -0.0000  -0.0000  -0.0000

          k = 0.2062-0.2062 0.3830 (   434 PWs)   bands (ev):

     0.9564   7.4414  16.5191  16.5752  18.2506  23.6476

     occupation numbers 
     1.0000   1.0057  -0.0000  -0.0000  -0.0000  -0.0000

          k = 0.1473-0.1473 0.3241 (   439 PWs)   bands (ev):

    -0.5210  10.2271  16.5112  17.8671  18.2333  24.0977

     occupation numbers 
     1.0000  -0.0000  -0.0000  -0.0000  -0.0000  -0.0000

          k = 0.0884-0.0884 0.2652 (   447 PWs)   bands (ev):

    -1.6392  13.2729  16.8237  18.3404  19.5867  22.1288

     occupation numbers 
     1.0000  -0.0000  -0.0000  -0.0000  -0.0000  -0.0000

          k =-0.0884 0.2062 0.0884 (   452 PWs)   bands (ev):

    -2.1390  14.1838  17.6764  19.1183  21.5991  22.8578

     occupation numbers 
     1.0000  -0.0000  -0.0000  -0.0000  -0.0000  -0.0000

          k =-0.1473 0.2652 0.0295 (   445 PWs)   bands (ev):

    -1.5145  13.2518  15.1214  19.6652  20.1680  22.3175

     occupation numbers 
     1.0000  -0.0000  -0.0000  -0.0000  -0.0000  -0.0000

          k =-0.2062 0.3241-0.0295 (   437 PWs)   bands (ev):

    -0.5210  11.4073  13.4059  17.9245  21.0805  22.9236

     occupation numbers 
     1.0000  -0.0000  -0.0000  -0.0000  -0.0000  -0.0000

          k =-0.2652 0.3830-0.0884 (   439 PWs)   bands (ev):

     0.8338   8.6855  13.1329  16.4827  21.2068  22.1780

     occupation numbers 
     1.0000  -0.0013  -0.0000  -0.0000  -0.0000  -0.0000

          k = 0.3830-0.2652 0.5598 (   436 PWs)   bands (ev):

     2.5385   6.1337  13.3208  15.3684  20.9836  21.6076

     occupation numbers 
     1.0000   1.0000  -0.0000  -0.0000  -0.0000  -0.0000

          k = 0.3241-0.2062 0.5009 (   438 PWs)   bands (ev):

     3.8467   4.6117  13.8423  14.6183  20.2337  22.1356

     occupation numbers 
     1.0000   1.0000  -0.0000  -0.0000  -0.0000  -0.0000

          k = 0.2652-0.1473 0.4419 (   437 PWs)   bands (ev):

     1.9319   6.9602  14.0532  14.8673  19.7523  22.9917

     occupation numbers 
     1.0000   1.0000  -0.0000  -0.0000  -0.0000  -0.0000

          k = 0.2062-0.0884 0.3830 (   436 PWs)   bands (ev):

     0.3425   9.6161  13.9980  16.0736  19.5492  23.5605

     occupation numbers 
     1.0000  -0.0000  -0.0000  -0.0000  -0.0000  -0.0000

          k = 0.1473-0.0295 0.3241 (   442 PWs)   bands (ev):

    -0.8928  12.4445  14.3504  17.6312  19.4457  21.7253

     occupation numbers 
     1.0000  -0.0000  -0.0000  -0.0000  -0.0000  -0.0000

          k =-0.0884 0.3241 0.0884 (   442 PWs)   bands (ev):

    -1.0170  12.4687  16.0746  17.4011  17.7129  21.4860

     occupation numbers 
     1.0000  -0.0000  -0.0000  -0.0000  -0.0000  -0.0000

          k =-0.1473 0.3830 0.0295 (   441 PWs)   bands (ev):

    -0.1505  11.7495  13.6709  15.6420  18.7939  21.1768

     occupation numbers 
     1.0000  -0.0000  -0.0000  -0.0000  -0.0000  -0.0000

          k =-0.2062 0.4419-0.0295 (   438 PWs)   bands (ev):

     1.0777  10.1284  12.1339  14.0729  19.9359  22.1415

     occupation numbers 
     1.0000  -0.0000  -0.0000  -0.0000  -0.0000  -0.0000

          k = 0.4419-0.2062 0.6187 (   437 PWs)   bands (ev):

     2.6566   7.6270  12.0262  12.8760  20.3476  23.5777

     occupation numbers 
     1.0000   1.0312  -0.0000  -0.0000  -0.0000  -0.0000

          k = 0.3830-0.1473 0.5598 (   436 PWs)   bands (ev):

     4.5519   5.3191  11.7730  12.6445  20.8658  22.8487

     occupation numbers 
     1.0000   1.0000  -0.0000  -0.0000  -0.0000  -0.0000

          k = 0.3241-0.0884 0.5009 (   432 PWs)   bands (ev):

     3.2598   6.8060  11.2908  13.3793  21.6097  22.2992

     occupation numbers 
     1.0000   1.0000  -0.0000  -0.0000  -0.0000  -0.0000

          k = 0.2652-0.0295 0.4419 (   435 PWs)   bands (ev):

     1.5664   9.1999  11.2523  14.5035  21.7177  22.6715

     occupation numbers 
     1.0000  -0.0000  -0.0000  -0.0000  -0.0000  -0.0000

          k = 0.2062 0.0295 0.3830 (   437 PWs)   bands (ev):

     0.2194  10.7106  12.7232  15.9646  20.4721  22.5539

     occupation numbers 
     1.0000  -0.0000  -0.0000  -0.0000  -0.0000  -0.0000

          k =-0.0884 0.4419 0.0884 (   441 PWs)   bands (ev):

     0.5873  11.1906  13.5570  14.8951  16.3645  20.4084

     occupation numbers 
     1.0000  -0.0000  -0.0000  -0.0000  -0.0000  -0.0000

          k =-0.1473 0.5009 0.0295 (   440 PWs)   bands (ev):

     1.6854  10.6947  11.7699  12.7751  17.7870  20.2940

     occupation numbers 
     1.0000  -0.0000  -0.0000  -0.0000  -0.0000  -0.0000

          k = 0.5009-0.1473 0.6776 (   438 PWs)   bands (ev):

     3.1313   9.3023  10.3712  11.4854  19.1621  21.4918

     occupation numbers 
     1.0000  -0.0000  -0.0000  -0.0000  -0.0000  -0.0000

          k = 0.4419-0.0884 0.6187 (   437 PWs)   bands (ev):

     4.8943   7.0316   9.4244  11.5982  19.8166  23.9683

     occupation numbers 
     1.0000   1.0000  -0.0000  -0.0000  -0.0000  -0.0000

          k = 0.3830-0.0295 0.5598 (   436 PWs)   bands (ev):

     4.9227   6.8701   8.9146  12.2397  20.5680  24.8800

     occupation numbers 
     1.0000   1.0000  -0.0000  -0.0000  -0.0000  -0.0000

          k = 0.3241 0.0295 0.5009 (   434 PWs)   bands (ev):

     3.1396   7.9184   9.9753  13.2580  21.5635  23.2282

     occupation numbers 
     1.0000   0.7738  -0.0000  -0.0000  -0.0000  -0.0000

          k = 0.2652 0.0884 0.4419 (   436 PWs)   bands (ev):

     1.6884   8.0983  12.5507  14.6199  20.7521  22.8460

     occupation numbers 
     1.0000   0.2468  -0.0000  -0.0000  -0.0000  -0.0000

          k =-0.0884 0.5598 0.0884 (   443 PWs)   bands (ev):

     2.6486   9.8997  10.4607  14.1445  15.5348  19.6812

     occupation numbers 
     1.0000  -0.0000  -0.0000  -0.0000  -0.0000  -0.0000

          k = 0.5598-0.0884 0.7366 (   441 PWs)   bands (ev):

     3.9452   8.4536  10.1383  12.1541  17.2191  19.7771

     occupation numbers 
     1.0000  -0.0221  -0.0000  -0.0000  -0.0000  -0.0000

          k = 0.5009-0.0295 0.6776 (   439 PWs)   bands (ev):

     5.4594   7.4261   8.9834  11.0736  18.8252  21.1966

     occupation numbers 
     1.0000   1.0047  -0.0000  -0.0000  -0.0000  -0.0000

          k = 0.4419 0.0295 0.6187 (   438 PWs)   bands (ev):

     6.0368   6.8865   8.1036  11.4718  19.7081  23.9076

     occupation numbers 
     1.0000   1.0000   0.2332  -0.0000  -0.0000  -0.0000

          k = 0.3830 0.0884 0.5598 (   433 PWs)   bands (ev):

     5.0263   5.7616  10.2435  12.3640  20.6697  23.8657

     occupation numbers 
     1.0000   1.0000  -0.0000  -0.0000  -0.0000  -0.0000

          k = 0.3241 0.1473 0.5009 (   439 PWs)   bands (ev):

     3.4988   5.6606  12.8112  13.6473  21.1251  21.9389

     occupation numbers 
     1.0000   1.0000  -0.0000  -0.0000  -0.0000  -0.0000

          k =-0.0884-0.7366 0.0884 (   445 PWs)   bands (ev):

     4.9920   6.9592  10.0559  13.8230  15.1749  19.3610

     occupation numbers 
     1.0000   1.0000  -0.0000  -0.0000  -0.0000  -0.0000

          k =-0.1473-0.6776 0.0295 (   444 PWs)   bands (ev):

     5.1089   7.0788  10.0183  12.0370  17.1047  19.6718

     occupation numbers 
     1.0000   1.0000  -0.0000  -0.0000  -0.0000  -0.0000

          k =-0.2062-0.6187-0.0295 (   438 PWs)   bands (ev):

     4.3027   8.7481   9.1405  11.2010  18.9378  21.2959

     occupation numbers 
     1.0000  -0.0004  -0.0000  -0.0000  -0.0000  -0.0000

          k =-0.2652-0.5598-0.0884 (   439 PWs)   bands (ev):

     3.7316   7.2720  10.9571  11.8852  20.0315  23.9974

     occupation numbers 
     1.0000   1.0004  -0.0000  -0.0000  -0.0000  -0.0000

          k =-0.0884-0.6187 0.0884 (   445 PWs)   bands (ev):

     3.8258   8.3368  10.1787  13.9302  15.2952  19.4681

     occupation numbers 
     1.0000  -0.0353  -0.0000  -0.0000  -0.0000  -0.0000

          k =-0.1473-0.5598 0.0295 (   441 PWs)   bands (ev):

     2.7695  10.0173  10.4077  12.3916  17.4467  19.9858

     occupation numbers 
     1.0000  -0.0000  -0.0000  -0.0000  -0.0000  -0.0000

          k =-0.2062-0.5009-0.0295 (   438 PWs)   bands (ev):

     2.0504   9.6606  11.5688  12.3528  19.4962  21.7781

     occupation numbers 
     1.0000  -0.0000  -0.0000  -0.0000  -0.0000  -0.0000

          k =-0.0884-0.5009 0.0884 (   438 PWs)   bands (ev):

     1.5636  10.7072  11.7377  14.4661  15.8924  19.9967

     occupation numbers 
     1.0000  -0.0000  -0.0000  -0.0000  -0.0000  -0.0000

          k =-0.1473-0.4419 0.0295 (   441 PWs)   bands (ev):

     0.7100  11.1674  13.0379  13.7880  18.2378  20.6945

     occupation numbers 
     1.0000  -0.0000  -0.0000  -0.0000  -0.0000  -0.0000

          k =-0.0884-0.3830 0.0884 (   445 PWs)   bands (ev):

    -0.2740  11.7745  15.4313  15.4790  16.9490  20.9084

     occupation numbers 
     1.0000  -0.0000  -0.0000  -0.0000  -0.0000  -0.0000

          k =-0.1473 0.1473 0.1473 (   438 PWs)   bands (ev):

    -2.0139  12.9835  19.0711  19.0711  22.4378  23.4831

     occupation numbers 
     1.0000  -0.0000  -0.0000  -0.0000  -0.0000  -0.0000

          k =-0.2062 0.2062 0.0884 (   445 PWs)   bands (ev):

    -1.5145  12.0488  16.2944  20.7446  21.4946  23.1739

     occupation numbers 
     1.0000  -0.0000  -0.0000  -0.0000  -0.0000  -0.0000

          k =-0.2652 0.2652 0.0295 (   441 PWs)   bands (ev):

    -0.6448  11.2925  13.3108  19.6416  21.6623  22.7753

     occupation numbers 
     1.0000  -0.0000  -0.0000  -0.0000  -0.0000  -0.0000

          k =-0.3241 0.3241-0.0295 (   436 PWs)   bands (ev):

     0.5886   9.6669  11.7321  18.1452  20.1419  23.9251

     occupation numbers 
     1.0000  -0.0000  -0.0000  -0.0000  -0.0000  -0.0000

          k = 0.3241-0.3241 0.6187 (   439 PWs)   bands (ev):

     2.1757   7.1604  11.6628  16.9582  18.8764  24.1205

     occupation numbers 
     1.0000   1.0000  -0.0000  -0.0000  -0.0000  -0.0000

          k = 0.2652-0.2652 0.5598 (   440 PWs)   bands (ev):

     4.0869   4.8423  12.0829  16.0921  17.9224  24.5532

     occupation numbers 
     1.0000   1.0000  -0.0000  -0.0000  -0.0000  -0.0000

          k = 0.2062-0.2062 0.5009 (   440 PWs)   bands (ev):

     2.7773   6.3759  12.8738  15.5490  17.2997  25.2794

     occupation numbers 
     1.0000   1.0000  -0.0000  -0.0000  -0.0000  -0.0000

          k = 0.1473-0.1473 0.4419 (   437 PWs)   bands (ev):

     1.0777   8.9403  14.0113  15.3289  17.0011  23.1474

     occupation numbers 
     1.0000  -0.0000  -0.0000  -0.0000  -0.0000  -0.0000

          k =-0.1473 0.2652 0.1473 (   442 PWs)   bands (ev):

    -1.1412  11.0394  17.2624  18.8139  19.9411  24.2981

     occupation numbers 
     1.0000  -0.0000  -0.0000  -0.0000  -0.0000  -0.0000

          k =-0.2062 0.3241 0.0884 (   440 PWs)   bands (ev):

    -0.3973  10.3158  14.6749  18.0278  20.1343  23.4517

     occupation numbers 
     1.0000  -0.0000  -0.0000  -0.0000  -0.0000  -0.0000

          k =-0.2652 0.3830 0.0295 (   436 PWs)   bands (ev):

     0.7111   9.7825  11.8373  16.3739  21.9693  22.2980

     occupation numbers 
     1.0000  -0.0000  -0.0000  -0.0000  -0.0000  -0.0000

          k = 0.3830-0.2652 0.6776 (   432 PWs)   bands (ev):

     2.1749   8.3853  10.4539  15.0307  20.7589  23.6056

     occupation numbers 
     1.0000  -0.0328  -0.0000  -0.0000  -0.0000  -0.0000

          k = 0.3241-0.2062 0.6187 (   434 PWs)   bands (ev):

     3.9781   6.1007  10.6113  14.0189  19.7453  24.1180

     occupation numbers 
     1.0000   1.0000  -0.0000  -0.0000  -0.0000  -0.0000

          k = 0.2652-0.1473 0.5598 (   436 PWs)   bands (ev):

     3.9693   6.1324  11.2572  13.3552  19.0284  24.6682

     occupation numbers 
     1.0000   1.0000  -0.0000  -0.0000  -0.0000  -0.0000

          k = 0.2062-0.0884 0.5009 (   437 PWs)   bands (ev):

     2.1719   8.5591  12.2349  13.0897  18.5896  22.8803

     occupation numbers 
     1.0000  -0.0078  -0.0000  -0.0000  -0.0000  -0.0000

          k =-0.1473 0.3830 0.1473 (   439 PWs)   bands (ev):

     0.2194   9.5268  15.8663  15.9231  17.5627  23.6020

     occupation numbers 
     1.0000  -0.0000  -0.0000  -0.0000  -0.0000  -0.0000

          k =-0.2062 0.4419 0.0884 (   438 PWs)   bands (ev):

     1.2000   9.0303  13.3880  14.2131  19.0242  23.2284

     occupation numbers 
     1.0000  -0.0000  -0.0000  -0.0000  -0.0000  -0.0000

          k = 0.4419-0.2062 0.7366 (   437 PWs)   bands (ev):

     2.5356   8.7329  10.7636  12.7151  21.3054  23.0685

     occupation numbers 
     1.0000  -0.0006  -0.0000  -0.0000  -0.0000  -0.0000

          k = 0.3830-0.1473 0.6776 (   437 PWs)   bands (ev):

     4.2103   7.5677   9.5959  11.5813  22.4388  22.9572

     occupation numbers 
     1.0000   1.0215  -0.0000  -0.0000  -0.0000  -0.0000

          k = 0.3241-0.0884 0.6187 (   437 PWs)   bands (ev):

     5.4719   6.2283   9.9296  10.8759  21.6832  23.6608

     occupation numbers 
     1.0000   1.0000  -0.0000  -0.0000  -0.0000  -0.0000

          k = 0.2652-0.0295 0.5598 (   440 PWs)   bands (ev):

     3.6121   8.3807  10.2915  11.1206  20.9829  23.0079

     occupation numbers 
     1.0000  -0.0333  -0.0000  -0.0000  -0.0000  -0.0000

          k =-0.1473 0.5009 0.1473 (   438 PWs)   bands (ev):

     2.0504   8.4681  12.1854  14.8991  16.5392  22.7668

     occupation numbers 
     1.0000  -0.0196  -0.0000  -0.0000  -0.0000  -0.0000

          k = 0.5009-0.1473 0.7955 (   438 PWs)   bands (ev):

     3.2515   8.2009  10.5609  12.7029  18.2575  22.6000

     occupation numbers 
     1.0000   0.0426  -0.0000  -0.0000  -0.0000  -0.0000

          k = 0.4419-0.0884 0.7366 (   438 PWs)   bands (ev):

     4.7777   8.1381   9.2228  10.3674  20.7644  22.8730

     occupation numbers 
     1.0000   0.1514  -0.0000  -0.0000  -0.0000  -0.0000

          k = 0.3830-0.0295 0.6776 (   439 PWs)   bands (ev):

     6.5037   7.2061   8.4075   9.4905  22.5703  24.1594

     occupation numbers 
     1.0000   1.0001  -0.0297  -0.0000  -0.0000  -0.0000

          k = 0.3241 0.0295 0.6187 (   435 PWs)   bands (ev):

     5.3677   7.3327   9.2338  10.1239  22.6616  23.4643

     occupation numbers 
     1.0000   1.0012  -0.0000  -0.0000  -0.0000  -0.0000

          k =-0.1473-0.7955 0.1473 (   438 PWs)   bands (ev):

     4.3021   7.8444   8.8892  14.3621  15.9490  22.2737

     occupation numbers 
     1.0000   0.9276  -0.0000  -0.0000  -0.0000  -0.0000

          k =-0.2062-0.7366 0.0884 (   439 PWs)   bands (ev):

     5.5753   7.4473   8.0005  12.3484  17.9212  22.3092

     occupation numbers 
     1.0000   1.0062   0.5370  -0.0000  -0.0000  -0.0000

          k =-0.2652-0.6776 0.0295 (   436 PWs)   bands (ev):

     5.9256   7.7997   8.1364  10.1939  20.6544  22.7940

     occupation numbers 
     1.0000   0.9851   0.1551  -0.0000  -0.0000  -0.0000

          k =-0.1473-0.6776 0.1473 (   434 PWs)   bands (ev):

     5.4584   7.3284   7.9141  14.2548  15.8295  22.1733

     occupation numbers 
     1.0000   1.0011   0.7846  -0.0000  -0.0000  -0.0000

          k =-0.2062-0.6187 0.0884 (   440 PWs)   bands (ev):

     4.4212   7.9403   8.9932  12.4655  18.0337  22.4070

     occupation numbers 
     1.0000   0.7157  -0.0000  -0.0000  -0.0000  -0.0000

          k =-0.1473-0.5598 0.1473 (   439 PWs)   bands (ev):

     3.1311   8.1087  10.4645  14.5769  16.1866  22.4730

     occupation numbers 
     1.0000   0.2202  -0.0000  -0.0000  -0.0000  -0.0000

          k =-0.2062 0.2062 0.2062 (   432 PWs)   bands (ev):

    -0.8927   9.8991  18.7782  18.7782  22.0093  22.0093

     occupation numbers 
     1.0000  -0.0000  -0.0000  -0.0000  -0.0000  -0.0000

          k =-0.2652 0.2652 0.1473 (   441 PWs)   bands (ev):

    -0.2736   9.0769  16.0685  19.9576  20.6513  21.7234

     occupation numbers 
     1.0000  -0.0000  -0.0000  -0.0000  -0.0000  -0.0000

          k =-0.3241 0.3241 0.0884 (   436 PWs)   bands (ev):

     0.7114   8.5700  13.0317  18.2539  20.2230  22.8052

     occupation numbers 
     1.0000  -0.0068  -0.0000  -0.0000  -0.0000  -0.0000

          k = 0.3241-0.3241 0.7366 (   435 PWs)   bands (ev):

     2.0542   8.2692  10.3438  16.8500  18.7759  25.2776

     occupation numbers 
     1.0000  -0.0183  -0.0000  -0.0000  -0.0000  -0.0000

          k = 0.2652-0.2652 0.6776 (   439 PWs)   bands (ev):

     3.7423   7.1029   9.1664  15.7683  17.5943  26.8057

     occupation numbers 
     1.0000   1.0000  -0.0000  -0.0000  -0.0000  -0.0000

          k = 0.2062-0.2062 0.6187 (   441 PWs)   bands (ev):

     4.9990   5.7948   9.5666  15.0107  16.7297  25.2747

     occupation numbers 
     1.0000   1.0000  -0.0000  -0.0000  -0.0000  -0.0000

          k =-0.2062 0.3241 0.2062 (   439 PWs)   bands (ev):

     0.2198   8.1483  17.1658  18.4895  18.7927  22.9915

     occupation numbers 
     1.0000   0.1300  -0.0000  -0.0000  -0.0000  -0.0000

          k =-0.2652 0.3830 0.1473 (   437 PWs)   bands (ev):

     1.0788   7.5509  14.6507  16.6988  20.2150  22.2817

     occupation numbers 
     1.0000   1.0187  -0.0000  -0.0000  -0.0000  -0.0000

          k = 0.3830-0.2652 0.7955 (   431 PWs)   bands (ev):

     2.2963   7.2775  11.7692  15.1431  20.8464  22.6017

     occupation numbers 
     1.0000   1.0005  -0.0000  -0.0000  -0.0000  -0.0000

          k = 0.3241-0.2062 0.7366 (   435 PWs)   bands (ev):

     3.8601   7.2194   9.2792  13.9042  19.6418  25.1625

     occupation numbers 
     1.0000   1.0001  -0.0000  -0.0000  -0.0000  -0.0000

          k = 0.2652-0.1473 0.6776 (   442 PWs)   bands (ev):

     5.7353   6.2982   8.3341  13.0039  18.7025  25.2418

     occupation numbers 
     1.0000   1.0000  -0.0352  -0.0000  -0.0000  -0.0000

          k =-0.2062 0.4419 0.2062 (   439 PWs)   bands (ev):

     1.8102   6.8499  14.6866  15.9800  17.7372  24.4103

     occupation numbers 
     1.0000   1.0000  -0.0000  -0.0000  -0.0000  -0.0000

          k = 0.4419-0.2062 0.8544 (   439 PWs)   bands (ev):

     2.8981   6.4867  12.9283  13.7357  19.3459  23.8111

     occupation numbers 
     1.0000   1.0000  -0.0000  -0.0000  -0.0000  -0.0000

          k = 0.3830-0.1473 0.7955 (   438 PWs)   bands (ev):

     4.3278   6.4532  10.8669  11.7538  21.8489  22.6967

     occupation numbers 
     1.0000   1.0000  -0.0000  -0.0000  -0.0000  -0.0000

          k = 0.3241-0.0884 0.7366 (   438 PWs)   bands (ev):

     6.0614   6.6449   8.6515  10.6981  21.5867  24.6337

     occupation numbers 
     1.0000   1.0000  -0.0022  -0.0000  -0.0000  -0.0000

          k =-0.2062-0.8544 0.2062 (   439 PWs)   bands (ev):

     3.8496   6.0212  11.1582  15.2259  16.9603  25.4234

     occupation numbers 
     1.0000   1.0000  -0.0000  -0.0000  -0.0000  -0.0000

          k =-0.2652-0.7955 0.1473 (   437 PWs)   bands (ev):

     5.1173   5.9064   9.6760  13.1201  18.8120  25.1955

     occupation numbers 
     1.0000   1.0000  -0.0000  -0.0000  -0.0000  -0.0000

          k =-0.2062-0.7366 0.2062 (   440 PWs)   bands (ev):

     5.6231   6.1820   8.2202  14.9031  16.6132  25.1960

     occupation numbers 
     1.0000   1.0000   0.0198  -0.0000  -0.0000  -0.0000

          k =-0.2652 0.2652 0.2652 (   431 PWs)   bands (ev):

     0.5889   7.0953  18.7949  18.7949  20.7444  20.7444

     occupation numbers 
     1.0000   1.0000  -0.0000  -0.0000  -0.0000  -0.0000

          k =-0.3241 0.3241 0.2062 (   439 PWs)   bands (ev):

     1.3238   6.3827  16.1819  18.7971  20.5132  20.7581

     occupation numbers 
     1.0000   1.0000  -0.0000  -0.0000  -0.0000  -0.0000

          k = 0.3241-0.3241 0.8544 (   439 PWs)   bands (ev):

     2.4182   6.0155  13.2243  17.1749  19.0697  23.0415

     occupation numbers 
     1.0000   1.0000  -0.0000  -0.0000  -0.0000  -0.0000

          k = 0.2652-0.2652 0.7955 (   438 PWs)   bands (ev):

     3.8606   5.9827  10.5027  15.8762  17.7051  25.6323

     occupation numbers 
     1.0000   1.0000  -0.0000  -0.0000  -0.0000  -0.0000

          k =-0.2652 0.3830 0.2652 (   438 PWs)   bands (ev):

     1.9331   5.5539  17.3894  17.4064  19.0275  21.9423

     occupation numbers 
     1.0000   1.0000  -0.0000  -0.0000  -0.0000  -0.0000

          k = 0.3830-0.2652 0.9133 (   439 PWs)   bands (ev):

     2.9002   5.0759  14.9574  15.7168  20.5614  21.3219

     occupation numbers 
     1.0000   1.0000  -0.0000  -0.0000  -0.0000  -0.0000

          k = 0.3241-0.2062 0.8544 (   437 PWs)   bands (ev):

     4.2038   4.9619  12.1818  14.2501  19.9471  23.0811

     occupation numbers 
     1.0000   1.0000  -0.0000  -0.0000  -0.0000  -0.0000

          k =-0.2652-0.9133 0.2652 (   443 PWs)   bands (ev):

     3.7275   4.4937  13.7825  16.4161  18.2366  23.5763

     occupation numbers 
     1.0000   1.0000  -0.0000  -0.0000  -0.0000  -0.0000

          k =-0.3241 0.3241 0.3241 (   434 PWs)   bands (ev):

     2.4183   4.6019  19.1272  19.1272  19.7798  19.7798

     occupation numbers 
     1.0000   1.0000  -0.0000  -0.0000  -0.0000  -0.0000

          k = 0.3241-0.3241 0.9723 (   439 PWs)   bands (ev):

     3.2534   4.0125  16.6293  17.9339  19.6087  21.1941

     occupation numbers 
     1.0000   1.0000  -0.0000  -0.0000  -0.0000  -0.0000

     the Fermi energy is     8.0124 ev

!    total energy              =     -39.50178433 Ry
     total all-electron energy =       -39.501784 Ry
     estimated scf accuracy    <          1.3E-17 Ry
     smearing contrib. (-TS)   =      -0.00008841 Ry
     internal energy E=F+TS    =     -39.50169593 Ry

     The total energy is F=E-TS. E is the sum of the following terms:
     one-electron contribution =       3.16255920 Ry
     hartree contribution      =       0.00827627 Ry
     xc contribution           =      -2.10402009 Ry
     ewald contribution        =      -5.40785601 Ry
     one-center paw contrib.   =     -35.16065531 Ry
      -> PAW hartree energy AE =       0.30754331 Ry
      -> PAW hartree energy PS =      -0.29821600 Ry
      -> PAW xc energy AE      =     -36.02482949 Ry
      -> PAW xc energy PS      =       0.85484687 Ry
      -> total E_H with PAW    =       0.01760359 Ry
      -> total E_XC with PAW   =     -37.27400271 Ry

     convergence has been achieved in  10 iterations

     negative rho (up, down):  7.343E-04 0.000E+00

     Forces acting on atoms (cartesian axes, Ry/au):

     atom    1 type  1   force =     0.00000000    0.00000000    0.00000000
     The non-local contrib.  to forces
     atom    1 type  1   force =    -0.00000000   -0.00000000   -0.00000000
     The ionic contribution  to forces
     atom    1 type  1   force =     0.00000000    0.00000000    0.00000000
     The local contribution  to forces
     atom    1 type  1   force =    -0.00000000    0.00000000   -0.00000000
     The core correction contribution to forces
     atom    1 type  1   force =    -0.00000000   -0.00000000   -0.00000000
     The Hubbard contrib.    to forces
     atom    1 type  1   force =     0.00000000    0.00000000    0.00000000
     The SCF correction term to forces
     atom    1 type  1   force =    -0.00000000    0.00000000    0.00000000

     Total force =     0.000000     Total SCF correction =     0.000000


     Computing stress (Cartesian axis) and pressure


     negative rho (up, down):  7.343E-04 0.000E+00
          total   stress  (Ry/bohr**3)                   (kbar)     P=        0.18
   0.00000124   0.00000000  -0.00000000            0.18        0.00       -0.00
   0.00000000   0.00000124  -0.00000000            0.00        0.18       -0.00
  -0.00000000   0.00000000   0.00000124           -0.00        0.00        0.18

     kinetic stress (kbar)   1464.87      0.00      0.00
                               -0.00   1464.87      0.00
                                0.00      0.00   1464.87

     local   stress (kbar)    -46.98      0.00      0.00
                                0.00    -46.98     -0.00
                                0.00     -0.00    -46.98

     nonloc. stress (kbar)   1752.03     -0.00     -0.00
                               -0.00   1752.03     -0.00
                                0.00     -0.00   1752.03

     hartree stress (kbar)      3.65      0.00      0.00
                                0.00      3.65      0.00
                                0.00      0.00      3.65

     exc-cor stress (kbar)    -86.40      0.00      0.00
                                0.00    -86.40     -0.00
                                0.00     -0.00    -86.40

     corecor stress (kbar)   -699.40     -0.00     -0.00
                               -0.00   -699.40      0.00
                               -0.00      0.00   -699.40

     ewald   stress (kbar)  -2387.59     -0.00     -0.00
                               -0.00  -2387.59     -0.00
                               -0.00     -0.00  -2387.59

     hubbard stress (kbar)      0.00      0.00      0.00
                                0.00      0.00      0.00
                                0.00      0.00      0.00

     DFT-D   stress (kbar)      0.00      0.00      0.00
                                0.00      0.00      0.00
                                0.00      0.00      0.00

     XDM     stress (kbar)      0.00      0.00      0.00
                                0.00      0.00      0.00
                                0.00      0.00      0.00

     dft-nl  stress (kbar)      0.00      0.00      0.00
                                0.00      0.00      0.00
                                0.00      0.00      0.00

     TS-vdW  stress (kbar)      0.00      0.00      0.00
                                0.00      0.00      0.00
                                0.00      0.00      0.00

     MDB     stress (kbar)      0.00      0.00      0.00
                                0.00      0.00      0.00
                                0.00      0.00      0.00

     3D-RISM stress (kbar)      0.00      0.00      0.00
                                0.00      0.00      0.00
                                0.00      0.00      0.00


     BFGS Geometry Optimization
     Energy error            =      1.3E-08 Ry
     Gradient error          =      0.0E+00 Ry/Bohr
     Cell gradient error     =      1.8E-01 kbar

     number of scf cycles    =   1
     number of bfgs steps    =   0

     enthalpy           new  =     -39.5017843341 Ry

     new trust radius        =       0.0000652157 bohr
     new conv_thr            =            1.0E-16 Ry

     new unit-cell volume =    111.07372 a.u.^3 (    16.45943 Ang^3 )
     density =      2.72208 g/cm^3

CELL_PARAMETERS (angstrom)
  -2.018962467  -0.000000000   2.018962467
  -0.000000000   2.018962467   2.018962467
  -2.018962467   2.018962467   0.000000000

ATOMIC_POSITIONS (angstrom)
Al               0.0000000000        0.0000000000        0.0000000000



     Writing config-only to output data dir ./tmp/al.save/ :
     XML data file
     NEW-OLD atomic charge density approx. for the potential
     New effective cutoffs (rho, wfc):   78.65   37.99

     negative rho (up, down):  7.346E-04 0.000E+00

     total cpu time spent up to now is        0.9 secs

     per-process dynamical memory:    35.1 Mb

     Self-consistent Calculation

     iteration #  1     ecut=    38.00 Ry     beta= 0.70
     Davidson diagonalization with overlap

---- Real-time Memory Report at c_bands before calling an iterative solver
           112 MiB given to the printing process from OS
            34 MiB allocation reported by mallinfo(arena+hblkhd)
         97523 MiB available memory on the node where the printing process lives
------------------
     ethr =  1.00E-06,  avg # of iterations =  1.1

     Threshold (ethr) on eigenvalues was too large:
     Diagonalizing with lowered threshold

     Davidson diagonalization with overlap

---- Real-time Memory Report at c_bands before calling an iterative solver
           112 MiB given to the printing process from OS
            34 MiB allocation reported by mallinfo(arena+hblkhd)
         97523 MiB available memory on the node where the printing process lives
------------------
     ethr =  7.09E-14,  avg # of iterations =  3.2

     negative rho (up, down):  7.345E-04 0.000E+00

     total cpu time spent up to now is        1.0 secs

     total energy              =     -39.50178434 Ry
     estimated scf accuracy    <          2.4E-12 Ry

     iteration #  2     ecut=    38.00 Ry     beta= 0.70
     Davidson diagonalization with overlap

---- Real-time Memory Report at c_bands before calling an iterative solver
           112 MiB given to the printing process from OS
            34 MiB allocation reported by mallinfo(arena+hblkhd)
         97523 MiB available memory on the node where the printing process lives
------------------
     ethr =  1.00E-13,  avg # of iterations =  2.0

     negative rho (up, down):  7.344E-04 0.000E+00

     total cpu time spent up to now is        1.0 secs

     total energy              =     -39.50178434 Ry
     estimated scf accuracy    <          5.3E-13 Ry

     iteration #  3     ecut=    38.00 Ry     beta= 0.70
     Davidson diagonalization with overlap

---- Real-time Memory Report at c_bands before calling an iterative solver
           112 MiB given to the printing process from OS
            34 MiB allocation reported by mallinfo(arena+hblkhd)
         97523 MiB available memory on the node where the printing process lives
------------------
     ethr =  1.00E-13,  avg # of iterations =  1.0

     negative rho (up, down):  7.344E-04 0.000E+00

     total cpu time spent up to now is        1.0 secs

     total energy              =     -39.50178434 Ry
     estimated scf accuracy    <          5.7E-14 Ry

     iteration #  4     ecut=    38.00 Ry     beta= 0.70
     Davidson diagonalization with overlap

---- Real-time Memory Report at c_bands before calling an iterative solver
           112 MiB given to the printing process from OS
            34 MiB allocation reported by mallinfo(arena+hblkhd)
         97523 MiB available memory on the node where the printing process lives
------------------
     ethr =  1.00E-13,  avg # of iterations =  1.0

     negative rho (up, down):  7.344E-04 0.000E+00

     total cpu time spent up to now is        1.1 secs

     End of self-consistent calculation

          k =-0.0295 0.0295 0.0295 (   441 PWs)   bands (ev):

    -3.1441  19.5976  20.4035  20.4035  22.3536  22.3538

     occupation numbers 
     1.0000  -0.0000  -0.0000  -0.0000  -0.0000  -0.0000

          k =-0.0884 0.0884-0.0295 (   437 PWs)   bands (ev):

    -2.8923  17.4020  18.7952  20.6405  22.5102  23.0164

     occupation numbers 
     1.0000  -0.0000  -0.0000  -0.0000  -0.0000  -0.0000

          k =-0.1473 0.1473-0.0884 (   447 PWs)   bands (ev):

    -2.2646  14.0899  18.0660  20.1009  22.8653  23.1477

     occupation numbers 
     1.0000  -0.0000  -0.0000  -0.0000  -0.0000  -0.0000

          k =-0.2062 0.2062-0.1473 (   443 PWs)   bands (ev):

    -1.2659  10.9310  17.6537  19.7304  21.6833  22.6446

     occupation numbers 
     1.0000  -0.0000  -0.0000  -0.0000  -0.0000  -0.0000

          k =-0.2652 0.2652-0.2062 (   437 PWs)   bands (ev):

     0.0962   8.0333  17.5592  19.6474  20.3165  21.5450

     occupation numbers 
     1.0000   0.4321  -0.0000  -0.0000  -0.0000  -0.0000

          k =-0.3241 0.3241-0.2652 (   433 PWs)   bands (ev):

     1.8111   5.4350  17.7870  19.2298  19.8897  20.4687

     occupation numbers 
     1.0000   1.0000  -0.0000  -0.0000  -0.0000  -0.0000

          k = 0.3241-0.3241 0.3830 (   438 PWs)   bands (ev):

     3.1333   3.8915  18.3383  18.4749  19.6984  20.4304

     occupation numbers 
     1.0000   1.0000  -0.0000  -0.0000  -0.0000  -0.0000

          k = 0.2652-0.2652 0.3241 (   432 PWs)   bands (ev):

     1.2011   6.2663  18.0370  19.2056  19.2529  21.2867

     occupation numbers 
     1.0000   1.0000  -0.0000  -0.0000  -0.0000  -0.0000

          k = 0.2062-0.2062 0.2652 (   438 PWs)   bands (ev):

    -0.3977   8.9677  17.9181  19.1124  20.3995  22.4434

     occupation numbers 
     1.0000  -0.0000  -0.0000  -0.0000  -0.0000  -0.0000

          k = 0.1473-0.1473 0.2062 (   445 PWs)   bands (ev):

    -1.6396  11.9592  18.1159  19.2871  21.8628  22.9314

     occupation numbers 
     1.0000  -0.0000  -0.0000  -0.0000  -0.0000  -0.0000

          k = 0.0884-0.0884 0.1473 (   444 PWs)   bands (ev):

    -2.5153  15.1938  18.6249  19.7267  22.9386  23.2823

     occupation numbers 
     1.0000  -0.0000  -0.0000  -0.0000  -0.0000  -0.0000

          k = 0.0295-0.0295 0.0884 (   435 PWs)   bands (ev):

    -3.0181  18.5272  19.4261  20.1642  22.0178  23.2569

     occupation numbers 
     1.0000  -0.0000  -0.0000  -0.0000  -0.0000  -0.0000

          k =-0.0295 0.1473 0.0295 (   437 PWs)   bands (ev):

    -2.7665  17.4591  18.4023  19.3050  21.4988  23.7145

     occupation numbers 
     1.0000  -0.0000  -0.0000  -0.0000  -0.0000  -0.0000

          k =-0.0884 0.2062-0.0295 (   448 PWs)   bands (ev):

    -2.2646  15.2945  16.9008  19.5066  21.4191  21.9494

     occupation numbers 
     1.0000  -0.0000  -0.0000  -0.0000  -0.0000  -0.0000

          k =-0.1473 0.2652-0.0884 (   443 PWs)   bands (ev):

    -1.3904  12.1555  16.3220  19.3115  19.7595  23.3858

     occupation numbers 
     1.0000  -0.0000  -0.0000  -0.0000  -0.0000  -0.0000

          k =-0.2062 0.3241-0.1473 (   440 PWs)   bands (ev):

    -0.1507   9.1893  16.1020  18.2249  19.1943  23.4751

     occupation numbers 
     1.0000  -0.0000  -0.0000  -0.0000  -0.0000  -0.0000

          k =-0.2652 0.3830-0.2062 (   438 PWs)   bands (ev):

     1.4451   6.4991  16.2069  17.0154  19.3492  22.3275

     occupation numbers 
     1.0000   1.0000  -0.0000  -0.0000  -0.0000  -0.0000

          k = 0.3830-0.2652 0.4419 (   442 PWs)   bands (ev):

     3.3716   4.1323  16.0811  16.6932  19.8176  21.4649

     occupation numbers 
     1.0000   1.0000  -0.0000  -0.0000  -0.0000  -0.0000

          k = 0.3241-0.2062 0.3830 (   440 PWs)   bands (ev):

     2.0539   5.6694  15.5362  17.4524  20.5692  20.9488

     occupation numbers 
     1.0000   1.0000  -0.0000  -0.0000  -0.0000  -0.0000

          k = 0.2652-0.1473 0.3241 (   436 PWs)   bands (ev):

     0.3423   8.2562  15.3168  18.5479  20.6325  21.7424

     occupation numbers 
     1.0000  -0.0114  -0.0000  -0.0000  -0.0000  -0.0000

          k = 0.2062-0.0884 0.2652 (   443 PWs)   bands (ev):

    -1.0174  11.1266  15.4428  19.9484  20.6896  23.0997

     occupation numbers 
     1.0000  -0.0000  -0.0000  -0.0000  -0.0000  -0.0000

          k = 0.1473-0.0295 0.2062 (   445 PWs)   bands (ev):

    -2.0143  14.1679  15.9790  20.8601  21.5938  22.9529

     occupation numbers 
     1.0000  -0.0000  -0.0000  -0.0000  -0.0000  -0.0000

          k = 0.0884 0.0295 0.1473 (   441 PWs)   bands (ev):

    -2.6409  16.3055  17.8343  20.3053  22.2204  23.7949

     occupation numbers 
     1.0000  -0.0000  -0.0000  -0.0000  -0.0000  -0.0000

          k =-0.0295 0.2652 0.0295 (   441 PWs)   bands (ev):

    -1.8893  15.5642  16.6028  17.4735  19.3921  20.2269

     occupation numbers 
     1.0000  -0.0000  -0.0000  -0.0000  -0.0000  -0.0000

          k =-0.0884 0.3241-0.0295 (   441 PWs)   bands (ev):

    -1.1417  13.5816  15.2843  17.4075  17.9118  20.4698

     occupation numbers 
     1.0000  -0.0000  -0.0000  -0.0000  -0.0000  -0.0000

          k =-0.1473 0.3830-0.0884 (   444 PWs)   bands (ev):

    -0.0276  10.6502  14.8832  15.7475  17.9841  22.2523

     occupation numbers 
     1.0000  -0.0000  -0.0000  -0.0000  -0.0000  -0.0000

          k =-0.2062 0.4419-0.1473 (   439 PWs)   bands (ev):

     1.4438   7.8972  14.3142  14.9535  18.0977  24.4573

     occupation numbers 
     1.0000   0.8229  -0.0000  -0.0000  -0.0000  -0.0000

          k = 0.4419-0.2062 0.5009 (   436 PWs)   bands (ev):

     3.2577   5.4315  13.3215  15.2579  18.4896  23.9186

     occupation numbers 
     1.0000   1.0000  -0.0000  -0.0000  -0.0000  -0.0000

          k = 0.3830-0.1473 0.4419 (   437 PWs)   bands (ev):

     3.2606   5.4225  12.6516  15.9205  19.2000  23.2757

     occupation numbers 
     1.0000   1.0000  -0.0000  -0.0000  -0.0000  -0.0000

          k = 0.3241-0.0884 0.3830 (   435 PWs)   bands (ev):

     1.4449   7.8650  12.3474  16.9155  20.2269  22.9157

     occupation numbers 
     1.0000   0.8902  -0.0000  -0.0000  -0.0000  -0.0000

          k = 0.2652-0.0295 0.3241 (   439 PWs)   bands (ev):

    -0.0273  10.4792  12.5233  18.2322  21.5374  22.7317

     occupation numbers 
     1.0000  -0.0000  -0.0000  -0.0000  -0.0000  -0.0000

          k = 0.2062 0.0295 0.2652 (   445 PWs)   bands (ev):

    -1.1416  12.2163  14.1832  19.8492  21.6758  22.9964

     occupation numbers 
     1.0000  -0.0000  -0.0000  -0.0000  -0.0000  -0.0000

          k = 0.1473 0.0884 0.2062 (   444 PWs)   bands (ev):

    -1.8893  13.0718  17.1704  19.9425  21.7177  23.6156

     occupation numbers 
     1.0000  -0.0000  -0.0000  -0.0000  -0.0000  -0.0000

          k =-0.0295 0.3830 0.0295 (   437 PWs)   bands (ev):

    -0.5218  14.0765  15.2126  15.2535  16.0029  18.9825

     occupation numbers 
     1.0000  -0.0000  -0.0000  -0.0000  -0.0000  -0.0000

          k =-0.0884 0.4419-0.0295 (   440 PWs)   bands (ev):

     0.4639  12.3046  13.4004  14.1422  16.6641  19.3821

     occupation numbers 
     1.0000  -0.0000  -0.0000  -0.0000  -0.0000  -0.0000

          k =-0.1473 0.5009-0.0884 (   438 PWs)   bands (ev):

     1.8066   9.5933  11.9464  13.9390  16.9761  21.3757

     occupation numbers 
     1.0000  -0.0000  -0.0000  -0.0000  -0.0000  -0.0000

          k = 0.5009-0.1473 0.5598 (   440 PWs)   bands (ev):

     3.4908   7.0681  10.8057  14.1472  17.3241  23.9753

     occupation numbers 
     1.0000   1.0000  -0.0000  -0.0000  -0.0000  -0.0000

          k = 0.4419-0.0884 0.5009 (   438 PWs)   bands (ev):

     4.7963   5.5246  10.0322  14.7014  17.9514  25.8756

     occupation numbers 
     1.0000   1.0000  -0.0000  -0.0000  -0.0000  -0.0000

          k = 0.3830-0.0295 0.4419 (   436 PWs)   bands (ev):

     2.9005   7.6851   9.7545  15.5905  18.8937  25.4326

     occupation numbers 
     1.0000   1.0354  -0.0000  -0.0000  -0.0000  -0.0000

          k = 0.3241 0.0295 0.3830 (   433 PWs)   bands (ev):

     1.3227   8.9673  11.0388  16.8069  20.1371  23.9799

     occupation numbers 
     1.0000  -0.0000  -0.0000  -0.0000  -0.0000  -0.0000

          k = 0.2652 0.0884 0.3241 (   441 PWs)   bands (ev):

     0.0960   9.3865  13.8113  18.3382  21.4963  21.8164

     occupation numbers 
     1.0000  -0.0000  -0.0000  -0.0000  -0.0000  -0.0000

          k = 0.2062 0.1473 0.2652 (   442 PWs)   bands (ev):

    -0.7692  10.0055  16.8516  19.6952  20.1531  22.9960

     occupation numbers 
     1.0000  -0.0000  -0.0000  -0.0000  -0.0000  -0.0000

          k =-0.0295 0.5009 0.0295 (   443 PWs)   bands (ev):

     1.3189  11.4631  13.0457  14.2483  14.9549  18.0310

     occupation numbers 
     1.0000  -0.0000  -0.0000  -0.0000  -0.0000  -0.0000

          k =-0.0884 0.5598-0.0295 (   443 PWs)   bands (ev):

     2.5271   9.8345  11.5126  13.3347  15.8612  18.6423

     occupation numbers 
     1.0000  -0.0000  -0.0000  -0.0000  -0.0000  -0.0000

          k = 0.5598-0.0884 0.6187 (   441 PWs)   bands (ev):

     4.0636   8.5106   9.1111  13.3755  16.4012  20.8647

     occupation numbers 
     1.0000  -0.0131  -0.0000  -0.0000  -0.0000  -0.0000

          k = 0.5009-0.0295 0.5598 (   436 PWs)   bands (ev):

     5.8024   6.6770   7.8838  13.8114  16.9832  23.7030

     occupation numbers 
     1.0000   1.0000   0.8524  -0.0000  -0.0000  -0.0000

          k = 0.4419 0.0295 0.5009 (   439 PWs)   bands (ev):

     4.6924   6.6365   8.6900  14.5902  17.8407  26.5804

     occupation numbers 
     1.0000   1.0000  -0.0012  -0.0000  -0.0000  -0.0000

          k = 0.3830 0.0884 0.4419 (   438 PWs)   bands (ev):

     3.0209   6.5703  11.0817  15.7006  18.9976  24.3335

     occupation numbers 
     1.0000   1.0000  -0.0000  -0.0000  -0.0000  -0.0000

          k = 0.3241 0.1473 0.3830 (   437 PWs)   bands (ev):

     1.6889   6.7250  13.8937  17.1316  20.3925  21.8677

     occupation numbers 
     1.0000   1.0000  -0.0000  -0.0000  -0.0000  -0.0000

          k = 0.2652 0.2062 0.3241 (   437 PWs)   bands (ev):

     0.7110   7.2092  16.8593  18.8519  19.7324  21.7333

     occupation numbers 
     1.0000   1.0001  -0.0000  -0.0000  -0.0000  -0.0000

          k =-0.0295 0.6187 0.0295 (   451 PWs)   bands (ev):

     3.5860   8.1101  12.4617  13.7129  14.3741  17.4741

     occupation numbers 
     1.0000   0.2143  -0.0000  -0.0000  -0.0000  -0.0000

          k = 0.6187-0.0295 0.6776 (   448 PWs)   bands (ev):

     4.8743   6.8406  11.1595  12.9994  15.5155  18.3151

     occupation numbers 
     1.0000   1.0000  -0.0000  -0.0000  -0.0000  -0.0000

          k = 0.5598 0.0295 0.6187 (   438 PWs)   bands (ev):

     5.2249   7.1869   8.9398  13.2633  16.2855  20.7610

     occupation numbers 
     1.0000   1.0001  -0.0000  -0.0000  -0.0000  -0.0000

          k = 0.5009 0.0884 0.5598 (   439 PWs)   bands (ev):

     4.6561   6.8263   9.2152  13.9233  17.0973  23.7953

     occupation numbers 
     1.0000   1.0000  -0.0000  -0.0000  -0.0000  -0.0000

          k = 0.4419 0.1473 0.5009 (   439 PWs)   bands (ev):

     4.3135   5.0885  11.6172  14.9237  18.1696  24.8677

     occupation numbers 
     1.0000   1.0000  -0.0000  -0.0000  -0.0000  -0.0000

          k = 0.3830 0.2062 0.4419 (   441 PWs)   bands (ev):

     3.6103   4.3705  14.3346  16.2497  19.4861  22.3133

     occupation numbers 
     1.0000   1.0000  -0.0000  -0.0000  -0.0000  -0.0000

          k = 0.3241 0.2652 0.3830 (   439 PWs)   bands (ev):

     2.5383   4.7200  17.1904  17.8700  20.0732  20.7638

     occupation numbers 
     1.0000   1.0000  -0.0000  -0.0000  -0.0000  -0.0000

          k =-0.0295-0.6776 0.0295 (   445 PWs)   bands (ev):

     4.7573   6.7210  12.3449  13.6059  14.2581  17.3610

     occupation numbers 
     1.0000   1.0000  -0.0000  -0.0000  -0.0000  -0.0000

          k =-0.0884-0.6187-0.0295 (   447 PWs)   bands (ev):

     3.7056   8.2256  11.2768  13.1111  15.6308  18.4246

     occupation numbers 
     1.0000   0.0132  -0.0000  -0.0000  -0.0000  -0.0000

          k =-0.1473-0.5598-0.0884 (   439 PWs)   bands (ev):

     2.8895   9.2187  10.2437  13.6002  16.6321  21.0710

     occupation numbers 
     1.0000  -0.0000  -0.0000  -0.0000  -0.0000  -0.0000

          k =-0.2062-0.5009-0.1473 (   437 PWs)   bands (ev):

     2.4138   7.4244  12.5210  14.4844  17.6602  24.2279

     occupation numbers 
     1.0000   1.0047  -0.0000  -0.0000  -0.0000  -0.0000

          k =-0.2652-0.4419-0.2062 (   437 PWs)   bands (ev):

     2.2956   5.9056  15.1004  15.7173  18.8953  23.0662

     occupation numbers 
     1.0000   1.0000  -0.0000  -0.0000  -0.0000  -0.0000

          k =-0.0295-0.5598 0.0295 (   446 PWs)   bands (ev):

     2.4061   9.7252  12.6952  13.9270  14.6065  17.6992

     occupation numbers 
     1.0000  -0.0000  -0.0000  -0.0000  -0.0000  -0.0000

          k =-0.0884-0.5009-0.0295 (   439 PWs)   bands (ev):

     1.4410  11.5342  11.8936  13.6720  16.2061  18.9636

     occupation numbers 
     1.0000  -0.0000  -0.0000  -0.0000  -0.0000  -0.0000

          k =-0.1473-0.4419-0.0884 (   445 PWs)   bands (ev):

     0.8321  10.0658  13.7445  14.4128  17.4288  21.7725

     occupation numbers 
     1.0000  -0.0000  -0.0000  -0.0000  -0.0000  -0.0000

          k =-0.2062-0.3830-0.1473 (   439 PWs)   bands (ev):

     0.5878   8.4859  15.4326  16.2868  18.6218  24.0703

     occupation numbers 
     1.0000  -0.0167  -0.0000  -0.0000  -0.0000  -0.0000

          k =-0.0295-0.4419 0.0295 (   439 PWs)   bands (ev):

     0.3409  13.2837  13.5331  14.6768  15.4193  18.4622

     occupation numbers 
     1.0000  -0.0000  -0.0000  -0.0000  -0.0000  -0.0000

          k =-0.0884-0.3830-0.0295 (   441 PWs)   bands (ev):

    -0.3981  12.8888  14.6044  15.4180  17.2332  19.8885

     occupation numbers 
     1.0000  -0.0000  -0.0000  -0.0000  -0.0000  -0.0000

          k =-0.1473-0.3241-0.0884 (   443 PWs)   bands (ev):

    -0.7693  11.3472  15.5602  17.7219  18.6275  22.7997

     occupation numbers 
     1.0000  -0.0000  -0.0000  -0.0000  -0.0000  -0.0000

          k =-0.0295-0.3241 0.0295 (   442 PWs)   bands (ev):

    -1.2660  14.7671  15.8549  16.6706  17.3013  19.5769

     occupation numbers 
     1.0000  -0.0000  -0.0000  -0.0000  -0.0000  -0.0000

          k =-0.0884-0.2652-0.0295 (   440 PWs)   bands (ev):

    -1.7644  14.3845  16.0465  18.6706  19.4901  21.1125

     occupation numbers 
     1.0000  -0.0000  -0.0000  -0.0000  -0.0000  -0.0000

          k =-0.0295-0.2062 0.0295 (   447 PWs)   bands (ev):

    -2.3899  16.4642  17.4541  18.3622  20.8644  21.5688

     occupation numbers 
     1.0000  -0.0000  -0.0000  -0.0000  -0.0000  -0.0000

          k =-0.0884 0.0884 0.0884 (   432 PWs)   bands (ev):

    -2.7665  16.2898  19.6524  19.6524  22.6958  23.6295

     occupation numbers 
     1.0000  -0.0000  -0.0000  -0.0000  -0.0000  -0.0000

          k =-0.1473 0.1473 0.0295 (   445 PWs)   bands (ev):

    -2.3899  15.1903  16.9056  21.1094  22.6055  23.4985

     occupation numbers 
     1.0000  -0.0000  -0.0000  -0.0000  -0.0000  -0.0000

          k =-0.2062 0.2062-0.0295 (   449 PWs)   bands (ev):

    -1.6396  13.1382  15.0492  21.2639  21.8707  23.2771

     occupation numbers 
     1.0000  -0.0000  -0.0000  -0.0000  -0.0000  -0.0000

          k =-0.2652 0.2652-0.0884 (   437 PWs)   bands (ev):

    -0.5214  10.2016  14.5869  19.7475  21.6994  21.7012

     occupation numbers 
     1.0000  -0.0000  -0.0000  -0.0000  -0.0000  -0.0000

          k =-0.3241 0.3241-0.1473 (   437 PWs)   bands (ev):

     0.9561   7.4336  14.5629  18.4695  20.3654  21.7307

     occupation numbers 
     1.0000   1.0053  -0.0000  -0.0000  -0.0000  -0.0000

          k = 0.3241-0.3241 0.5009 (   445 PWs)   bands (ev):

     2.7796   4.9559  14.8942  17.4982  19.3320  22.0621

     occupation numbers 
     1.0000   1.0000  -0.0000  -0.0000  -0.0000  -0.0000

          k = 0.2652-0.2652 0.4419 (   441 PWs)   bands (ev):

     2.7789   4.9581  15.5676  16.8469  18.6235  22.7035

     occupation numbers 
     1.0000   1.0000  -0.0000  -0.0000  -0.0000  -0.0000

          k = 0.2062-0.2062 0.3830 (   434 PWs)   bands (ev):

     0.9559   7.4404  16.5176  16.5737  18.2489  23.6457

     occupation numbers 
     1.0000   1.0057  -0.0000  -0.0000  -0.0000  -0.0000

          k = 0.1473-0.1473 0.3241 (   439 PWs)   bands (ev):

    -0.5215  10.2261  16.5097  17.8657  18.2316  24.0957

     occupation numbers 
     1.0000  -0.0000  -0.0000  -0.0000  -0.0000  -0.0000

          k = 0.0884-0.0884 0.2652 (   447 PWs)   bands (ev):

    -1.6396  13.2716  16.8222  18.3389  19.5849  22.1269

     occupation numbers 
     1.0000  -0.0000  -0.0000  -0.0000  -0.0000  -0.0000

          k =-0.0884 0.2062 0.0884 (   452 PWs)   bands (ev):

    -2.1394  14.1825  17.6749  19.1167  21.5972  22.8559

     occupation numbers 
     1.0000  -0.0000  -0.0000  -0.0000  -0.0000  -0.0000

          k =-0.1473 0.2652 0.0295 (   445 PWs)   bands (ev):

    -1.5150  13.2505  15.1200  19.6635  20.1664  22.3155

     occupation numbers 
     1.0000  -0.0000  -0.0000  -0.0000  -0.0000  -0.0000

          k =-0.2062 0.3241-0.0295 (   437 PWs)   bands (ev):

    -0.5215  11.4062  13.4045  17.9229  21.0788  22.9214

     occupation numbers 
     1.0000  -0.0000  -0.0000  -0.0000  -0.0000  -0.0000

          k =-0.2652 0.3830-0.0884 (   439 PWs)   bands (ev):

     0.8332   8.6845  13.1316  16.4811  21.2050  22.1762

     occupation numbers 
     1.0000  -0.0013  -0.0000  -0.0000  -0.0000  -0.0000

          k = 0.3830-0.2652 0.5598 (   436 PWs)   bands (ev):

     2.5378   6.1328  13.3195  15.3669  20.9818  21.6058

     occupation numbers 
     1.0000   1.0000  -0.0000  -0.0000  -0.0000  -0.0000

          k = 0.3241-0.2062 0.5009 (   438 PWs)   bands (ev):

     3.8460   4.6109  13.8410  14.6168  20.2320  22.1338

     occupation numbers 
     1.0000   1.0000  -0.0000  -0.0000  -0.0000  -0.0000

          k = 0.2652-0.1473 0.4419 (   437 PWs)   bands (ev):

     1.9313   6.9593  14.0519  14.8658  19.7506  22.9898

     occupation numbers 
     1.0000   1.0000  -0.0000  -0.0000  -0.0000  -0.0000

          k = 0.2062-0.0884 0.3830 (   436 PWs)   bands (ev):

     0.3419   9.6151  13.9967  16.0721  19.5476  23.5585

     occupation numbers 
     1.0000  -0.0000  -0.0000  -0.0000  -0.0000  -0.0000

          k = 0.1473-0.0295 0.3241 (   442 PWs)   bands (ev):

    -0.8933  12.4433  14.3490  17.6297  19.4441  21.7233

     occupation numbers 
     1.0000  -0.0000  -0.0000  -0.0000  -0.0000  -0.0000

          k =-0.0884 0.3241 0.0884 (   442 PWs)   bands (ev):

    -1.0174  12.4675  16.0731  17.3998  17.7111  21.4841

     occupation numbers 
     1.0000  -0.0000  -0.0000  -0.0000  -0.0000  -0.0000

          k =-0.1473 0.3830 0.0295 (   441 PWs)   bands (ev):

    -0.1510  11.7483  13.6696  15.6405  18.7924  21.1749

     occupation numbers 
     1.0000  -0.0000  -0.0000  -0.0000  -0.0000  -0.0000

          k =-0.2062 0.4419-0.0295 (   438 PWs)   bands (ev):

     1.0771  10.1274  12.1327  14.0715  19.9343  22.1395

     occupation numbers 
     1.0000  -0.0000  -0.0000  -0.0000  -0.0000  -0.0000

          k = 0.4419-0.2062 0.6187 (   437 PWs)   bands (ev):

     2.6560   7.6261  12.0251  12.8745  20.3459  23.5757

     occupation numbers 
     1.0000   1.0312  -0.0000  -0.0000  -0.0000  -0.0000

          k = 0.3830-0.1473 0.5598 (   436 PWs)   bands (ev):

     4.5512   5.3183  11.7719  12.6431  20.8640  22.8469

     occupation numbers 
     1.0000   1.0000  -0.0000  -0.0000  -0.0000  -0.0000

          k = 0.3241-0.0884 0.5009 (   432 PWs)   bands (ev):

     3.2591   6.8051  11.2896  13.3779  21.6078  22.2975

     occupation numbers 
     1.0000   1.0000  -0.0000  -0.0000  -0.0000  -0.0000

          k = 0.2652-0.0295 0.4419 (   435 PWs)   bands (ev):

     1.5658   9.1990  11.2511  14.5021  21.7160  22.6696

     occupation numbers 
     1.0000  -0.0000  -0.0000  -0.0000  -0.0000  -0.0000

          k = 0.2062 0.0295 0.3830 (   437 PWs)   bands (ev):

     0.2188  10.7095  12.7219  15.9631  20.4705  22.5519

     occupation numbers 
     1.0000  -0.0000  -0.0000  -0.0000  -0.0000  -0.0000

          k =-0.0884 0.4419 0.0884 (   441 PWs)   bands (ev):

     0.5867  11.1895  13.5557  14.8936  16.3630  20.4065

     occupation numbers 
     1.0000  -0.0000  -0.0000  -0.0000  -0.0000  -0.0000

          k =-0.1473 0.5009 0.0295 (   440 PWs)   bands (ev):

     1.6848  10.6937  11.7687  12.7736  17.7855  20.2921

     occupation numbers 
     1.0000  -0.0000  -0.0000  -0.0000  -0.0000  -0.0000

          k = 0.5009-0.1473 0.6776 (   438 PWs)   bands (ev):

     3.1306   9.3013  10.3701  11.4840  19.1605  21.4898

     occupation numbers 
     1.0000  -0.0000  -0.0000  -0.0000  -0.0000  -0.0000

          k = 0.4419-0.0884 0.6187 (   437 PWs)   bands (ev):

     4.8935   7.0307   9.4234  11.5969  19.8150  23.9663

     occupation numbers 
     1.0000   1.0000  -0.0000  -0.0000  -0.0000  -0.0000

          k = 0.3830-0.0295 0.5598 (   436 PWs)   bands (ev):

     4.9219   6.8692   8.9135  12.2384  20.5663  24.8781

     occupation numbers 
     1.0000   1.0000  -0.0000  -0.0000  -0.0000  -0.0000

          k = 0.3241 0.0295 0.5009 (   434 PWs)   bands (ev):

     3.1389   7.9175   9.9741  13.2567  21.5616  23.2264

     occupation numbers 
     1.0000   0.7736  -0.0000  -0.0000  -0.0000  -0.0000

          k = 0.2652 0.0884 0.4419 (   436 PWs)   bands (ev):

     1.6878   8.0974  12.5495  14.6185  20.7504  22.8441

     occupation numbers 
     1.0000   0.2468  -0.0000  -0.0000  -0.0000  -0.0000

          k =-0.0884 0.5598 0.0884 (   443 PWs)   bands (ev):

     2.6480   9.8987  10.4595  14.1431  15.5334  19.6793

     occupation numbers 
     1.0000  -0.0000  -0.0000  -0.0000  -0.0000  -0.0000

          k = 0.5598-0.0884 0.7365 (   441 PWs)   bands (ev):

     3.9445   8.4526  10.1372  12.1528  17.2177  19.7752

     occupation numbers 
     1.0000  -0.0221  -0.0000  -0.0000  -0.0000  -0.0000

          k = 0.5009-0.0295 0.6776 (   439 PWs)   bands (ev):

     5.4586   7.4252   8.9825  11.0722  18.8237  21.1946

     occupation numbers 
     1.0000   1.0047  -0.0000  -0.0000  -0.0000  -0.0000

          k = 0.4419 0.0295 0.6187 (   438 PWs)   bands (ev):

     6.0360   6.8856   8.1025  11.4705  19.7064  23.9056

     occupation numbers 
     1.0000   1.0000   0.2334  -0.0000  -0.0000  -0.0000

          k = 0.3830 0.0884 0.5598 (   433 PWs)   bands (ev):

     5.0255   5.7608  10.2424  12.3627  20.6679  23.8639

     occupation numbers 
     1.0000   1.0000  -0.0000  -0.0000  -0.0000  -0.0000

          k = 0.3241 0.1473 0.5009 (   439 PWs)   bands (ev):

     3.4980   5.6598  12.8100  13.6459  21.1233  21.9372

     occupation numbers 
     1.0000   1.0000  -0.0000  -0.0000  -0.0000  -0.0000

          k =-0.0884-0.7365 0.0884 (   445 PWs)   bands (ev):

     4.9912   6.9583  10.0549  13.8216  15.1735  19.3592

     occupation numbers 
     1.0000   1.0000  -0.0000  -0.0000  -0.0000  -0.0000

          k =-0.1473-0.6776 0.0295 (   444 PWs)   bands (ev):

     5.1082   7.0778  10.0173  12.0356  17.1033  19.6699

     occupation numbers 
     1.0000   1.0000  -0.0000  -0.0000  -0.0000  -0.0000

          k =-0.2062-0.6187-0.0295 (   438 PWs)   bands (ev):

     4.3020   8.7471   9.1394  11.1997  18.9363  21.2940

     occupation numbers 
     1.0000  -0.0004  -0.0000  -0.0000  -0.0000  -0.0000

          k =-0.2652-0.5598-0.0884 (   439 PWs)   bands (ev):

     3.7309   7.2710  10.9560  11.8838  20.0299  23.9954

     occupation numbers 
     1.0000   1.0004  -0.0000  -0.0000  -0.0000  -0.0000

          k =-0.0884-0.6187 0.0884 (   445 PWs)   bands (ev):

     3.8250   8.3359  10.1777  13.9287  15.2938  19.4663

     occupation numbers 
     1.0000  -0.0353  -0.0000  -0.0000  -0.0000  -0.0000

          k =-0.1473-0.5598 0.0295 (   441 PWs)   bands (ev):

     2.7688  10.0162  10.4066  12.3903  17.4453  19.9839

     occupation numbers 
     1.0000  -0.0000  -0.0000  -0.0000  -0.0000  -0.0000

          k =-0.2062-0.5009-0.0295 (   438 PWs)   bands (ev):

     2.0498   9.6596  11.5677  12.3514  19.4946  21.7761

     occupation numbers 
     1.0000  -0.0000  -0.0000  -0.0000  -0.0000  -0.0000

          k =-0.0884-0.5009 0.0884 (   438 PWs)   bands (ev):

     1.5629  10.7061  11.7364  14.4647  15.8909  19.9948

     occupation numbers 
     1.0000  -0.0000  -0.0000  -0.0000  -0.0000  -0.0000

          k =-0.1473-0.4419 0.0295 (   441 PWs)   bands (ev):

     0.7095  11.1663  13.0366  13.7865  18.2363  20.6925

     occupation numbers 
     1.0000  -0.0000  -0.0000  -0.0000  -0.0000  -0.0000

          k =-0.0884-0.3830 0.0884 (   445 PWs)   bands (ev):

    -0.2745  11.7733  15.4298  15.4777  16.9475  20.9065

     occupation numbers 
     1.0000  -0.0000  -0.0000  -0.0000  -0.0000  -0.0000

          k =-0.1473 0.1473 0.1473 (   438 PWs)   bands (ev):

    -2.0143  12.9823  19.0695  19.0695  22.4359  23.4811

     occupation numbers 
     1.0000  -0.0000  -0.0000  -0.0000  -0.0000  -0.0000

          k =-0.2062 0.2062 0.0884 (   445 PWs)   bands (ev):

    -1.5150  12.0477  16.2929  20.7428  21.4929  23.1719

     occupation numbers 
     1.0000  -0.0000  -0.0000  -0.0000  -0.0000  -0.0000

          k =-0.2652 0.2652 0.0295 (   441 PWs)   bands (ev):

    -0.6453  11.2914  13.3094  19.6399  21.6605  22.7736

     occupation numbers 
     1.0000  -0.0000  -0.0000  -0.0000  -0.0000  -0.0000

          k =-0.3241 0.3241-0.0295 (   436 PWs)   bands (ev):

     0.5880   9.6659  11.7308  18.1436  20.1402  23.9233

     occupation numbers 
     1.0000  -0.0000  -0.0000  -0.0000  -0.0000  -0.0000

          k = 0.3241-0.3241 0.6187 (   439 PWs)   bands (ev):

     2.1750   7.1595  11.6615  16.9567  18.8747  24.1186

     occupation numbers 
     1.0000   1.0000  -0.0000  -0.0000  -0.0000  -0.0000

          k = 0.2652-0.2652 0.5598 (   440 PWs)   bands (ev):

     4.0862   4.8414  12.0816  16.0906  17.9209  24.5513

     occupation numbers 
     1.0000   1.0000  -0.0000  -0.0000  -0.0000  -0.0000

          k = 0.2062-0.2062 0.5009 (   440 PWs)   bands (ev):

     2.7766   6.3750  12.8725  15.5475  17.2981  25.2773

     occupation numbers 
     1.0000   1.0000  -0.0000  -0.0000  -0.0000  -0.0000

          k = 0.1473-0.1473 0.4419 (   437 PWs)   bands (ev):

     1.0771   8.9393  14.0099  15.3274  16.9995  23.1454

     occupation numbers 
     1.0000  -0.0000  -0.0000  -0.0000  -0.0000  -0.0000

          k =-0.1473 0.2652 0.1473 (   442 PWs)   bands (ev):

    -1.1416  11.0383  17.2608  18.8124  19.9394  24.2955

     occupation numbers 
     1.0000  -0.0000  -0.0000  -0.0000  -0.0000  -0.0000

          k =-0.2062 0.3241 0.0884 (   440 PWs)   bands (ev):

    -0.3978  10.3147  14.6735  18.0262  20.1326  23.4497

     occupation numbers 
     1.0000  -0.0000  -0.0000  -0.0000  -0.0000  -0.0000

          k =-0.2652 0.3830 0.0295 (   436 PWs)   bands (ev):

     0.7105   9.7815  11.8360  16.3723  21.9674  22.2963

     occupation numbers 
     1.0000  -0.0000  -0.0000  -0.0000  -0.0000  -0.0000

          k = 0.3830-0.2652 0.6776 (   432 PWs)   bands (ev):

     2.1743   8.3844  10.4527  15.0293  20.7571  23.6038

     occupation numbers 
     1.0000  -0.0328  -0.0000  -0.0000  -0.0000  -0.0000

          k = 0.3241-0.2062 0.6187 (   434 PWs)   bands (ev):

     3.9774   6.0999  10.6102  14.0175  19.7436  24.1161

     occupation numbers 
     1.0000   1.0000  -0.0000  -0.0000  -0.0000  -0.0000

          k = 0.2652-0.1473 0.5598 (   436 PWs)   bands (ev):

     3.9686   6.1315  11.2560  13.3538  19.0267  24.6662

     occupation numbers 
     1.0000   1.0000  -0.0000  -0.0000  -0.0000  -0.0000

          k = 0.2062-0.0884 0.5009 (   437 PWs)   bands (ev):

     2.1713   8.5581  12.2337  13.0883  18.5880  22.8783

     occupation numbers 
     1.0000  -0.0078  -0.0000  -0.0000  -0.0000  -0.0000

          k =-0.1473 0.3830 0.1473 (   439 PWs)   bands (ev):

     0.2188   9.5258  15.8648  15.9217  17.5612  23.5999

     occupation numbers 
     1.0000  -0.0000  -0.0000  -0.0000  -0.0000  -0.0000

          k =-0.2062 0.4419 0.0884 (   438 PWs)   bands (ev):

     1.1995   9.0293  13.3868  14.2116  19.0226  23.2264

     occupation numbers 
     1.0000  -0.0000  -0.0000  -0.0000  -0.0000  -0.0000

          k = 0.4419-0.2062 0.7365 (   437 PWs)   bands (ev):

     2.5350   8.7319  10.7624  12.7138  21.3037  23.0665

     occupation numbers 
     1.0000  -0.0006  -0.0000  -0.0000  -0.0000  -0.0000

          k = 0.3830-0.1473 0.6776 (   437 PWs)   bands (ev):

     4.2096   7.5668   9.5948  11.5800  22.4369  22.9554

     occupation numbers 
     1.0000   1.0215  -0.0000  -0.0000  -0.0000  -0.0000

          k = 0.3241-0.0884 0.6187 (   437 PWs)   bands (ev):

     5.4711   6.2274   9.9286  10.8745  21.6814  23.6589

     occupation numbers 
     1.0000   1.0000  -0.0000  -0.0000  -0.0000  -0.0000

          k = 0.2652-0.0295 0.5598 (   440 PWs)   bands (ev):

     3.6114   8.3798  10.2905  11.1192  20.9812  23.0058

     occupation numbers 
     1.0000  -0.0333  -0.0000  -0.0000  -0.0000  -0.0000

          k =-0.1473 0.5009 0.1473 (   438 PWs)   bands (ev):

     2.0498   8.4672  12.1841  14.8976  16.5377  22.7648

     occupation numbers 
     1.0000  -0.0196  -0.0000  -0.0000  -0.0000  -0.0000

          k = 0.5009-0.1473 0.7955 (   438 PWs)   bands (ev):

     3.2509   8.2000  10.5597  12.7015  18.2560  22.5981

     occupation numbers 
     1.0000   0.0426  -0.0000  -0.0000  -0.0000  -0.0000

          k = 0.4419-0.0884 0.7365 (   438 PWs)   bands (ev):

     4.7769   8.1372   9.2219  10.3661  20.7627  22.8710

     occupation numbers 
     1.0000   0.1512  -0.0000  -0.0000  -0.0000  -0.0000

          k = 0.3830-0.0295 0.6776 (   439 PWs)   bands (ev):

     6.5028   7.2052   8.4066   9.4891  22.5685  24.1573

     occupation numbers 
     1.0000   1.0001  -0.0297  -0.0000  -0.0000  -0.0000

          k = 0.3241 0.0295 0.6187 (   435 PWs)   bands (ev):

     5.3669   7.3319   9.2328  10.1225  22.6598  23.4624

     occupation numbers 
     1.0000   1.0012  -0.0000  -0.0000  -0.0000  -0.0000

          k =-0.1473-0.7955 0.1473 (   438 PWs)   bands (ev):

     4.3014   7.8435   8.8880  14.3607  15.9476  22.2718

     occupation numbers 
     1.0000   0.9275  -0.0000  -0.0000  -0.0000  -0.0000

          k =-0.2062-0.7365 0.0884 (   439 PWs)   bands (ev):

     5.5745   7.4464   7.9993  12.3470  17.9196  22.3072

     occupation numbers 
     1.0000   1.0062   0.5373  -0.0000  -0.0000  -0.0000

          k =-0.2652-0.6776 0.0295 (   436 PWs)   bands (ev):

     5.9248   7.7989   8.1354  10.1926  20.6528  22.7920

     occupation numbers 
     1.0000   0.9850   0.1551  -0.0000  -0.0000  -0.0000

          k =-0.1473-0.6776 0.1473 (   434 PWs)   bands (ev):

     5.4576   7.3275   7.9130  14.2534  15.8281  22.1714

     occupation numbers 
     1.0000   1.0011   0.7849  -0.0000  -0.0000  -0.0000

          k =-0.2062-0.6187 0.0884 (   440 PWs)   bands (ev):

     4.4204   7.9394   8.9921  12.4641  18.0321  22.4051

     occupation numbers 
     1.0000   0.7155  -0.0000  -0.0000  -0.0000  -0.0000

          k =-0.1473-0.5598 0.1473 (   439 PWs)   bands (ev):

     3.1304   8.1077  10.4633  14.5754  16.1851  22.4710

     occupation numbers 
     1.0000   0.2201  -0.0000  -0.0000  -0.0000  -0.0000

          k =-0.2062 0.2062 0.2062 (   432 PWs)   bands (ev):

    -0.8932   9.8980  18.7766  18.7766  22.0075  22.0075

     occupation numbers 
     1.0000  -0.0000  -0.0000  -0.0000  -0.0000  -0.0000

          k =-0.2652 0.2652 0.1473 (   441 PWs)   bands (ev):

    -0.2741   9.0758  16.0671  19.9558  20.6497  21.7216

     occupation numbers 
     1.0000  -0.0000  -0.0000  -0.0000  -0.0000  -0.0000

          k =-0.3241 0.3241 0.0884 (   436 PWs)   bands (ev):

     0.7108   8.5690  13.0304  18.2522  20.2213  22.8035

     occupation numbers 
     1.0000  -0.0068  -0.0000  -0.0000  -0.0000  -0.0000

          k = 0.3241-0.3241 0.7365 (   435 PWs)   bands (ev):

     2.0535   8.2682  10.3426  16.8485  18.7742  25.2757

     occupation numbers 
     1.0000  -0.0183  -0.0000  -0.0000  -0.0000  -0.0000

          k = 0.2652-0.2652 0.6776 (   439 PWs)   bands (ev):

     3.7416   7.1021   9.1652  15.7668  17.5928  26.8037

     occupation numbers 
     1.0000   1.0000  -0.0000  -0.0000  -0.0000  -0.0000

          k = 0.2062-0.2062 0.6187 (   441 PWs)   bands (ev):

     4.9983   5.7939   9.5655  15.0092  16.7282  25.2727

     occupation numbers 
     1.0000   1.0000  -0.0000  -0.0000  -0.0000  -0.0000

          k =-0.2062 0.3241 0.2062 (   439 PWs)   bands (ev):

     0.2193   8.1474  17.1642  18.4880  18.7909  22.9896

     occupation numbers 
     1.0000   0.1300  -0.0000  -0.0000  -0.0000  -0.0000

          k =-0.2652 0.3830 0.1473 (   437 PWs)   bands (ev):

     1.0783   7.5499  14.6493  16.6973  20.2133  22.2799

     occupation numbers 
     1.0000   1.0187  -0.0000  -0.0000  -0.0000  -0.0000

          k = 0.3830-0.2652 0.7955 (   431 PWs)   bands (ev):

     2.2956   7.2766  11.7680  15.1416  20.8446  22.5999

     occupation numbers 
     1.0000   1.0005  -0.0000  -0.0000  -0.0000  -0.0000

          k = 0.3241-0.2062 0.7365 (   435 PWs)   bands (ev):

     3.8594   7.2185   9.2781  13.9028  19.6401  25.1606

     occupation numbers 
     1.0000   1.0002  -0.0000  -0.0000  -0.0000  -0.0000

          k = 0.2652-0.1473 0.6776 (   442 PWs)   bands (ev):

     5.7345   6.2973   8.3330  13.0026  18.7009  25.2397

     occupation numbers 
     1.0000   1.0000  -0.0352  -0.0000  -0.0000  -0.0000

          k =-0.2062 0.4419 0.2062 (   439 PWs)   bands (ev):

     1.8096   6.8490  14.6852  15.9785  17.7356  24.4084

     occupation numbers 
     1.0000   1.0000  -0.0000  -0.0000  -0.0000  -0.0000

          k = 0.4419-0.2062 0.8544 (   439 PWs)   bands (ev):

     2.8974   6.4858  12.9271  13.7342  19.3442  23.8092

     occupation numbers 
     1.0000   1.0000  -0.0000  -0.0000  -0.0000  -0.0000

          k = 0.3830-0.1473 0.7955 (   438 PWs)   bands (ev):

     4.3270   6.4523  10.8658  11.7524  21.8471  22.6949

     occupation numbers 
     1.0000   1.0000  -0.0000  -0.0000  -0.0000  -0.0000

          k = 0.3241-0.0884 0.7365 (   438 PWs)   bands (ev):

     6.0606   6.6440   8.6505  10.6969  21.5849  24.6318

     occupation numbers 
     1.0000   1.0000  -0.0022  -0.0000  -0.0000  -0.0000

          k =-0.2062-0.8544 0.2062 (   439 PWs)   bands (ev):

     3.8489   6.0203  11.1570  15.2244  16.9588  25.4213

     occupation numbers 
     1.0000   1.0000  -0.0000  -0.0000  -0.0000  -0.0000

          k =-0.2652-0.7955 0.1473 (   437 PWs)   bands (ev):

     5.1166   5.9056   9.6749  13.1188  18.8104  25.1934

     occupation numbers 
     1.0000   1.0000  -0.0000  -0.0000  -0.0000  -0.0000

          k =-0.2062-0.7365 0.2062 (   440 PWs)   bands (ev):

     5.6223   6.1811   8.2191  14.9016  16.6117  25.1940

     occupation numbers 
     1.0000   1.0000   0.0199  -0.0000  -0.0000  -0.0000

          k =-0.2652 0.2652 0.2652 (   431 PWs)   bands (ev):

     0.5884   7.0943  18.7933  18.7933  20.7427  20.7427

     occupation numbers 
     1.0000   1.0000  -0.0000  -0.0000  -0.0000  -0.0000

          k =-0.3241 0.3241 0.2062 (   439 PWs)   bands (ev):

     1.3232   6.3819  16.1804  18.7954  20.5114  20.7564

     occupation numbers 
     1.0000   1.0000  -0.0000  -0.0000  -0.0000  -0.0000

          k = 0.3241-0.3241 0.8544 (   439 PWs)   bands (ev):

     2.4175   6.0147  13.2229  17.1733  19.0680  23.0397

     occupation numbers 
     1.0000   1.0000  -0.0000  -0.0000  -0.0000  -0.0000

          k = 0.2652-0.2652 0.7955 (   438 PWs)   bands (ev):

     3.8599   5.9819  10.5015  15.8747  17.7036  25.6303

     occupation numbers 
     1.0000   1.0000  -0.0000  -0.0000  -0.0000  -0.0000

          k =-0.2652 0.3830 0.2652 (   438 PWs)   bands (ev):

     1.9325   5.5531  17.3878  17.4049  19.0258  21.9405

     occupation numbers 
     1.0000   1.0000  -0.0000  -0.0000  -0.0000  -0.0000

          k = 0.3830-0.2652 0.9133 (   439 PWs)   bands (ev):

     2.8995   5.0751  14.9561  15.7153  20.5596  21.3202

     occupation numbers 
     1.0000   1.0000  -0.0000  -0.0000  -0.0000  -0.0000

          k = 0.3241-0.2062 0.8544 (   437 PWs)   bands (ev):

     4.2031   4.9611  12.1805  14.2486  19.9453  23.0792

     occupation numbers 
     1.0000   1.0000  -0.0000  -0.0000  -0.0000  -0.0000

          k =-0.2652-0.9133 0.2652 (   443 PWs)   bands (ev):

     3.7268   4.4929  13.7811  16.4146  18.2350  23.5744

     occupation numbers 
     1.0000   1.0000  -0.0000  -0.0000  -0.0000  -0.0000

          k =-0.3241 0.3241 0.3241 (   434 PWs)   bands (ev):

     2.4177   4.6011  19.1255  19.1255  19.7781  19.7781

     occupation numbers 
     1.0000   1.0000  -0.0000  -0.0000  -0.0000  -0.0000

          k = 0.3241-0.3241 0.9722 (   439 PWs)   bands (ev):

     3.2528   4.0117  16.6278  17.9323  19.6070  21.1923

     occupation numbers 
     1.0000   1.0000  -0.0000  -0.0000  -0.0000  -0.0000

     the Fermi energy is     8.0114 ev

!    total energy              =     -39.50178434 Ry
     total all-electron energy =       -39.501784 Ry
     estimated scf accuracy    <          2.5E-17 Ry
     smearing contrib. (-TS)   =      -0.00008843 Ry
     internal energy E=F+TS    =     -39.50169592 Ry

     The total energy is F=E-TS. E is the sum of the following terms:
     one-electron contribution =       3.16233574 Ry
     hartree contribution      =       0.00827518 Ry
     xc contribution           =      -2.10397151 Ry
     ewald contribution        =      -5.40768869 Ry
     one-center paw contrib.   =     -35.16064665 Ry
      -> PAW hartree energy AE =       0.30752053 Ry
      -> PAW hartree energy PS =      -0.29819398 Ry
      -> PAW xc energy AE      =     -36.02479994 Ry
      -> PAW xc energy PS      =       0.85482675 Ry
      -> total E_H with PAW    =       0.01760172 Ry
      -> total E_XC with PAW   =     -37.27394470 Ry

     convergence has been achieved in   4 iterations

     negative rho (up, down):  7.344E-04 0.000E+00

     Forces acting on atoms (cartesian axes, Ry/au):

     atom    1 type  1   force =     0.00000000    0.00000000    0.00000000
     The non-local contrib.  to forces
     atom    1 type  1   force =     0.00000000    0.00000000   -0.00000000
     The ionic contribution  to forces
     atom    1 type  1   force =     0.00000000    0.00000000    0.00000000
     The local contribution  to forces
     atom    1 type  1   force =     0.00000000   -0.00000000   -0.00000000
     The core correction contribution to forces
     atom    1 type  1   force =    -0.00000000    0.00000000    0.00000000
     The Hubbard contrib.    to forces
     atom    1 type  1   force =     0.00000000    0.00000000    0.00000000
     The SCF correction term to forces
     atom    1 type  1   force =    -0.00000000    0.00000000   -0.00000000

     Total force =     0.000000     Total SCF correction =     0.000000


     Computing stress (Cartesian axis) and pressure


     negative rho (up, down):  7.344E-04 0.000E+00
          total   stress  (Ry/bohr**3)                   (kbar)     P=        0.11
   0.00000075  -0.00000000   0.00000000            0.11       -0.00        0.00
  -0.00000000   0.00000075   0.00000000           -0.00        0.11        0.00
   0.00000000   0.00000000   0.00000075            0.00        0.00        0.11

     kinetic stress (kbar)   1464.65      0.00     -0.00
                                0.00   1464.65      0.00
                               -0.00      0.00   1464.65

     local   stress (kbar)    -47.01     -0.00      0.00
                               -0.00    -47.01     -0.00
                                0.00     -0.00    -47.01

     nonloc. stress (kbar)   1751.83      0.00      0.00
                                0.00   1751.83      0.00
                                0.00     -0.00   1751.83

     hartree stress (kbar)      3.65     -0.00      0.00
                               -0.00      3.65      0.00
                                0.00      0.00      3.65

     exc-cor stress (kbar)    -86.37      0.00      0.00
                                0.00    -86.37      0.00
                                0.00      0.00    -86.37

     corecor stress (kbar)   -699.33     -0.00      0.00
                               -0.00   -699.33      0.00
                                0.00      0.00   -699.33

     ewald   stress (kbar)  -2387.30     -0.00     -0.00
                               -0.00  -2387.30     -0.00
                               -0.00     -0.00  -2387.30

     hubbard stress (kbar)      0.00      0.00      0.00
                                0.00      0.00      0.00
                                0.00      0.00      0.00

     DFT-D   stress (kbar)      0.00      0.00      0.00
                                0.00      0.00      0.00
                                0.00      0.00      0.00

     XDM     stress (kbar)      0.00      0.00      0.00
                                0.00      0.00      0.00
                                0.00      0.00      0.00

     dft-nl  stress (kbar)      0.00      0.00      0.00
                                0.00      0.00      0.00
                                0.00      0.00      0.00

     TS-vdW  stress (kbar)      0.00      0.00      0.00
                                0.00      0.00      0.00
                                0.00      0.00      0.00

     MDB     stress (kbar)      0.00      0.00      0.00
                                0.00      0.00      0.00
                                0.00      0.00      0.00

     3D-RISM stress (kbar)      0.00      0.00      0.00
                                0.00      0.00      0.00
                                0.00      0.00      0.00

     Energy error            =      1.0E-08 Ry
     Gradient error          =      0.0E+00 Ry/Bohr
     Cell gradient error     =      1.1E-01 kbar

     number of scf cycles    =   2
     number of bfgs steps    =   1

     enthalpy           old  =     -39.5017843341 Ry
     enthalpy           new  =     -39.5017843443 Ry

     CASE: enthalpy          _new < enthalpy          _old

     small trust_radius: resetting bfgs history

     new trust radius        =       0.0000393062 bohr
     new conv_thr            =            1.0E-18 Ry

     new unit-cell volume =    111.07994 a.u.^3 (    16.46035 Ang^3 )
     density =      2.72193 g/cm^3

CELL_PARAMETERS (angstrom)
  -2.019000116  -0.000000000   2.019000116
  -0.000000000   2.019000116   2.019000116
  -2.019000116   2.019000116   0.000000000

ATOMIC_POSITIONS (angstrom)
Al               0.0000000000        0.0000000000        0.0000000000



     Writing config-only to output data dir ./tmp/al.save/ :
     XML data file
     NEW-OLD atomic charge density approx. for the potential
     New effective cutoffs (rho, wfc):   78.65   37.99

     negative rho (up, down):  7.346E-04 0.000E+00

     total cpu time spent up to now is        1.1 secs

     per-process dynamical memory:    35.1 Mb

     Self-consistent Calculation

     iteration #  1     ecut=    38.00 Ry     beta= 0.70
     Davidson diagonalization with overlap

---- Real-time Memory Report at c_bands before calling an iterative solver
           112 MiB given to the printing process from OS
            34 MiB allocation reported by mallinfo(arena+hblkhd)
         97523 MiB available memory on the node where the printing process lives
------------------
     ethr =  1.00E-06,  avg # of iterations =  1.0

     Threshold (ethr) on eigenvalues was too large:
     Diagonalizing with lowered threshold

     Davidson diagonalization with overlap

---- Real-time Memory Report at c_bands before calling an iterative solver
           112 MiB given to the printing process from OS
            34 MiB allocation reported by mallinfo(arena+hblkhd)
         97523 MiB available memory on the node where the printing process lives
------------------
     ethr =  2.49E-14,  avg # of iterations =  3.3

     negative rho (up, down):  7.345E-04 0.000E+00

     total cpu time spent up to now is        1.2 secs

     total energy              =     -39.50178435 Ry
     estimated scf accuracy    <          8.8E-13 Ry

     iteration #  2     ecut=    38.00 Ry     beta= 0.70
     Davidson diagonalization with overlap

---- Real-time Memory Report at c_bands before calling an iterative solver
           113 MiB given to the printing process from OS
            34 MiB allocation reported by mallinfo(arena+hblkhd)
         97523 MiB available memory on the node where the printing process lives
------------------
     ethr =  1.00E-13,  avg # of iterations =  2.0

     negative rho (up, down):  7.345E-04 0.000E+00

     total cpu time spent up to now is        1.3 secs

     total energy              =     -39.50178435 Ry
     estimated scf accuracy    <          1.9E-13 Ry

     iteration #  3     ecut=    38.00 Ry     beta= 0.70
     Davidson diagonalization with overlap

---- Real-time Memory Report at c_bands before calling an iterative solver
           113 MiB given to the printing process from OS
            34 MiB allocation reported by mallinfo(arena+hblkhd)
         97523 MiB available memory on the node where the printing process lives
------------------
     ethr =  1.00E-13,  avg # of iterations =  1.0

     negative rho (up, down):  7.345E-04 0.000E+00

     total cpu time spent up to now is        1.3 secs

     total energy              =     -39.50178435 Ry
     estimated scf accuracy    <          2.1E-14 Ry

     iteration #  4     ecut=    38.00 Ry     beta= 0.70
     Davidson diagonalization with overlap

---- Real-time Memory Report at c_bands before calling an iterative solver
           113 MiB given to the printing process from OS
            34 MiB allocation reported by mallinfo(arena+hblkhd)
         97523 MiB available memory on the node where the printing process lives
------------------
     ethr =  1.00E-13,  avg # of iterations =  1.0

     negative rho (up, down):  7.345E-04 0.000E+00

     total cpu time spent up to now is        1.4 secs

     total energy              =     -39.50178435 Ry
     estimated scf accuracy    <          8.9E-18 Ry

     iteration #  5     ecut=    38.00 Ry     beta= 0.70
     Davidson diagonalization with overlap

---- Real-time Memory Report at c_bands before calling an iterative solver
           113 MiB given to the printing process from OS
            34 MiB allocation reported by mallinfo(arena+hblkhd)
         97523 MiB available memory on the node where the printing process lives
------------------
     ethr =  1.00E-13,  avg # of iterations =  1.1

     negative rho (up, down):  7.345E-04 0.000E+00

     total cpu time spent up to now is        1.4 secs

     total energy              =     -39.50178435 Ry
     estimated scf accuracy    <          1.2E-18 Ry

     iteration #  6     ecut=    38.00 Ry     beta= 0.70
     Davidson diagonalization with overlap

---- Real-time Memory Report at c_bands before calling an iterative solver
           113 MiB given to the printing process from OS
            34 MiB allocation reported by mallinfo(arena+hblkhd)
         97523 MiB available memory on the node where the printing process lives
------------------
     ethr =  1.00E-13,  avg # of iterations =  1.0

     negative rho (up, down):  7.345E-04 0.000E+00

     total cpu time spent up to now is        1.4 secs

     End of self-consistent calculation

          k =-0.0295 0.0295 0.0295 (   441 PWs)   bands (ev):

    -3.1443  19.5967  20.4026  20.4026  22.3523  22.3525

     occupation numbers 
     1.0000  -0.0000  -0.0000  -0.0000  -0.0000  -0.0000

          k =-0.0884 0.0884-0.0295 (   437 PWs)   bands (ev):

    -2.8925  17.4012  18.7943  20.6395  22.5089  23.0152

     occupation numbers 
     1.0000  -0.0000  -0.0000  -0.0000  -0.0000  -0.0000

          k =-0.1473 0.1473-0.0884 (   447 PWs)   bands (ev):

    -2.2648  14.0891  18.0651  20.0999  22.8641  23.1464

     occupation numbers 
     1.0000  -0.0000  -0.0000  -0.0000  -0.0000  -0.0000

          k =-0.2062 0.2062-0.1473 (   443 PWs)   bands (ev):

    -1.2662  10.9303  17.6528  19.7293  21.6822  22.6435

     occupation numbers 
     1.0000  -0.0000  -0.0000  -0.0000  -0.0000  -0.0000

          k =-0.2652 0.2652-0.2062 (   437 PWs)   bands (ev):

     0.0958   8.0327  17.5583  19.6464  20.3155  21.5439

     occupation numbers 
     1.0000   0.4321  -0.0000  -0.0000  -0.0000  -0.0000

          k =-0.3241 0.3241-0.2652 (   433 PWs)   bands (ev):

     1.8108   5.4345  17.7860  19.2287  19.8887  20.4676

     occupation numbers 
     1.0000   1.0000  -0.0000  -0.0000  -0.0000  -0.0000

          k = 0.3241-0.3241 0.3830 (   438 PWs)   bands (ev):

     3.1329   3.8910  18.3373  18.4739  19.6974  20.4294

     occupation numbers 
     1.0000   1.0000  -0.0000  -0.0000  -0.0000  -0.0000

          k = 0.2652-0.2652 0.3241 (   432 PWs)   bands (ev):

     1.2008   6.2658  18.0361  19.2048  19.2518  21.2856

     occupation numbers 
     1.0000   1.0000  -0.0000  -0.0000  -0.0000  -0.0000

          k = 0.2062-0.2062 0.2652 (   438 PWs)   bands (ev):

    -0.3980   8.9671  17.9172  19.1114  20.3985  22.4422

     occupation numbers 
     1.0000  -0.0000  -0.0000  -0.0000  -0.0000  -0.0000

          k = 0.1473-0.1473 0.2062 (   445 PWs)   bands (ev):

    -1.6399  11.9585  18.1150  19.2861  21.8617  22.9302

     occupation numbers 
     1.0000  -0.0000  -0.0000  -0.0000  -0.0000  -0.0000

          k = 0.0884-0.0884 0.1473 (   444 PWs)   bands (ev):

    -2.5155  15.1930  18.6239  19.7257  22.9373  23.2811

     occupation numbers 
     1.0000  -0.0000  -0.0000  -0.0000  -0.0000  -0.0000

          k = 0.0295-0.0295 0.0884 (   435 PWs)   bands (ev):

    -3.0183  18.5262  19.4251  20.1633  22.0165  23.2556

     occupation numbers 
     1.0000  -0.0000  -0.0000  -0.0000  -0.0000  -0.0000

          k =-0.0295 0.1473 0.0295 (   437 PWs)   bands (ev):

    -2.7667  17.4582  18.4014  19.3041  21.4975  23.7135

     occupation numbers 
     1.0000  -0.0000  -0.0000  -0.0000  -0.0000  -0.0000

          k =-0.0884 0.2062-0.0295 (   448 PWs)   bands (ev):

    -2.2648  15.2937  16.8999  19.5056  21.4179  21.9484

     occupation numbers 
     1.0000  -0.0000  -0.0000  -0.0000  -0.0000  -0.0000

          k =-0.1473 0.2652-0.0884 (   443 PWs)   bands (ev):

    -1.3907  12.1548  16.3211  19.3105  19.7584  23.3846

     occupation numbers 
     1.0000  -0.0000  -0.0000  -0.0000  -0.0000  -0.0000

          k =-0.2062 0.3241-0.1473 (   440 PWs)   bands (ev):

    -0.1510   9.1887  16.1011  18.2239  19.1933  23.4739

     occupation numbers 
     1.0000  -0.0000  -0.0000  -0.0000  -0.0000  -0.0000

          k =-0.2652 0.3830-0.2062 (   438 PWs)   bands (ev):

     1.4447   6.4986  16.2060  17.0145  19.3482  22.3264

     occupation numbers 
     1.0000   1.0000  -0.0000  -0.0000  -0.0000  -0.0000

          k = 0.3830-0.2652 0.4419 (   442 PWs)   bands (ev):

     3.3712   4.1318  16.0803  16.6923  19.8166  21.4639

     occupation numbers 
     1.0000   1.0000  -0.0000  -0.0000  -0.0000  -0.0000

          k = 0.3241-0.2062 0.3830 (   440 PWs)   bands (ev):

     2.0535   5.6689  15.5353  17.4514  20.5681  20.9478

     occupation numbers 
     1.0000   1.0000  -0.0000  -0.0000  -0.0000  -0.0000

          k = 0.2652-0.1473 0.3241 (   436 PWs)   bands (ev):

     0.3420   8.2556  15.3159  18.5469  20.6315  21.7413

     occupation numbers 
     1.0000  -0.0114  -0.0000  -0.0000  -0.0000  -0.0000

          k = 0.2062-0.0884 0.2652 (   443 PWs)   bands (ev):

    -1.0176  11.1259  15.4419  19.9473  20.6886  23.0985

     occupation numbers 
     1.0000  -0.0000  -0.0000  -0.0000  -0.0000  -0.0000

          k = 0.1473-0.0295 0.2062 (   445 PWs)   bands (ev):

    -2.0145  14.1671  15.9781  20.8591  21.5927  22.9518

     occupation numbers 
     1.0000  -0.0000  -0.0000  -0.0000  -0.0000  -0.0000

          k = 0.0884 0.0295 0.1473 (   441 PWs)   bands (ev):

    -2.6411  16.3047  17.8333  20.3044  22.2190  23.7935

     occupation numbers 
     1.0000  -0.0000  -0.0000  -0.0000  -0.0000  -0.0000

          k =-0.0295 0.2652 0.0295 (   441 PWs)   bands (ev):

    -1.8895  15.5634  16.6019  17.4727  19.3911  20.2257

     occupation numbers 
     1.0000  -0.0000  -0.0000  -0.0000  -0.0000  -0.0000

          k =-0.0884 0.3241-0.0295 (   441 PWs)   bands (ev):

    -1.1419  13.5809  15.2835  17.4066  17.9109  20.4686

     occupation numbers 
     1.0000  -0.0000  -0.0000  -0.0000  -0.0000  -0.0000

          k =-0.1473 0.3830-0.0884 (   444 PWs)   bands (ev):

    -0.0280  10.6495  14.8823  15.7466  17.9832  22.2511

     occupation numbers 
     1.0000  -0.0000  -0.0000  -0.0000  -0.0000  -0.0000

          k =-0.2062 0.4419-0.1473 (   439 PWs)   bands (ev):

     1.4435   7.8966  14.3135  14.9526  18.0967  24.4561

     occupation numbers 
     1.0000   0.8228  -0.0000  -0.0000  -0.0000  -0.0000

          k = 0.4419-0.2062 0.5008 (   436 PWs)   bands (ev):

     3.2573   5.4310  13.3208  15.2570  18.4886  23.9175

     occupation numbers 
     1.0000   1.0000  -0.0000  -0.0000  -0.0000  -0.0000

          k = 0.3830-0.1473 0.4419 (   437 PWs)   bands (ev):

     3.2602   5.4220  12.6508  15.9196  19.1990  23.2746

     occupation numbers 
     1.0000   1.0000  -0.0000  -0.0000  -0.0000  -0.0000

          k = 0.3241-0.0884 0.3830 (   435 PWs)   bands (ev):

     1.4445   7.8644  12.3466  16.9145  20.2258  22.9146

     occupation numbers 
     1.0000   0.8901  -0.0000  -0.0000  -0.0000  -0.0000

          k = 0.2652-0.0295 0.3241 (   439 PWs)   bands (ev):

    -0.0276  10.4786  12.5225  18.2312  21.5363  22.7306

     occupation numbers 
     1.0000  -0.0000  -0.0000  -0.0000  -0.0000  -0.0000

          k = 0.2062 0.0295 0.2652 (   445 PWs)   bands (ev):

    -1.1419  12.2156  14.1823  19.8481  21.6748  22.9952

     occupation numbers 
     1.0000  -0.0000  -0.0000  -0.0000  -0.0000  -0.0000

          k = 0.1473 0.0884 0.2062 (   444 PWs)   bands (ev):

    -1.8895  13.0711  17.1695  19.9415  21.7166  23.6143

     occupation numbers 
     1.0000  -0.0000  -0.0000  -0.0000  -0.0000  -0.0000

          k =-0.0295 0.3830 0.0295 (   437 PWs)   bands (ev):

    -0.5221  14.0758  15.2117  15.2526  16.0021  18.9813

     occupation numbers 
     1.0000  -0.0000  -0.0000  -0.0000  -0.0000  -0.0000

          k =-0.0884 0.4419-0.0295 (   440 PWs)   bands (ev):

     0.4635  12.3039  13.3997  14.1413  16.6632  19.3810

     occupation numbers 
     1.0000  -0.0000  -0.0000  -0.0000  -0.0000  -0.0000

          k =-0.1473 0.5008-0.0884 (   438 PWs)   bands (ev):

     1.8062   9.5927  11.9457  13.9382  16.9752  21.3746

     occupation numbers 
     1.0000  -0.0000  -0.0000  -0.0000  -0.0000  -0.0000

          k = 0.5008-0.1473 0.5598 (   440 PWs)   bands (ev):

     3.4904   7.0675  10.8050  14.1463  17.3231  23.9741

     occupation numbers 
     1.0000   1.0000  -0.0000  -0.0000  -0.0000  -0.0000

          k = 0.4419-0.0884 0.5008 (   438 PWs)   bands (ev):

     4.7959   5.5241  10.0315  14.7005  17.9504  25.8744

     occupation numbers 
     1.0000   1.0000  -0.0000  -0.0000  -0.0000  -0.0000

          k = 0.3830-0.0295 0.4419 (   436 PWs)   bands (ev):

     2.9001   7.6846   9.7538  15.5896  18.8927  25.4314

     occupation numbers 
     1.0000   1.0354  -0.0000  -0.0000  -0.0000  -0.0000

          k = 0.3241 0.0295 0.3830 (   433 PWs)   bands (ev):

     1.3223   8.9667  11.0380  16.8060  20.1360  23.9788

     occupation numbers 
     1.0000  -0.0000  -0.0000  -0.0000  -0.0000  -0.0000

          k = 0.2652 0.0884 0.3241 (   441 PWs)   bands (ev):

     0.0957   9.3859  13.8105  18.3372  21.4952  21.8153

     occupation numbers 
     1.0000  -0.0000  -0.0000  -0.0000  -0.0000  -0.0000

          k = 0.2062 0.1473 0.2652 (   442 PWs)   bands (ev):

    -0.7695  10.0048  16.8506  19.6942  20.1521  22.9948

     occupation numbers 
     1.0000  -0.0000  -0.0000  -0.0000  -0.0000  -0.0000

          k =-0.0295 0.5008 0.0295 (   443 PWs)   bands (ev):

     1.3185  11.4624  13.0450  14.2474  14.9541  18.0299

     occupation numbers 
     1.0000  -0.0000  -0.0000  -0.0000  -0.0000  -0.0000

          k =-0.0884 0.5598-0.0295 (   443 PWs)   bands (ev):

     2.5267   9.8338  11.5119  13.3339  15.8603  18.6412

     occupation numbers 
     1.0000  -0.0000  -0.0000  -0.0000  -0.0000  -0.0000

          k = 0.5598-0.0884 0.6187 (   441 PWs)   bands (ev):

     4.0632   8.5101   9.1105  13.3747  16.4004  20.8636

     occupation numbers 
     1.0000  -0.0131  -0.0000  -0.0000  -0.0000  -0.0000

          k = 0.5008-0.0295 0.5598 (   436 PWs)   bands (ev):

     5.8019   6.6765   7.8832  13.8106  16.9823  23.7018

     occupation numbers 
     1.0000   1.0000   0.8525  -0.0000  -0.0000  -0.0000

          k = 0.4419 0.0295 0.5008 (   439 PWs)   bands (ev):

     4.6919   6.6360   8.6893  14.5893  17.8398  26.5791

     occupation numbers 
     1.0000   1.0000  -0.0012  -0.0000  -0.0000  -0.0000

          k = 0.3830 0.0884 0.4419 (   438 PWs)   bands (ev):

     3.0205   6.5698  11.0809  15.6997  18.9966  24.3324

     occupation numbers 
     1.0000   1.0000  -0.0000  -0.0000  -0.0000  -0.0000

          k = 0.3241 0.1473 0.3830 (   437 PWs)   bands (ev):

     1.6885   6.7244  13.8929  17.1306  20.3915  21.8666

     occupation numbers 
     1.0000   1.0000  -0.0000  -0.0000  -0.0000  -0.0000

          k = 0.2652 0.2062 0.3241 (   437 PWs)   bands (ev):

     0.7107   7.2086  16.8584  18.8509  19.7314  21.7322

     occupation numbers 
     1.0000   1.0001  -0.0000  -0.0000  -0.0000  -0.0000

          k =-0.0295 0.6187 0.0295 (   451 PWs)   bands (ev):

     3.5856   8.1095  12.4610  13.7121  14.3734  17.4730

     occupation numbers 
     1.0000   0.2143  -0.0000  -0.0000  -0.0000  -0.0000

          k = 0.6187-0.0295 0.6776 (   448 PWs)   bands (ev):

     4.8738   6.8400  11.1589  12.9986  15.5147  18.3140

     occupation numbers 
     1.0000   1.0000  -0.0000  -0.0000  -0.0000  -0.0000

          k = 0.5598 0.0295 0.6187 (   438 PWs)   bands (ev):

     5.2244   7.1863   8.9391  13.2625  16.2846  20.7599

     occupation numbers 
     1.0000   1.0001  -0.0000  -0.0000  -0.0000  -0.0000

          k = 0.5008 0.0884 0.5598 (   439 PWs)   bands (ev):

     4.6556   6.8257   9.2146  13.9225  17.0964  23.7940

     occupation numbers 
     1.0000   1.0000  -0.0000  -0.0000  -0.0000  -0.0000

          k = 0.4419 0.1473 0.5008 (   439 PWs)   bands (ev):

     4.3131   5.0880  11.6165  14.9229  18.1687  24.8666

     occupation numbers 
     1.0000   1.0000  -0.0000  -0.0000  -0.0000  -0.0000

          k = 0.3830 0.2062 0.4419 (   441 PWs)   bands (ev):

     3.6099   4.3700  14.3338  16.2488  19.4851  22.3122

     occupation numbers 
     1.0000   1.0000  -0.0000  -0.0000  -0.0000  -0.0000

          k = 0.3241 0.2652 0.3830 (   439 PWs)   bands (ev):

     2.5379   4.7195  17.1895  17.8690  20.0722  20.7628

     occupation numbers 
     1.0000   1.0000  -0.0000  -0.0000  -0.0000  -0.0000

          k =-0.0295-0.6776 0.0295 (   445 PWs)   bands (ev):

     4.7568   6.7204  12.3443  13.6051  14.2573  17.3599

     occupation numbers 
     1.0000   1.0000  -0.0000  -0.0000  -0.0000  -0.0000

          k =-0.0884-0.6187-0.0295 (   447 PWs)   bands (ev):

     3.7052   8.2250  11.2761  13.1102  15.6300  18.4235

     occupation numbers 
     1.0000   0.0132  -0.0000  -0.0000  -0.0000  -0.0000

          k =-0.1473-0.5598-0.0884 (   439 PWs)   bands (ev):

     2.8891   9.2181  10.2430  13.5994  16.6312  21.0698

     occupation numbers 
     1.0000  -0.0000  -0.0000  -0.0000  -0.0000  -0.0000

          k =-0.2062-0.5008-0.1473 (   437 PWs)   bands (ev):

     2.4134   7.4239  12.5203  14.4836  17.6592  24.2266

     occupation numbers 
     1.0000   1.0047  -0.0000  -0.0000  -0.0000  -0.0000

          k =-0.2652-0.4419-0.2062 (   437 PWs)   bands (ev):

     2.2952   5.9051  15.0995  15.7164  18.8943  23.0651

     occupation numbers 
     1.0000   1.0000  -0.0000  -0.0000  -0.0000  -0.0000

          k =-0.0295-0.5598 0.0295 (   446 PWs)   bands (ev):

     2.4057   9.7246  12.6945  13.9262  14.6057  17.6981

     occupation numbers 
     1.0000  -0.0000  -0.0000  -0.0000  -0.0000  -0.0000

          k =-0.0884-0.5008-0.0295 (   439 PWs)   bands (ev):

     1.4406  11.5336  11.8929  13.6712  16.2052  18.9625

     occupation numbers 
     1.0000  -0.0000  -0.0000  -0.0000  -0.0000  -0.0000

          k =-0.1473-0.4419-0.0884 (   445 PWs)   bands (ev):

     0.8318  10.0652  13.7437  14.4119  17.4279  21.7713

     occupation numbers 
     1.0000  -0.0000  -0.0000  -0.0000  -0.0000  -0.0000

          k =-0.2062-0.3830-0.1473 (   439 PWs)   bands (ev):

     0.5875   8.4853  15.4317  16.2859  18.6208  24.0691

     occupation numbers 
     1.0000  -0.0167  -0.0000  -0.0000  -0.0000  -0.0000

          k =-0.0295-0.4419 0.0295 (   439 PWs)   bands (ev):

     0.3406  13.2830  13.5323  14.6759  15.4185  18.4611

     occupation numbers 
     1.0000  -0.0000  -0.0000  -0.0000  -0.0000  -0.0000

          k =-0.0884-0.3830-0.0295 (   441 PWs)   bands (ev):

    -0.3984  12.8881  14.6036  15.4172  17.2323  19.8873

     occupation numbers 
     1.0000  -0.0000  -0.0000  -0.0000  -0.0000  -0.0000

          k =-0.1473-0.3241-0.0884 (   443 PWs)   bands (ev):

    -0.7696  11.3465  15.5594  17.7210  18.6265  22.7985

     occupation numbers 
     1.0000  -0.0000  -0.0000  -0.0000  -0.0000  -0.0000

          k =-0.0295-0.3241 0.0295 (   442 PWs)   bands (ev):

    -1.2663  14.7663  15.8539  16.6698  17.3004  19.5757

     occupation numbers 
     1.0000  -0.0000  -0.0000  -0.0000  -0.0000  -0.0000

          k =-0.0884-0.2652-0.0295 (   440 PWs)   bands (ev):

    -1.7646  14.3837  16.0456  18.6697  19.4891  21.1114

     occupation numbers 
     1.0000  -0.0000  -0.0000  -0.0000  -0.0000  -0.0000

          k =-0.0295-0.2062 0.0295 (   447 PWs)   bands (ev):

    -2.3901  16.4634  17.4531  18.3613  20.8631  21.5679

     occupation numbers 
     1.0000  -0.0000  -0.0000  -0.0000  -0.0000  -0.0000

          k =-0.0884 0.0884 0.0884 (   432 PWs)   bands (ev):

    -2.7667  16.2890  19.6514  19.6514  22.6947  23.6282

     occupation numbers 
     1.0000  -0.0000  -0.0000  -0.0000  -0.0000  -0.0000

          k =-0.1473 0.1473 0.0295 (   445 PWs)   bands (ev):

    -2.3901  15.1895  16.9047  21.1084  22.6041  23.4973

     occupation numbers 
     1.0000  -0.0000  -0.0000  -0.0000  -0.0000  -0.0000

          k =-0.2062 0.2062-0.0295 (   449 PWs)   bands (ev):

    -1.6399  13.1375  15.0484  21.2628  21.8698  23.2760

     occupation numbers 
     1.0000  -0.0000  -0.0000  -0.0000  -0.0000  -0.0000

          k =-0.2652 0.2652-0.0884 (   437 PWs)   bands (ev):

    -0.5217  10.2009  14.5861  19.7464  21.6983  21.7001

     occupation numbers 
     1.0000  -0.0000  -0.0000  -0.0000  -0.0000  -0.0000

          k =-0.3241 0.3241-0.1473 (   437 PWs)   bands (ev):

     0.9558   7.4330  14.5620  18.4685  20.3643  21.7296

     occupation numbers 
     1.0000   1.0053  -0.0000  -0.0000  -0.0000  -0.0000

          k = 0.3241-0.3241 0.5008 (   445 PWs)   bands (ev):

     2.7792   4.9554  14.8934  17.4973  19.3310  22.0610

     occupation numbers 
     1.0000   1.0000  -0.0000  -0.0000  -0.0000  -0.0000

          k = 0.2652-0.2652 0.4419 (   441 PWs)   bands (ev):

     2.7785   4.9576  15.5668  16.8460  18.6225  22.7024

     occupation numbers 
     1.0000   1.0000  -0.0000  -0.0000  -0.0000  -0.0000

          k = 0.2062-0.2062 0.3830 (   434 PWs)   bands (ev):

     0.9555   7.4399  16.5166  16.5728  18.2480  23.6446

     occupation numbers 
     1.0000   1.0058  -0.0000  -0.0000  -0.0000  -0.0000

          k = 0.1473-0.1473 0.3241 (   439 PWs)   bands (ev):

    -0.5218  10.2254  16.5087  17.8649  18.2305  24.0944

     occupation numbers 
     1.0000  -0.0000  -0.0000  -0.0000  -0.0000  -0.0000

          k = 0.0884-0.0884 0.2652 (   447 PWs)   bands (ev):

    -1.6399  13.2709  16.8213  18.3380  19.5839  22.1257

     occupation numbers 
     1.0000  -0.0000  -0.0000  -0.0000  -0.0000  -0.0000

          k =-0.0884 0.2062 0.0884 (   452 PWs)   bands (ev):

    -2.1396  14.1818  17.6739  19.1158  21.5960  22.8547

     occupation numbers 
     1.0000  -0.0000  -0.0000  -0.0000  -0.0000  -0.0000

          k =-0.1473 0.2652 0.0295 (   445 PWs)   bands (ev):

    -1.5152  13.2498  15.1191  19.6625  20.1654  22.3143

     occupation numbers 
     1.0000  -0.0000  -0.0000  -0.0000  -0.0000  -0.0000

          k =-0.2062 0.3241-0.0295 (   437 PWs)   bands (ev):

    -0.5218  11.4055  13.4037  17.9220  21.0778  22.9201

     occupation numbers 
     1.0000  -0.0000  -0.0000  -0.0000  -0.0000  -0.0000

          k =-0.2652 0.3830-0.0884 (   439 PWs)   bands (ev):

     0.8329   8.6839  13.1308  16.4802  21.2039  22.1751

     occupation numbers 
     1.0000  -0.0013  -0.0000  -0.0000  -0.0000  -0.0000

          k = 0.3830-0.2652 0.5598 (   436 PWs)   bands (ev):

     2.5375   6.1323  13.3187  15.3660  20.9807  21.6048

     occupation numbers 
     1.0000   1.0000  -0.0000  -0.0000  -0.0000  -0.0000

          k = 0.3241-0.2062 0.5008 (   438 PWs)   bands (ev):

     3.8456   4.6104  13.8403  14.6159  20.2309  22.1327

     occupation numbers 
     1.0000   1.0000  -0.0000  -0.0000  -0.0000  -0.0000

          k = 0.2652-0.1473 0.4419 (   437 PWs)   bands (ev):

     1.9309   6.9587  14.0511  14.8649  19.7496  22.9887

     occupation numbers 
     1.0000   1.0000  -0.0000  -0.0000  -0.0000  -0.0000

          k = 0.2062-0.0884 0.3830 (   436 PWs)   bands (ev):

     0.3416   9.6144  13.9959  16.0712  19.5466  23.5573

     occupation numbers 
     1.0000  -0.0000  -0.0000  -0.0000  -0.0000  -0.0000

          k = 0.1473-0.0295 0.3241 (   442 PWs)   bands (ev):

    -0.8936  12.4426  14.3481  17.6287  19.4432  21.7221

     occupation numbers 
     1.0000  -0.0000  -0.0000  -0.0000  -0.0000  -0.0000

          k =-0.0884 0.3241 0.0884 (   442 PWs)   bands (ev):

    -1.0177  12.4668  16.0722  17.3990  17.7101  21.4829

     occupation numbers 
     1.0000  -0.0000  -0.0000  -0.0000  -0.0000  -0.0000

          k =-0.1473 0.3830 0.0295 (   441 PWs)   bands (ev):

    -0.1513  11.7477  13.6687  15.6397  18.7915  21.1737

     occupation numbers 
     1.0000  -0.0000  -0.0000  -0.0000  -0.0000  -0.0000

          k =-0.2062 0.4419-0.0295 (   438 PWs)   bands (ev):

     1.0768  10.1268  12.1319  14.0706  19.9333  22.1383

     occupation numbers 
     1.0000  -0.0000  -0.0000  -0.0000  -0.0000  -0.0000

          k = 0.4419-0.2062 0.6187 (   437 PWs)   bands (ev):

     2.6556   7.6255  12.0244  12.8737  20.3449  23.5746

     occupation numbers 
     1.0000   1.0312  -0.0000  -0.0000  -0.0000  -0.0000

          k = 0.3830-0.1473 0.5598 (   436 PWs)   bands (ev):

     4.5507   5.3178  11.7712  12.6423  20.8630  22.8458

     occupation numbers 
     1.0000   1.0000  -0.0000  -0.0000  -0.0000  -0.0000

          k = 0.3241-0.0884 0.5008 (   432 PWs)   bands (ev):

     3.2586   6.8045  11.2889  13.3771  21.6067  22.2964

     occupation numbers 
     1.0000   1.0000  -0.0000  -0.0000  -0.0000  -0.0000

          k = 0.2652-0.0295 0.4419 (   435 PWs)   bands (ev):

     1.5655   9.1984  11.2504  14.5012  21.7149  22.6685

     occupation numbers 
     1.0000  -0.0000  -0.0000  -0.0000  -0.0000  -0.0000

          k = 0.2062 0.0295 0.3830 (   437 PWs)   bands (ev):

     0.2185  10.7089  12.7211  15.9622  20.4695  22.5507

     occupation numbers 
     1.0000  -0.0000  -0.0000  -0.0000  -0.0000  -0.0000

          k =-0.0884 0.4419 0.0884 (   441 PWs)   bands (ev):

     0.5864  11.1888  13.5549  14.8927  16.3621  20.4054

     occupation numbers 
     1.0000  -0.0000  -0.0000  -0.0000  -0.0000  -0.0000

          k =-0.1473 0.5008 0.0295 (   440 PWs)   bands (ev):

     1.6844  10.6931  11.7681  12.7728  17.7846  20.2910

     occupation numbers 
     1.0000  -0.0000  -0.0000  -0.0000  -0.0000  -0.0000

          k = 0.5008-0.1473 0.6776 (   438 PWs)   bands (ev):

     3.1302   9.3007  10.3695  11.4831  19.1596  21.4887

     occupation numbers 
     1.0000  -0.0000  -0.0000  -0.0000  -0.0000  -0.0000

          k = 0.4419-0.0884 0.6187 (   437 PWs)   bands (ev):

     4.8931   7.0302   9.4227  11.5961  19.8140  23.9651

     occupation numbers 
     1.0000   1.0000  -0.0000  -0.0000  -0.0000  -0.0000

          k = 0.3830-0.0295 0.5598 (   436 PWs)   bands (ev):

     4.9215   6.8687   8.9128  12.2376  20.5652  24.8770

     occupation numbers 
     1.0000   1.0000  -0.0000  -0.0000  -0.0000  -0.0000

          k = 0.3241 0.0295 0.5008 (   434 PWs)   bands (ev):

     3.1385   7.9169   9.9734  13.2558  21.5605  23.2253

     occupation numbers 
     1.0000   0.7735  -0.0000  -0.0000  -0.0000  -0.0000

          k = 0.2652 0.0884 0.4419 (   436 PWs)   bands (ev):

     1.6874   8.0968  12.5487  14.6176  20.7493  22.8430

     occupation numbers 
     1.0000   0.2467  -0.0000  -0.0000  -0.0000  -0.0000

          k =-0.0884 0.5598 0.0884 (   443 PWs)   bands (ev):

     2.6476   9.8981  10.4588  14.1422  15.5326  19.6782

     occupation numbers 
     1.0000  -0.0000  -0.0000  -0.0000  -0.0000  -0.0000

          k = 0.5598-0.0884 0.7365 (   441 PWs)   bands (ev):

     3.9440   8.4520  10.1366  12.1519  17.2168  19.7741

     occupation numbers 
     1.0000  -0.0221  -0.0000  -0.0000  -0.0000  -0.0000

          k = 0.5008-0.0295 0.6776 (   439 PWs)   bands (ev):

     5.4581   7.4246   8.9819  11.0714  18.8228  21.1934

     occupation numbers 
     1.0000   1.0047  -0.0000  -0.0000  -0.0000  -0.0000

          k = 0.4419 0.0295 0.6187 (   438 PWs)   bands (ev):

     6.0355   6.8851   8.1018  11.4697  19.7054  23.9044

     occupation numbers 
     1.0000   1.0000   0.2336  -0.0000  -0.0000  -0.0000

          k = 0.3830 0.0884 0.5598 (   433 PWs)   bands (ev):

     5.0251   5.7602  10.2417  12.3619  20.6669  23.8627

     occupation numbers 
     1.0000   1.0000  -0.0000  -0.0000  -0.0000  -0.0000

          k = 0.3241 0.1473 0.5008 (   439 PWs)   bands (ev):

     3.4976   5.6593  12.8092  13.6450  21.1222  21.9361

     occupation numbers 
     1.0000   1.0000  -0.0000  -0.0000  -0.0000  -0.0000

          k =-0.0884-0.7365 0.0884 (   445 PWs)   bands (ev):

     4.9908   6.9577  10.0542  13.8208  15.1727  19.3581

     occupation numbers 
     1.0000   1.0000  -0.0000  -0.0000  -0.0000  -0.0000

          k =-0.1473-0.6776 0.0295 (   444 PWs)   bands (ev):

     5.1077   7.0773  10.0166  12.0348  17.1024  19.6688

     occupation numbers 
     1.0000   1.0000  -0.0000  -0.0000  -0.0000  -0.0000

          k =-0.2062-0.6187-0.0295 (   438 PWs)   bands (ev):

     4.3015   8.7466   9.1388  11.1989  18.9353  21.2928

     occupation numbers 
     1.0000  -0.0004  -0.0000  -0.0000  -0.0000  -0.0000

          k =-0.2652-0.5598-0.0884 (   439 PWs)   bands (ev):

     3.7305   7.2705  10.9554  11.8830  20.0289  23.9942

     occupation numbers 
     1.0000   1.0004  -0.0000  -0.0000  -0.0000  -0.0000

          k =-0.0884-0.6187 0.0884 (   445 PWs)   bands (ev):

     3.8246   8.3353  10.1770  13.9279  15.2930  19.4652

     occupation numbers 
     1.0000  -0.0353  -0.0000  -0.0000  -0.0000  -0.0000

          k =-0.1473-0.5598 0.0295 (   441 PWs)   bands (ev):

     2.7684  10.0156  10.4059  12.3894  17.4444  19.9828

     occupation numbers 
     1.0000  -0.0000  -0.0000  -0.0000  -0.0000  -0.0000

          k =-0.2062-0.5008-0.0295 (   438 PWs)   bands (ev):

     2.0494   9.6590  11.5670  12.3505  19.4936  21.7749

     occupation numbers 
     1.0000  -0.0000  -0.0000  -0.0000  -0.0000  -0.0000

          k =-0.0884-0.5008 0.0884 (   438 PWs)   bands (ev):

     1.5626  10.7055  11.7357  14.4638  15.8901  19.9937

     occupation numbers 
     1.0000  -0.0000  -0.0000  -0.0000  -0.0000  -0.0000

          k =-0.1473-0.4419 0.0295 (   441 PWs)   bands (ev):

     0.7091  11.1657  13.0359  13.7856  18.2354  20.6914

     occupation numbers 
     1.0000  -0.0000  -0.0000  -0.0000  -0.0000  -0.0000

          k =-0.0884-0.3830 0.0884 (   445 PWs)   bands (ev):

    -0.2748  11.7726  15.4289  15.4768  16.9466  20.9053

     occupation numbers 
     1.0000  -0.0000  -0.0000  -0.0000  -0.0000  -0.0000

          k =-0.1473 0.1473 0.1473 (   438 PWs)   bands (ev):

    -2.0145  12.9815  19.0685  19.0685  22.4348  23.4799

     occupation numbers 
     1.0000  -0.0000  -0.0000  -0.0000  -0.0000  -0.0000

          k =-0.2062 0.2062 0.0884 (   445 PWs)   bands (ev):

    -1.5152  12.0469  16.2920  20.7417  21.4919  23.1707

     occupation numbers 
     1.0000  -0.0000  -0.0000  -0.0000  -0.0000  -0.0000

          k =-0.2652 0.2652 0.0295 (   441 PWs)   bands (ev):

    -0.6456  11.2907  13.3086  19.6388  21.6595  22.7726

     occupation numbers 
     1.0000  -0.0000  -0.0000  -0.0000  -0.0000  -0.0000

          k =-0.3241 0.3241-0.0295 (   436 PWs)   bands (ev):

     0.5877   9.6652  11.7301  18.1426  20.1392  23.9222

     occupation numbers 
     1.0000  -0.0000  -0.0000  -0.0000  -0.0000  -0.0000

          k = 0.3241-0.3241 0.6187 (   439 PWs)   bands (ev):

     2.1746   7.1590  11.6608  16.9557  18.8737  24.1174

     occupation numbers 
     1.0000   1.0000  -0.0000  -0.0000  -0.0000  -0.0000

          k = 0.2652-0.2652 0.5598 (   440 PWs)   bands (ev):

     4.0858   4.8409  12.0809  16.0896  17.9199  24.5501

     occupation numbers 
     1.0000   1.0000  -0.0000  -0.0000  -0.0000  -0.0000

          k = 0.2062-0.2062 0.5008 (   440 PWs)   bands (ev):

     2.7762   6.3745  12.8717  15.5466  17.2972  25.2759

     occupation numbers 
     1.0000   1.0000  -0.0000  -0.0000  -0.0000  -0.0000

          k = 0.1473-0.1473 0.4419 (   437 PWs)   bands (ev):

     1.0768   8.9387  14.0092  15.3265  16.9986  23.1443

     occupation numbers 
     1.0000  -0.0000  -0.0000  -0.0000  -0.0000  -0.0000

          k =-0.1473 0.2652 0.1473 (   442 PWs)   bands (ev):

    -1.1419  11.0376  17.2599  18.8114  19.9383  24.1231

     occupation numbers 
     1.0000  -0.0000  -0.0000  -0.0000  -0.0000  -0.0000

          k =-0.2062 0.3241 0.0884 (   440 PWs)   bands (ev):

    -0.3981  10.3140  14.6727  18.0252  20.1316  23.4486

     occupation numbers 
     1.0000  -0.0000  -0.0000  -0.0000  -0.0000  -0.0000

          k =-0.2652 0.3830 0.0295 (   436 PWs)   bands (ev):

     0.7102   9.7809  11.8352  16.3714  21.9663  22.2953

     occupation numbers 
     1.0000  -0.0000  -0.0000  -0.0000  -0.0000  -0.0000

          k = 0.3830-0.2652 0.6776 (   432 PWs)   bands (ev):

     2.1739   8.3838  10.4520  15.0284  20.7560  23.6027

     occupation numbers 
     1.0000  -0.0328  -0.0000  -0.0000  -0.0000  -0.0000

          k = 0.3241-0.2062 0.6187 (   434 PWs)   bands (ev):

     3.9770   6.0994  10.6095  14.0166  19.7425  24.1150

     occupation numbers 
     1.0000   1.0000  -0.0000  -0.0000  -0.0000  -0.0000

          k = 0.2652-0.1473 0.5598 (   436 PWs)   bands (ev):

     3.9681   6.1310  11.2553  13.3530  19.0257  24.6650

     occupation numbers 
     1.0000   1.0000  -0.0000  -0.0000  -0.0000  -0.0000

          k = 0.2062-0.0884 0.5008 (   437 PWs)   bands (ev):

     2.1709   8.5575  12.2330  13.0874  18.5871  22.8772

     occupation numbers 
     1.0000  -0.0078  -0.0000  -0.0000  -0.0000  -0.0000

          k =-0.1473 0.3830 0.1473 (   439 PWs)   bands (ev):

     0.2185   9.5252  15.8639  15.9209  17.5602  23.5987

     occupation numbers 
     1.0000  -0.0000  -0.0000  -0.0000  -0.0000  -0.0000

          k =-0.2062 0.4419 0.0884 (   438 PWs)   bands (ev):

     1.1991   9.0287  13.3860  14.2107  19.0216  23.2252

     occupation numbers 
     1.0000  -0.0000  -0.0000  -0.0000  -0.0000  -0.0000

          k = 0.4419-0.2062 0.7365 (   437 PWs)   bands (ev):

     2.5346   8.7313  10.7617  12.7129  21.3027  23.0653

     occupation numbers 
     1.0000  -0.0006  -0.0000  -0.0000  -0.0000  -0.0000

          k = 0.3830-0.1473 0.6776 (   437 PWs)   bands (ev):

     4.2091   7.5663   9.5941  11.5792  22.4358  22.9544

     occupation numbers 
     1.0000   1.0215  -0.0000  -0.0000  -0.0000  -0.0000

          k = 0.3241-0.0884 0.6187 (   437 PWs)   bands (ev):

     5.4706   6.2269   9.9280  10.8737  21.6803  23.6578

     occupation numbers 
     1.0000   1.0000  -0.0000  -0.0000  -0.0000  -0.0000

          k = 0.2652-0.0295 0.5598 (   440 PWs)   bands (ev):

     3.6110   8.3792  10.2899  11.1183  20.9802  23.0046

     occupation numbers 
     1.0000  -0.0333  -0.0000  -0.0000  -0.0000  -0.0000

          k =-0.1473 0.5008 0.1473 (   438 PWs)   bands (ev):

     2.0494   8.4666  12.1834  14.8967  16.5368  22.7636

     occupation numbers 
     1.0000  -0.0196  -0.0000  -0.0000  -0.0000  -0.0000

          k = 0.5008-0.1473 0.7955 (   438 PWs)   bands (ev):

     3.2504   8.1994  10.5590  12.7007  18.2550  22.5969

     occupation numbers 
     1.0000   0.0425  -0.0000  -0.0000  -0.0000  -0.0000

          k = 0.4419-0.0884 0.7365 (   438 PWs)   bands (ev):

     4.7764   8.1366   9.2213  10.3652  20.7617  22.8698

     occupation numbers 
     1.0000   0.1511  -0.0000  -0.0000  -0.0000  -0.0000

          k = 0.3830-0.0295 0.6776 (   439 PWs)   bands (ev):

     6.5023   7.2047   8.4060   9.4882  22.5675  24.1561

     occupation numbers 
     1.0000   1.0001  -0.0297  -0.0000  -0.0000  -0.0000

          k = 0.3241 0.0295 0.6187 (   435 PWs)   bands (ev):

     5.3664   7.3313   9.2322  10.1216  22.6587  23.4612

     occupation numbers 
     1.0000   1.0012  -0.0000  -0.0000  -0.0000  -0.0000

          k =-0.1473-0.7955 0.1473 (   438 PWs)   bands (ev):

     4.3010   7.8429   8.8874  14.3598  15.9467  22.2706

     occupation numbers 
     1.0000   0.9274  -0.0000  -0.0000  -0.0000  -0.0000

          k =-0.2062-0.7365 0.0884 (   439 PWs)   bands (ev):

     5.5740   7.4459   7.9987  12.3462  17.9187  22.3061

     occupation numbers 
     1.0000   1.0062   0.5376  -0.0000  -0.0000  -0.0000

          k =-0.2652-0.6776 0.0295 (   436 PWs)   bands (ev):

     5.9243   7.7983   8.1348  10.1918  20.6518  22.7908

     occupation numbers 
     1.0000   0.9849   0.1552  -0.0000  -0.0000  -0.0000

          k =-0.1473-0.6776 0.1473 (   434 PWs)   bands (ev):

     5.4572   7.3270   7.9123  14.2525  15.8272  22.1703

     occupation numbers 
     1.0000   1.0011   0.7851  -0.0000  -0.0000  -0.0000

          k =-0.2062-0.6187 0.0884 (   440 PWs)   bands (ev):

     4.4200   7.9388   8.9914  12.4633  18.0312  22.4039

     occupation numbers 
     1.0000   0.7153  -0.0000  -0.0000  -0.0000  -0.0000

          k =-0.1473-0.5598 0.1473 (   439 PWs)   bands (ev):

     3.1300   8.1072  10.4626  14.5745  16.1842  22.4699

     occupation numbers 
     1.0000   0.2200  -0.0000  -0.0000  -0.0000  -0.0000

          k =-0.2062 0.2062 0.2062 (   432 PWs)   bands (ev):

    -0.8935   9.8974  18.7756  18.7756  22.0065  22.0065

     occupation numbers 
     1.0000  -0.0000  -0.0000  -0.0000  -0.0000  -0.0000

          k =-0.2652 0.2652 0.1473 (   441 PWs)   bands (ev):

    -0.2744   9.0752  16.0662  19.9547  20.6488  21.7205

     occupation numbers 
     1.0000  -0.0000  -0.0000  -0.0000  -0.0000  -0.0000

          k =-0.3241 0.3241 0.0884 (   436 PWs)   bands (ev):

     0.7105   8.5684  13.0296  18.2512  20.2203  22.8024

     occupation numbers 
     1.0000  -0.0068  -0.0000  -0.0000  -0.0000  -0.0000

          k = 0.3241-0.3241 0.7365 (   435 PWs)   bands (ev):

     2.0532   8.2677  10.3419  16.8475  18.7733  25.2746

     occupation numbers 
     1.0000  -0.0183  -0.0000  -0.0000  -0.0000  -0.0000

          k = 0.2652-0.2652 0.6776 (   439 PWs)   bands (ev):

     3.7412   7.1015   9.1646  15.7659  17.5918  26.8025

     occupation numbers 
     1.0000   1.0000  -0.0000  -0.0000  -0.0000  -0.0000

          k = 0.2062-0.2062 0.6187 (   441 PWs)   bands (ev):

     4.9978   5.7934   9.5648  15.0083  16.7273  25.2714

     occupation numbers 
     1.0000   1.0000  -0.0000  -0.0000  -0.0000  -0.0000

          k =-0.2062 0.3241 0.2062 (   439 PWs)   bands (ev):

     0.2189   8.1468  17.1633  18.4871  18.7898  22.9885

     occupation numbers 
     1.0000   0.1300  -0.0000  -0.0000  -0.0000  -0.0000

          k =-0.2652 0.3830 0.1473 (   437 PWs)   bands (ev):

     1.0779   7.5494  14.6484  16.6964  20.2123  22.2788

     occupation numbers 
     1.0000   1.0187  -0.0000  -0.0000  -0.0000  -0.0000

          k = 0.3830-0.2652 0.7955 (   431 PWs)   bands (ev):

     2.2952   7.2760  11.7672  15.1408  20.8435  22.5989

     occupation numbers 
     1.0000   1.0005  -0.0000  -0.0000  -0.0000  -0.0000

          k = 0.3241-0.2062 0.7365 (   435 PWs)   bands (ev):

     3.8590   7.2180   9.2774  13.9020  19.6391  25.1594

     occupation numbers 
     1.0000   1.0002  -0.0000  -0.0000  -0.0000  -0.0000

          k = 0.2652-0.1473 0.6776 (   442 PWs)   bands (ev):

     5.7340   6.2968   8.3324  13.0017  18.6999  25.2384

     occupation numbers 
     1.0000   1.0000  -0.0352  -0.0000  -0.0000  -0.0000

          k =-0.2062 0.4419 0.2062 (   439 PWs)   bands (ev):

     1.8092   6.8485  14.6844  15.9775  17.7347  24.4072

     occupation numbers 
     1.0000   1.0000  -0.0000  -0.0000  -0.0000  -0.0000

          k = 0.4419-0.2062 0.8544 (   439 PWs)   bands (ev):

     2.8970   6.4853  12.9264  13.7333  19.3432  23.8080

     occupation numbers 
     1.0000   1.0000  -0.0000  -0.0000  -0.0000  -0.0000

          k = 0.3830-0.1473 0.7955 (   438 PWs)   bands (ev):

     4.3266   6.4518  10.8651  11.7516  21.8460  22.6938

     occupation numbers 
     1.0000   1.0000  -0.0000  -0.0000  -0.0000  -0.0000

          k = 0.3241-0.0884 0.7365 (   438 PWs)   bands (ev):

     6.0601   6.6435   8.6499  10.6961  21.5838  24.6306

     occupation numbers 
     1.0000   1.0000  -0.0022  -0.0000  -0.0000  -0.0000

          k =-0.2062-0.8544 0.2062 (   439 PWs)   bands (ev):

     3.8484   6.0198  11.1563  15.2235  16.9579  25.4201

     occupation numbers 
     1.0000   1.0000  -0.0000  -0.0000  -0.0000  -0.0000

          k =-0.2652-0.7955 0.1473 (   437 PWs)   bands (ev):

     5.1161   5.9050   9.6742  13.1179  18.8094  25.1922

     occupation numbers 
     1.0000   1.0000  -0.0000  -0.0000  -0.0000  -0.0000

          k =-0.2062-0.7365 0.2062 (   440 PWs)   bands (ev):

     5.6219   6.1806   8.2184  14.9008  16.6108  25.1927

     occupation numbers 
     1.0000   1.0000   0.0200  -0.0000  -0.0000  -0.0000

          k =-0.2652 0.2652 0.2652 (   431 PWs)   bands (ev):

     0.5880   7.0938  18.7923  18.7923  20.7417  20.7417

     occupation numbers 
     1.0000   1.0000  -0.0000  -0.0000  -0.0000  -0.0000

          k =-0.3241 0.3241 0.2062 (   439 PWs)   bands (ev):

     1.3229   6.3813  16.1795  18.7944  20.5104  20.7554

     occupation numbers 
     1.0000   1.0000  -0.0000  -0.0000  -0.0000  -0.0000

          k = 0.3241-0.3241 0.8544 (   439 PWs)   bands (ev):

     2.4171   6.0141  13.2222  17.1723  19.0670  23.0386

     occupation numbers 
     1.0000   1.0000  -0.0000  -0.0000  -0.0000  -0.0000

          k = 0.2652-0.2652 0.7955 (   438 PWs)   bands (ev):

     3.8594   5.9814  10.5008  15.8738  17.7026  25.6291

     occupation numbers 
     1.0000   1.0000  -0.0000  -0.0000  -0.0000  -0.0000

          k =-0.2652 0.3830 0.2652 (   438 PWs)   bands (ev):

     1.9321   5.5526  17.3869  17.4040  19.0248  21.9394

     occupation numbers 
     1.0000   1.0000  -0.0000  -0.0000  -0.0000  -0.0000

          k = 0.3830-0.2652 0.9133 (   439 PWs)   bands (ev):

     2.8991   5.0746  14.9553  15.7143  20.5586  21.3191

     occupation numbers 
     1.0000   1.0000  -0.0000  -0.0000  -0.0000  -0.0000

          k = 0.3241-0.2062 0.8544 (   437 PWs)   bands (ev):

     4.2027   4.9606  12.1798  14.2478  19.9443  23.0781

     occupation numbers 
     1.0000   1.0000  -0.0000  -0.0000  -0.0000  -0.0000

          k =-0.2652-0.9133 0.2652 (   443 PWs)   bands (ev):

     3.7264   4.4924  13.7803  16.4136  18.2341  23.5733

     occupation numbers 
     1.0000   1.0000  -0.0000  -0.0000  -0.0000  -0.0000

          k =-0.3241 0.3241 0.3241 (   434 PWs)   bands (ev):

     2.4173   4.6006  19.1245  19.1245  19.7771  19.7771

     occupation numbers 
     1.0000   1.0000  -0.0000  -0.0000  -0.0000  -0.0000

          k = 0.3241-0.3241 0.9722 (   439 PWs)   bands (ev):

     3.2524   4.0112  16.6269  17.9313  19.6060  21.1913

     occupation numbers 
     1.0000   1.0000  -0.0000  -0.0000  -0.0000  -0.0000

     the Fermi energy is     8.0108 ev

!    total energy              =     -39.50178435 Ry
     total all-electron energy =       -39.501784 Ry
     estimated scf accuracy    <          4.7E-20 Ry
     smearing contrib. (-TS)   =      -0.00008844 Ry
     internal energy E=F+TS    =     -39.50169591 Ry

     The total energy is F=E-TS. E is the sum of the following terms:
     one-electron contribution =       3.16220107 Ry
     hartree contribution      =       0.00827452 Ry
     xc contribution           =      -2.10394223 Ry
     ewald contribution        =      -5.40758785 Ry
     one-center paw contrib.   =     -35.16064143 Ry
      -> PAW hartree energy AE =       0.30750680 Ry
      -> PAW hartree energy PS =      -0.29818072 Ry
      -> PAW xc energy AE      =     -36.02478214 Ry
      -> PAW xc energy PS      =       0.85481463 Ry
      -> total E_H with PAW    =       0.01760060 Ry
      -> total E_XC with PAW   =     -37.27390973 Ry

     convergence has been achieved in   6 iterations

     negative rho (up, down):  7.345E-04 0.000E+00

     Forces acting on atoms (cartesian axes, Ry/au):

     atom    1 type  1   force =     0.00000000    0.00000000    0.00000000
     The non-local contrib.  to forces
     atom    1 type  1   force =     0.00000000    0.00000000   -0.00000000
     The ionic contribution  to forces
     atom    1 type  1   force =     0.00000000    0.00000000    0.00000000
     The local contribution  to forces
     atom    1 type  1   force =    -0.00000000    0.00000000    0.00000000
     The core correction contribution to forces
     atom    1 type  1   force =     0.00000000   -0.00000000   -0.00000000
     The Hubbard contrib.    to forces
     atom    1 type  1   force =     0.00000000    0.00000000    0.00000000
     The SCF correction term to forces
     atom    1 type  1   force =    -0.00000000    0.00000000    0.00000000

     Total force =     0.000000     Total SCF correction =     0.000000


     Computing stress (Cartesian axis) and pressure


     negative rho (up, down):  7.345E-04 0.000E+00
          total   stress  (Ry/bohr**3)                   (kbar)     P=        0.07
   0.00000045   0.00000000  -0.00000000            0.07        0.00       -0.00
   0.00000000   0.00000045  -0.00000000            0.00        0.07       -0.00
  -0.00000000  -0.00000000   0.00000045           -0.00       -0.00        0.07

     kinetic stress (kbar)   1464.51     -0.00      0.00
                                0.00   1464.51      0.00
                               -0.00     -0.00   1464.51

     local   stress (kbar)    -47.03      0.00     -0.00
                                0.00    -47.03      0.00
                               -0.00      0.00    -47.03

     nonloc. stress (kbar)   1751.70      0.00     -0.00
                                0.00   1751.70     -0.00
                               -0.00     -0.00   1751.70

     hartree stress (kbar)      3.65      0.00     -0.00
                                0.00      3.65     -0.00
                               -0.00     -0.00      3.65

     exc-cor stress (kbar)    -86.36      0.00      0.00
                                0.00    -86.36     -0.00
                                0.00     -0.00    -86.36

     corecor stress (kbar)   -699.29     -0.00      0.00
                               -0.00   -699.29     -0.00
                                0.00     -0.00   -699.29

     ewald   stress (kbar)  -2387.12     -0.00      0.00
                               -0.00  -2387.12      0.00
                                0.00      0.00  -2387.12

     hubbard stress (kbar)      0.00      0.00      0.00
                                0.00      0.00      0.00
                                0.00      0.00      0.00

     DFT-D   stress (kbar)      0.00      0.00      0.00
                                0.00      0.00      0.00
                                0.00      0.00      0.00

     XDM     stress (kbar)      0.00      0.00      0.00
                                0.00      0.00      0.00
                                0.00      0.00      0.00

     dft-nl  stress (kbar)      0.00      0.00      0.00
                                0.00      0.00      0.00
                                0.00      0.00      0.00

     TS-vdW  stress (kbar)      0.00      0.00      0.00
                                0.00      0.00      0.00
                                0.00      0.00      0.00

     MDB     stress (kbar)      0.00      0.00      0.00
                                0.00      0.00      0.00
                                0.00      0.00      0.00

     3D-RISM stress (kbar)      0.00      0.00      0.00
                                0.00      0.00      0.00
                                0.00      0.00      0.00

     Energy error            =      3.7E-09 Ry
     Gradient error          =      0.0E+00 Ry/Bohr
     Cell gradient error     =      6.6E-02 kbar

     bfgs converged in   3 scf cycles and   2 bfgs steps
     (criteria: energy <  1.0E-04 Ry, force <  1.0E-03 Ry/Bohr, cell <  1.0E-01 kbar)

     End of BFGS Geometry Optimization

     Final enthalpy           =     -39.5017843480 Ry

     File ./tmp/al.bfgs deleted, as requested
Begin final coordinates
     new unit-cell volume =    111.07994 a.u.^3 (    16.46035 Ang^3 )
     density =      2.72193 g/cm^3

CELL_PARAMETERS (angstrom)
  -2.019000116  -0.000000000   2.019000116
  -0.000000000   2.019000116   2.019000116
  -2.019000116   2.019000116   0.000000000

ATOMIC_POSITIONS (angstrom)
Al               0.0000000000        0.0000000000        0.0000000000
End final coordinates



     Writing config-only to output data dir ./tmp/al.save/ :
     XML data file

     Final scf calculation at the relaxed structure.
     The G-vectors are recalculated for the final unit cell
     Results may differ from those at the preceding step.
 
     Parallelization info
     --------------------
     sticks:   dense  smooth     PW     G-vecs:    dense   smooth      PW
     Min          27      27     18                  226      226     124
     Max          28      28     19                  228      228     127
     Sum         163     163    109                 1363     1363     749
 
     Using Slab Decomposition
 


     bravais-lattice index     =            0
     lattice parameter (alat)  =       5.3955  a.u.
     unit-cell volume          =     111.0799 (a.u.)^3
     number of atoms/cell      =            1
     number of atomic types    =            1
     number of electrons       =         3.00
     number of Kohn-Sham states=            6
     kinetic-energy cutoff     =      38.0000  Ry
     charge density cutoff     =      80.0000  Ry
     scf convergence threshold =      1.0E-18
     mixing beta               =       0.7000
     number of iterations used =            8  plain     mixing
     press convergence thresh. =      1.0E-01
     Exchange-correlation= SLA PW PBX PBC
                           (   1   4   3   4   0   0   0)

     celldm(1)=   5.395462  celldm(2)=   0.000000  celldm(3)=   0.000000
     celldm(4)=   0.000000  celldm(5)=   0.000000  celldm(6)=   0.000000

     crystal axes: (cart. coord. in units of alat)
               a(1) = (  -0.707142  -0.000000   0.707142 )  
               a(2) = (  -0.000000   0.707142   0.707142 )  
               a(3) = (  -0.707142   0.707142   0.000000 )  

     reciprocal axes: (cart. coord. in units 2 pi/alat)
               b(1) = ( -0.707072 -0.707072  0.707072 )  
               b(2) = (  0.707072  0.707072  0.707072 )  
               b(3) = ( -0.707072  0.707072 -0.707072 )  


     PseudoPot. # 1 for Al read from file:
     ./Al.upf
     MD5 check sum: fd3ab6bbf4b2322b308692f0f9c61a66
     Pseudo is Projector augmented-wave + core cor, Zval =  3.0
     Generated using ATOMPAW code
     Shape of augmentation charge: SINC**2
     Using radial grid of 2342 points,  4 beta functions with: 
                l(1) =   0
                l(2) =   0
                l(3) =   1
                l(4) =   1
     Q(r) pseudized with 0 coefficients 


     atomic species   valence    mass     pseudopotential
     Al                3.00    26.98150     Al( 1.00)

     48 Sym. Ops., with inversion, found


                                    s                        frac. trans.

      isym =  1     identity                                     

 cryst.   s( 1) = (     1          0          0      )
                  (     0          1          0      )
                  (     0          0          1      )

 cart.    s( 1) = (  1.0000000  0.0000000  0.0000000 )
                  (  0.0000000  1.0000000  0.0000000 )
                  (  0.0000000  0.0000000  1.0000000 )


      isym =  2     180 deg rotation - cart. axis [0,0,1]        

 cryst.   s( 2) = (     0          1         -1      )
                  (     1          0         -1      )
                  (     0          0         -1      )

 cart.    s( 2) = ( -1.0000000  0.0000000  0.0000000 )
                  (  0.0000000 -1.0000000  0.0000000 )
                  (  0.0000000  0.0000000  1.0000000 )


      isym =  3     180 deg rotation - cart. axis [0,1,0]        

 cryst.   s( 3) = (    -1          0          0      )
                  (    -1          0          1      )
                  (    -1          1          0      )

 cart.    s( 3) = ( -1.0000000  0.0000000  0.0000000 )
                  (  0.0000000  1.0000000  0.0000000 )
                  (  0.0000000  0.0000000 -1.0000000 )


      isym =  4     180 deg rotation - cart. axis [1,0,0]        

 cryst.   s( 4) = (     0         -1          1      )
                  (     0         -1          0      )
                  (     1         -1          0      )

 cart.    s( 4) = (  1.0000000  0.0000000  0.0000000 )
                  (  0.0000000 -1.0000000  0.0000000 )
                  (  0.0000000  0.0000000 -1.0000000 )


      isym =  5     180 deg rotation - cart. axis [1,1,0]        

 cryst.   s( 5) = (     0         -1          0      )
                  (    -1          0          0      )
                  (     0          0         -1      )

 cart.    s( 5) = (  0.0000000  1.0000000  0.0000000 )
                  (  1.0000000  0.0000000  0.0000000 )
                  (  0.0000000  0.0000000 -1.0000000 )


      isym =  6     180 deg rotation - cart. axis [1,-1,0]       

 cryst.   s( 6) = (    -1          0          1      )
                  (     0         -1          1      )
                  (     0          0          1      )

 cart.    s( 6) = (  0.0000000 -1.0000000  0.0000000 )
                  ( -1.0000000  0.0000000  0.0000000 )
                  (  0.0000000  0.0000000 -1.0000000 )


      isym =  7      90 deg rotation - cart. axis [0,0,-1]       

 cryst.   s( 7) = (     0          1          0      )
                  (     0          1         -1      )
                  (    -1          1          0      )

 cart.    s( 7) = (  0.0000000  1.0000000  0.0000000 )
                  ( -1.0000000  0.0000000  0.0000000 )
                  (  0.0000000  0.0000000  1.0000000 )


      isym =  8      90 deg rotation - cart. axis [0,0,1]        

 cryst.   s( 8) = (     1          0         -1      )
                  (     1          0          0      )
                  (     1         -1          0      )

 cart.    s( 8) = (  0.0000000 -1.0000000  0.0000000 )
                  (  1.0000000  0.0000000  0.0000000 )
                  (  0.0000000  0.0000000  1.0000000 )


      isym =  9     180 deg rotation - cart. axis [1,0,1]        

 cryst.   s( 9) = (    -1          0          0      )
                  (     0          0         -1      )
                  (     0         -1          0      )

 cart.    s( 9) = (  0.0000000  0.0000000  1.0000000 )
                  (  0.0000000 -1.0000000  0.0000000 )
                  (  1.0000000  0.0000000  0.0000000 )


      isym = 10     180 deg rotation - cart. axis [-1,0,1]       

 cryst.   s(10) = (     1          0          0      )
                  (     1         -1          0      )
                  (     1          0         -1      )

 cart.    s(10) = (  0.0000000  0.0000000 -1.0000000 )
                  (  0.0000000 -1.0000000  0.0000000 )
                  ( -1.0000000  0.0000000  0.0000000 )


      isym = 11      90 deg rotation - cart. axis [0,1,0]        

 cryst.   s(11) = (     0          1         -1      )
                  (    -1          1          0      )
                  (     0          1          0      )

 cart.    s(11) = (  0.0000000  0.0000000  1.0000000 )
                  (  0.0000000  1.0000000  0.0000000 )
                  ( -1.0000000  0.0000000  0.0000000 )


      isym = 12      90 deg rotation - cart. axis [0,-1,0]       

 cryst.   s(12) = (     0         -1          1      )
                  (     0          0          1      )
                  (    -1          0          1      )

 cart.    s(12) = (  0.0000000  0.0000000 -1.0000000 )
                  (  0.0000000  1.0000000  0.0000000 )
                  (  1.0000000  0.0000000  0.0000000 )


      isym = 13     180 deg rotation - cart. axis [0,1,1]        

 cryst.   s(13) = (    -1          1          0      )
                  (     0          1          0      )
                  (     0          1         -1      )

 cart.    s(13) = ( -1.0000000  0.0000000  0.0000000 )
                  (  0.0000000  0.0000000  1.0000000 )
                  (  0.0000000  1.0000000  0.0000000 )


      isym = 14     180 deg rotation - cart. axis [0,1,-1]       

 cryst.   s(14) = (     0          0         -1      )
                  (     0         -1          0      )
                  (    -1          0          0      )

 cart.    s(14) = ( -1.0000000  0.0000000  0.0000000 )
                  (  0.0000000  0.0000000 -1.0000000 )
                  (  0.0000000 -1.0000000  0.0000000 )


      isym = 15      90 deg rotation - cart. axis [-1,0,0]       

 cryst.   s(15) = (     0          0          1      )
                  (    -1          0          1      )
                  (     0         -1          1      )

 cart.    s(15) = (  1.0000000  0.0000000  0.0000000 )
                  (  0.0000000  0.0000000  1.0000000 )
                  (  0.0000000 -1.0000000  0.0000000 )


      isym = 16      90 deg rotation - cart. axis [1,0,0]        

 cryst.   s(16) = (     1         -1          0      )
                  (     1          0         -1      )
                  (     1          0          0      )

 cart.    s(16) = (  1.0000000  0.0000000  0.0000000 )
                  (  0.0000000  0.0000000 -1.0000000 )
                  (  0.0000000  1.0000000  0.0000000 )


      isym = 17     120 deg rotation - cart. axis [-1,-1,-1]     

 cryst.   s(17) = (    -1          0          1      )
                  (    -1          1          0      )
                  (    -1          0          0      )

 cart.    s(17) = (  0.0000000  1.0000000  0.0000000 )
                  (  0.0000000  0.0000000  1.0000000 )
                  (  1.0000000  0.0000000  0.0000000 )


      isym = 18     120 deg rotation - cart. axis [-1,1,1]       

 cryst.   s(18) = (     0          1          0      )
                  (     0          0          1      )
                  (     1          0          0      )

 cart.    s(18) = (  0.0000000 -1.0000000  0.0000000 )
                  (  0.0000000  0.0000000  1.0000000 )
                  ( -1.0000000  0.0000000  0.0000000 )


      isym = 19     120 deg rotation - cart. axis [1,1,-1]       

 cryst.   s(19) = (     1          0         -1      )
                  (     0          0         -1      )
                  (     0          1         -1      )

 cart.    s(19) = (  0.0000000  1.0000000  0.0000000 )
                  (  0.0000000  0.0000000 -1.0000000 )
                  ( -1.0000000  0.0000000  0.0000000 )


      isym = 20     120 deg rotation - cart. axis [1,-1,1]       

 cryst.   s(20) = (     0         -1          0      )
                  (     1         -1          0      )
                  (     0         -1          1      )

 cart.    s(20) = (  0.0000000 -1.0000000  0.0000000 )
                  (  0.0000000  0.0000000 -1.0000000 )
                  (  1.0000000  0.0000000  0.0000000 )


      isym = 21     120 deg rotation - cart. axis [1,1,1]        

 cryst.   s(21) = (     0          0         -1      )
                  (     0          1         -1      )
                  (     1          0         -1      )

 cart.    s(21) = (  0.0000000  0.0000000  1.0000000 )
                  (  1.0000000  0.0000000  0.0000000 )
                  (  0.0000000  1.0000000  0.0000000 )


      isym = 22     120 deg rotation - cart. axis [-1,1,-1]      

 cryst.   s(22) = (    -1          1          0      )
                  (    -1          0          0      )
                  (    -1          0          1      )

 cart.    s(22) = (  0.0000000  0.0000000  1.0000000 )
                  ( -1.0000000  0.0000000  0.0000000 )
                  (  0.0000000 -1.0000000  0.0000000 )


      isym = 23     120 deg rotation - cart. axis [1,-1,-1]      

 cryst.   s(23) = (     0          0          1      )
                  (     1          0          0      )
                  (     0          1          0      )

 cart.    s(23) = (  0.0000000  0.0000000 -1.0000000 )
                  ( -1.0000000  0.0000000  0.0000000 )
                  (  0.0000000  1.0000000  0.0000000 )


      isym = 24     120 deg rotation - cart. axis [-1,-1,1]      

 cryst.   s(24) = (     1         -1          0      )
                  (     0         -1          1      )
                  (     0         -1          0      )

 cart.    s(24) = (  0.0000000  0.0000000 -1.0000000 )
                  (  1.0000000  0.0000000  0.0000000 )
                  (  0.0000000 -1.0000000  0.0000000 )


      isym = 25     inversion                                    

 cryst.   s(25) = (    -1          0          0      )
                  (     0         -1          0      )
                  (     0          0         -1      )

 cart.    s(25) = ( -1.0000000  0.0000000  0.0000000 )
                  (  0.0000000 -1.0000000  0.0000000 )
                  (  0.0000000  0.0000000 -1.0000000 )


      isym = 26     inv. 180 deg rotation - cart. axis [0,0,1]   

 cryst.   s(26) = (     0         -1          1      )
                  (    -1          0          1      )
                  (     0          0          1      )

 cart.    s(26) = (  1.0000000  0.0000000  0.0000000 )
                  (  0.0000000  1.0000000  0.0000000 )
                  (  0.0000000  0.0000000 -1.0000000 )


      isym = 27     inv. 180 deg rotation - cart. axis [0,1,0]   

 cryst.   s(27) = (     1          0          0      )
                  (     1          0         -1      )
                  (     1         -1          0      )

 cart.    s(27) = (  1.0000000  0.0000000  0.0000000 )
                  (  0.0000000 -1.0000000  0.0000000 )
                  (  0.0000000  0.0000000  1.0000000 )


      isym = 28     inv. 180 deg rotation - cart. axis [1,0,0]   

 cryst.   s(28) = (     0          1         -1      )
                  (     0          1          0      )
                  (    -1          1          0      )

 cart.    s(28) = ( -1.0000000  0.0000000  0.0000000 )
                  (  0.0000000  1.0000000  0.0000000 )
                  (  0.0000000  0.0000000  1.0000000 )


      isym = 29     inv. 180 deg rotation - cart. axis [1,1,0]   

 cryst.   s(29) = (     0          1          0      )
                  (     1          0          0      )
                  (     0          0          1      )

 cart.    s(29) = (  0.0000000 -1.0000000  0.0000000 )
                  ( -1.0000000  0.0000000  0.0000000 )
                  (  0.0000000  0.0000000  1.0000000 )


      isym = 30     inv. 180 deg rotation - cart. axis [1,-1,0]  

 cryst.   s(30) = (     1          0         -1      )
                  (     0          1         -1      )
                  (     0          0         -1      )

 cart.    s(30) = (  0.0000000  1.0000000  0.0000000 )
                  (  1.0000000  0.0000000  0.0000000 )
                  (  0.0000000  0.0000000  1.0000000 )


      isym = 31     inv.  90 deg rotation - cart. axis [0,0,-1]  

 cryst.   s(31) = (     0         -1          0      )
                  (     0         -1          1      )
                  (     1         -1          0      )

 cart.    s(31) = (  0.0000000 -1.0000000  0.0000000 )
                  (  1.0000000  0.0000000  0.0000000 )
                  (  0.0000000  0.0000000 -1.0000000 )


      isym = 32     inv.  90 deg rotation - cart. axis [0,0,1]   

 cryst.   s(32) = (    -1          0          1      )
                  (    -1          0          0      )
                  (    -1          1          0      )

 cart.    s(32) = (  0.0000000  1.0000000  0.0000000 )
                  ( -1.0000000  0.0000000  0.0000000 )
                  (  0.0000000  0.0000000 -1.0000000 )


      isym = 33     inv. 180 deg rotation - cart. axis [1,0,1]   

 cryst.   s(33) = (     1          0          0      )
                  (     0          0          1      )
                  (     0          1          0      )

 cart.    s(33) = (  0.0000000  0.0000000 -1.0000000 )
                  (  0.0000000  1.0000000  0.0000000 )
                  ( -1.0000000  0.0000000  0.0000000 )


      isym = 34     inv. 180 deg rotation - cart. axis [-1,0,1]  

 cryst.   s(34) = (    -1          0          0      )
                  (    -1          1          0      )
                  (    -1          0          1      )

 cart.    s(34) = (  0.0000000  0.0000000  1.0000000 )
                  (  0.0000000  1.0000000  0.0000000 )
                  (  1.0000000  0.0000000  0.0000000 )


      isym = 35     inv.  90 deg rotation - cart. axis [0,1,0]   

 cryst.   s(35) = (     0         -1          1      )
                  (     1         -1          0      )
                  (     0         -1          0      )

 cart.    s(35) = (  0.0000000  0.0000000 -1.0000000 )
                  (  0.0000000 -1.0000000  0.0000000 )
                  (  1.0000000  0.0000000  0.0000000 )


      isym = 36     inv.  90 deg rotation - cart. axis [0,-1,0]  

 cryst.   s(36) = (     0          1         -1      )
                  (     0          0         -1      )
                  (     1          0         -1      )

 cart.    s(36) = (  0.0000000  0.0000000  1.0000000 )
                  (  0.0000000 -1.0000000  0.0000000 )
                  ( -1.0000000  0.0000000  0.0000000 )


      isym = 37     inv. 180 deg rotation - cart. axis [0,1,1]   

 cryst.   s(37) = (     1         -1          0      )
                  (     0         -1          0      )
                  (     0         -1          1      )

 cart.    s(37) = (  1.0000000  0.0000000  0.0000000 )
                  (  0.0000000  0.0000000 -1.0000000 )
                  (  0.0000000 -1.0000000  0.0000000 )


      isym = 38     inv. 180 deg rotation - cart. axis [0,1,-1]  

 cryst.   s(38) = (     0          0          1      )
                  (     0          1          0      )
                  (     1          0          0      )

 cart.    s(38) = (  1.0000000  0.0000000  0.0000000 )
                  (  0.0000000  0.0000000  1.0000000 )
                  (  0.0000000  1.0000000  0.0000000 )


      isym = 39     inv.  90 deg rotation - cart. axis [-1,0,0]  

 cryst.   s(39) = (     0          0         -1      )
                  (     1          0         -1      )
                  (     0          1         -1      )

 cart.    s(39) = ( -1.0000000  0.0000000  0.0000000 )
                  (  0.0000000  0.0000000 -1.0000000 )
                  (  0.0000000  1.0000000  0.0000000 )


      isym = 40     inv.  90 deg rotation - cart. axis [1,0,0]   

 cryst.   s(40) = (    -1          1          0      )
                  (    -1          0          1      )
                  (    -1          0          0      )

 cart.    s(40) = ( -1.0000000  0.0000000  0.0000000 )
                  (  0.0000000  0.0000000  1.0000000 )
                  (  0.0000000 -1.0000000  0.0000000 )


      isym = 41     inv. 120 deg rotation - cart. axis [-1,-1,-1]

 cryst.   s(41) = (     1          0         -1      )
                  (     1         -1          0      )
                  (     1          0          0      )

 cart.    s(41) = (  0.0000000 -1.0000000  0.0000000 )
                  (  0.0000000  0.0000000 -1.0000000 )
                  ( -1.0000000  0.0000000  0.0000000 )


      isym = 42     inv. 120 deg rotation - cart. axis [-1,1,1]  

 cryst.   s(42) = (     0         -1          0      )
                  (     0          0         -1      )
                  (    -1          0          0      )

 cart.    s(42) = (  0.0000000  1.0000000  0.0000000 )
                  (  0.0000000  0.0000000 -1.0000000 )
                  (  1.0000000  0.0000000  0.0000000 )


      isym = 43     inv. 120 deg rotation - cart. axis [1,1,-1]  

 cryst.   s(43) = (    -1          0          1      )
                  (     0          0          1      )
                  (     0         -1          1      )

 cart.    s(43) = (  0.0000000 -1.0000000  0.0000000 )
                  (  0.0000000  0.0000000  1.0000000 )
                  (  1.0000000  0.0000000  0.0000000 )


      isym = 44     inv. 120 deg rotation - cart. axis [1,-1,1]  

 cryst.   s(44) = (     0          1          0      )
                  (    -1          1          0      )
                  (     0          1         -1      )

 cart.    s(44) = (  0.0000000  1.0000000  0.0000000 )
                  (  0.0000000  0.0000000  1.0000000 )
                  ( -1.0000000  0.0000000  0.0000000 )


      isym = 45     inv. 120 deg rotation - cart. axis [1,1,1]   

 cryst.   s(45) = (     0          0          1      )
                  (     0         -1          1      )
                  (    -1          0          1      )

 cart.    s(45) = (  0.0000000  0.0000000 -1.0000000 )
                  ( -1.0000000  0.0000000  0.0000000 )
                  (  0.0000000 -1.0000000  0.0000000 )


      isym = 46     inv. 120 deg rotation - cart. axis [-1,1,-1] 

 cryst.   s(46) = (     1         -1          0      )
                  (     1          0          0      )
                  (     1          0         -1      )

 cart.    s(46) = (  0.0000000  0.0000000 -1.0000000 )
                  (  1.0000000  0.0000000  0.0000000 )
                  (  0.0000000  1.0000000  0.0000000 )


      isym = 47     inv. 120 deg rotation - cart. axis [1,-1,-1] 

 cryst.   s(47) = (     0          0         -1      )
                  (    -1          0          0      )
                  (     0         -1          0      )

 cart.    s(47) = (  0.0000000  0.0000000  1.0000000 )
                  (  1.0000000  0.0000000  0.0000000 )
                  (  0.0000000 -1.0000000  0.0000000 )


      isym = 48     inv. 120 deg rotation - cart. axis [-1,-1,1] 

 cryst.   s(48) = (    -1          1          0      )
                  (     0          1         -1      )
                  (     0          1          0      )

 cart.    s(48) = (  0.0000000  0.0000000  1.0000000 )
                  ( -1.0000000  0.0000000  0.0000000 )
                  (  0.0000000  1.0000000  0.0000000 )


   Cartesian axes

     site n.     atom                  positions (alat units)
         1        Al     tau(   1) = (   0.0000000   0.0000000   0.0000000  )

   Crystallographic axes

     site n.     atom                  positions (cryst. coord.)
         1        Al     tau(   1) = (  0.0000000  0.0000000  0.0000000  )

     number of k points=   182  Methfessel-Paxton smearing, width (Ry)=  0.0200
                       cart. coord. in units 2pi/alat
        k(    1) = (  -0.0294613   0.0294613   0.0294613), wk =   0.0023148
        k(    2) = (  -0.0883840   0.0883840  -0.0294613), wk =   0.0069444
        k(    3) = (  -0.1473066   0.1473066  -0.0883840), wk =   0.0069444
        k(    4) = (  -0.2062293   0.2062293  -0.1473066), wk =   0.0069444
        k(    5) = (  -0.2651519   0.2651519  -0.2062293), wk =   0.0069444
        k(    6) = (  -0.3240745   0.3240745  -0.2651519), wk =   0.0069444
        k(    7) = (   0.3240745  -0.3240745   0.3829972), wk =   0.0069444
        k(    8) = (   0.2651519  -0.2651519   0.3240745), wk =   0.0069444
        k(    9) = (   0.2062293  -0.2062293   0.2651519), wk =   0.0069444
        k(   10) = (   0.1473066  -0.1473066   0.2062293), wk =   0.0069444
        k(   11) = (   0.0883840  -0.0883840   0.1473066), wk =   0.0069444
        k(   12) = (   0.0294613  -0.0294613   0.0883840), wk =   0.0069444
        k(   13) = (  -0.0294613   0.1473066   0.0294613), wk =   0.0069444
        k(   14) = (  -0.0883840   0.2062293  -0.0294613), wk =   0.0138889
        k(   15) = (  -0.1473066   0.2651519  -0.0883840), wk =   0.0138889
        k(   16) = (  -0.2062293   0.3240745  -0.1473066), wk =   0.0138889
        k(   17) = (  -0.2651519   0.3829972  -0.2062293), wk =   0.0138889
        k(   18) = (   0.3829972  -0.2651519   0.4419198), wk =   0.0138889
        k(   19) = (   0.3240745  -0.2062293   0.3829972), wk =   0.0138889
        k(   20) = (   0.2651519  -0.1473066   0.3240745), wk =   0.0138889
        k(   21) = (   0.2062293  -0.0883840   0.2651519), wk =   0.0138889
        k(   22) = (   0.1473066  -0.0294613   0.2062293), wk =   0.0138889
        k(   23) = (   0.0883840   0.0294613   0.1473066), wk =   0.0138889
        k(   24) = (  -0.0294613   0.2651519   0.0294613), wk =   0.0069444
        k(   25) = (  -0.0883840   0.3240745  -0.0294613), wk =   0.0138889
        k(   26) = (  -0.1473066   0.3829972  -0.0883840), wk =   0.0138889
        k(   27) = (  -0.2062293   0.4419198  -0.1473066), wk =   0.0138889
        k(   28) = (   0.4419198  -0.2062293   0.5008425), wk =   0.0138889
        k(   29) = (   0.3829972  -0.1473066   0.4419198), wk =   0.0138889
        k(   30) = (   0.3240745  -0.0883840   0.3829972), wk =   0.0138889
        k(   31) = (   0.2651519  -0.0294613   0.3240745), wk =   0.0138889
        k(   32) = (   0.2062293   0.0294613   0.2651519), wk =   0.0138889
        k(   33) = (   0.1473066   0.0883840   0.2062293), wk =   0.0138889
        k(   34) = (  -0.0294613   0.3829972   0.0294613), wk =   0.0069444
        k(   35) = (  -0.0883840   0.4419198  -0.0294613), wk =   0.0138889
        k(   36) = (  -0.1473066   0.5008425  -0.0883840), wk =   0.0138889
        k(   37) = (   0.5008425  -0.1473066   0.5597651), wk =   0.0138889
        k(   38) = (   0.4419198  -0.0883840   0.5008425), wk =   0.0138889
        k(   39) = (   0.3829972  -0.0294613   0.4419198), wk =   0.0138889
        k(   40) = (   0.3240745   0.0294613   0.3829972), wk =   0.0138889
        k(   41) = (   0.2651519   0.0883840   0.3240745), wk =   0.0138889
        k(   42) = (   0.2062293   0.1473066   0.2651519), wk =   0.0138889
        k(   43) = (  -0.0294613   0.5008425   0.0294613), wk =   0.0069444
        k(   44) = (  -0.0883840   0.5597651  -0.0294613), wk =   0.0138889
        k(   45) = (   0.5597651  -0.0883840   0.6186878), wk =   0.0138889
        k(   46) = (   0.5008425  -0.0294613   0.5597651), wk =   0.0138889
        k(   47) = (   0.4419198   0.0294613   0.5008425), wk =   0.0138889
        k(   48) = (   0.3829972   0.0883840   0.4419198), wk =   0.0138889
        k(   49) = (   0.3240745   0.1473066   0.3829972), wk =   0.0138889
        k(   50) = (   0.2651519   0.2062293   0.3240745), wk =   0.0138889
        k(   51) = (  -0.0294613   0.6186878   0.0294613), wk =   0.0069444
        k(   52) = (   0.6186878  -0.0294613   0.6776104), wk =   0.0138889
        k(   53) = (   0.5597651   0.0294613   0.6186878), wk =   0.0138889
        k(   54) = (   0.5008425   0.0883840   0.5597651), wk =   0.0138889
        k(   55) = (   0.4419198   0.1473066   0.5008425), wk =   0.0138889
        k(   56) = (   0.3829972   0.2062293   0.4419198), wk =   0.0138889
        k(   57) = (   0.3240745   0.2651519   0.3829972), wk =   0.0138889
        k(   58) = (  -0.0294613  -0.6776104   0.0294613), wk =   0.0069444
        k(   59) = (  -0.0883840  -0.6186878  -0.0294613), wk =   0.0138889
        k(   60) = (  -0.1473066  -0.5597651  -0.0883840), wk =   0.0138889
        k(   61) = (  -0.2062293  -0.5008425  -0.1473066), wk =   0.0138889
        k(   62) = (  -0.2651519  -0.4419198  -0.2062293), wk =   0.0138889
        k(   63) = (  -0.0294613  -0.5597651   0.0294613), wk =   0.0069444
        k(   64) = (  -0.0883840  -0.5008425  -0.0294613), wk =   0.0138889
        k(   65) = (  -0.1473066  -0.4419198  -0.0883840), wk =   0.0138889
        k(   66) = (  -0.2062293  -0.3829972  -0.1473066), wk =   0.0138889
        k(   67) = (  -0.0294613  -0.4419198   0.0294613), wk =   0.0069444
        k(   68) = (  -0.0883840  -0.3829972  -0.0294613), wk =   0.0138889
        k(   69) = (  -0.1473066  -0.3240745  -0.0883840), wk =   0.0138889
        k(   70) = (  -0.0294613  -0.3240745   0.0294613), wk =   0.0069444
        k(   71) = (  -0.0883840  -0.2651519  -0.0294613), wk =   0.0138889
        k(   72) = (  -0.0294613  -0.2062293   0.0294613), wk =   0.0069444
        k(   73) = (  -0.0883840   0.0883840   0.0883840), wk =   0.0023148
        k(   74) = (  -0.1473066   0.1473066   0.0294613), wk =   0.0069444
        k(   75) = (  -0.2062293   0.2062293  -0.0294613), wk =   0.0069444
        k(   76) = (  -0.2651519   0.2651519  -0.0883840), wk =   0.0069444
        k(   77) = (  -0.3240745   0.3240745  -0.1473066), wk =   0.0069444
        k(   78) = (   0.3240745  -0.3240745   0.5008425), wk =   0.0069444
        k(   79) = (   0.2651519  -0.2651519   0.4419198), wk =   0.0069444
        k(   80) = (   0.2062293  -0.2062293   0.3829972), wk =   0.0069444
        k(   81) = (   0.1473066  -0.1473066   0.3240745), wk =   0.0069444
        k(   82) = (   0.0883840  -0.0883840   0.2651519), wk =   0.0069444
        k(   83) = (  -0.0883840   0.2062293   0.0883840), wk =   0.0069444
        k(   84) = (  -0.1473066   0.2651519   0.0294613), wk =   0.0138889
        k(   85) = (  -0.2062293   0.3240745  -0.0294613), wk =   0.0138889
        k(   86) = (  -0.2651519   0.3829972  -0.0883840), wk =   0.0138889
        k(   87) = (   0.3829972  -0.2651519   0.5597651), wk =   0.0138889
        k(   88) = (   0.3240745  -0.2062293   0.5008425), wk =   0.0138889
        k(   89) = (   0.2651519  -0.1473066   0.4419198), wk =   0.0138889
        k(   90) = (   0.2062293  -0.0883840   0.3829972), wk =   0.0138889
        k(   91) = (   0.1473066  -0.0294613   0.3240745), wk =   0.0138889
        k(   92) = (  -0.0883840   0.3240745   0.0883840), wk =   0.0069444
        k(   93) = (  -0.1473066   0.3829972   0.0294613), wk =   0.0138889
        k(   94) = (  -0.2062293   0.4419198  -0.0294613), wk =   0.0138889
        k(   95) = (   0.4419198  -0.2062293   0.6186878), wk =   0.0138889
        k(   96) = (   0.3829972  -0.1473066   0.5597651), wk =   0.0138889
        k(   97) = (   0.3240745  -0.0883840   0.5008425), wk =   0.0138889
        k(   98) = (   0.2651519  -0.0294613   0.4419198), wk =   0.0138889
        k(   99) = (   0.2062293   0.0294613   0.3829972), wk =   0.0138889
        k(  100) = (  -0.0883840   0.4419198   0.0883840), wk =   0.0069444
        k(  101) = (  -0.1473066   0.5008425   0.0294613), wk =   0.0138889
        k(  102) = (   0.5008425  -0.1473066   0.6776104), wk =   0.0138889
        k(  103) = (   0.4419198  -0.0883840   0.6186878), wk =   0.0138889
        k(  104) = (   0.3829972  -0.0294613   0.5597651), wk =   0.0138889
        k(  105) = (   0.3240745   0.0294613   0.5008425), wk =   0.0138889
        k(  106) = (   0.2651519   0.0883840   0.4419198), wk =   0.0138889
        k(  107) = (  -0.0883840   0.5597651   0.0883840), wk =   0.0069444
        k(  108) = (   0.5597651  -0.0883840   0.7365330), wk =   0.0138889
        k(  109) = (   0.5008425  -0.0294613   0.6776104), wk =   0.0138889
        k(  110) = (   0.4419198   0.0294613   0.6186878), wk =   0.0138889
        k(  111) = (   0.3829972   0.0883840   0.5597651), wk =   0.0138889
        k(  112) = (   0.3240745   0.1473066   0.5008425), wk =   0.0138889
        k(  113) = (  -0.0883840  -0.7365330   0.0883840), wk =   0.0069444
        k(  114) = (  -0.1473066  -0.6776104   0.0294613), wk =   0.0138889
        k(  115) = (  -0.2062293  -0.6186878  -0.0294613), wk =   0.0138889
        k(  116) = (  -0.2651519  -0.5597651  -0.0883840), wk =   0.0138889
        k(  117) = (  -0.0883840  -0.6186878   0.0883840), wk =   0.0069444
        k(  118) = (  -0.1473066  -0.5597651   0.0294613), wk =   0.0138889
        k(  119) = (  -0.2062293  -0.5008425  -0.0294613), wk =   0.0138889
        k(  120) = (  -0.0883840  -0.5008425   0.0883840), wk =   0.0069444
        k(  121) = (  -0.1473066  -0.4419198   0.0294613), wk =   0.0138889
        k(  122) = (  -0.0883840  -0.3829972   0.0883840), wk =   0.0069444
        k(  123) = (  -0.1473066   0.1473066   0.1473066), wk =   0.0023148
        k(  124) = (  -0.2062293   0.2062293   0.0883840), wk =   0.0069444
        k(  125) = (  -0.2651519   0.2651519   0.0294613), wk =   0.0069444
        k(  126) = (  -0.3240745   0.3240745  -0.0294613), wk =   0.0069444
        k(  127) = (   0.3240745  -0.3240745   0.6186878), wk =   0.0069444
        k(  128) = (   0.2651519  -0.2651519   0.5597651), wk =   0.0069444
        k(  129) = (   0.2062293  -0.2062293   0.5008425), wk =   0.0069444
        k(  130) = (   0.1473066  -0.1473066   0.4419198), wk =   0.0069444
        k(  131) = (  -0.1473066   0.2651519   0.1473066), wk =   0.0069444
        k(  132) = (  -0.2062293   0.3240745   0.0883840), wk =   0.0138889
        k(  133) = (  -0.2651519   0.3829972   0.0294613), wk =   0.0138889
        k(  134) = (   0.3829972  -0.2651519   0.6776104), wk =   0.0138889
        k(  135) = (   0.3240745  -0.2062293   0.6186878), wk =   0.0138889
        k(  136) = (   0.2651519  -0.1473066   0.5597651), wk =   0.0138889
        k(  137) = (   0.2062293  -0.0883840   0.5008425), wk =   0.0138889
        k(  138) = (  -0.1473066   0.3829972   0.1473066), wk =   0.0069444
        k(  139) = (  -0.2062293   0.4419198   0.0883840), wk =   0.0138889
        k(  140) = (   0.4419198  -0.2062293   0.7365330), wk =   0.0138889
        k(  141) = (   0.3829972  -0.1473066   0.6776104), wk =   0.0138889
        k(  142) = (   0.3240745  -0.0883840   0.6186878), wk =   0.0138889
        k(  143) = (   0.2651519  -0.0294613   0.5597651), wk =   0.0138889
        k(  144) = (  -0.1473066   0.5008425   0.1473066), wk =   0.0069444
        k(  145) = (   0.5008425  -0.1473066   0.7954557), wk =   0.0138889
        k(  146) = (   0.4419198  -0.0883840   0.7365330), wk =   0.0138889
        k(  147) = (   0.3829972  -0.0294613   0.6776104), wk =   0.0138889
        k(  148) = (   0.3240745   0.0294613   0.6186878), wk =   0.0138889
        k(  149) = (  -0.1473066  -0.7954557   0.1473066), wk =   0.0069444
        k(  150) = (  -0.2062293  -0.7365330   0.0883840), wk =   0.0138889
        k(  151) = (  -0.2651519  -0.6776104   0.0294613), wk =   0.0138889
        k(  152) = (  -0.1473066  -0.6776104   0.1473066), wk =   0.0069444
        k(  153) = (  -0.2062293  -0.6186878   0.0883840), wk =   0.0138889
        k(  154) = (  -0.1473066  -0.5597651   0.1473066), wk =   0.0069444
        k(  155) = (  -0.2062293   0.2062293   0.2062293), wk =   0.0023148
        k(  156) = (  -0.2651519   0.2651519   0.1473066), wk =   0.0069444
        k(  157) = (  -0.3240745   0.3240745   0.0883840), wk =   0.0069444
        k(  158) = (   0.3240745  -0.3240745   0.7365330), wk =   0.0069444
        k(  159) = (   0.2651519  -0.2651519   0.6776104), wk =   0.0069444
        k(  160) = (   0.2062293  -0.2062293   0.6186878), wk =   0.0069444
        k(  161) = (  -0.2062293   0.3240745   0.2062293), wk =   0.0069444
        k(  162) = (  -0.2651519   0.3829972   0.1473066), wk =   0.0138889
        k(  163) = (   0.3829972  -0.2651519   0.7954557), wk =   0.0138889
        k(  164) = (   0.3240745  -0.2062293   0.7365330), wk =   0.0138889
        k(  165) = (   0.2651519  -0.1473066   0.6776104), wk =   0.0138889
        k(  166) = (  -0.2062293   0.4419198   0.2062293), wk =   0.0069444
        k(  167) = (   0.4419198  -0.2062293   0.8543783), wk =   0.0138889
        k(  168) = (   0.3829972  -0.1473066   0.7954557), wk =   0.0138889
        k(  169) = (   0.3240745  -0.0883840   0.7365330), wk =   0.0138889
        k(  170) = (  -0.2062293  -0.8543783   0.2062293), wk =   0.0069444
        k(  171) = (  -0.2651519  -0.7954557   0.1473066), wk =   0.0138889
        k(  172) = (  -0.2062293  -0.7365330   0.2062293), wk =   0.0069444
        k(  173) = (  -0.2651519   0.2651519   0.2651519), wk =   0.0023148
        k(  174) = (  -0.3240745   0.3240745   0.2062293), wk =   0.0069444
        k(  175) = (   0.3240745  -0.3240745   0.8543783), wk =   0.0069444
        k(  176) = (   0.2651519  -0.2651519   0.7954557), wk =   0.0069444
        k(  177) = (  -0.2651519   0.3829972   0.2651519), wk =   0.0069444
        k(  178) = (   0.3829972  -0.2651519   0.9133010), wk =   0.0138889
        k(  179) = (   0.3240745  -0.2062293   0.8543783), wk =   0.0138889
        k(  180) = (  -0.2651519  -0.9133010   0.2651519), wk =   0.0069444
        k(  181) = (  -0.3240745   0.3240745   0.3240745), wk =   0.0023148
        k(  182) = (   0.3240745  -0.3240745   0.9722236), wk =   0.0069444

                       cryst. coord.
        k(    1) = (   0.0416667   0.0416667   0.0416667), wk =   0.0023148
        k(    2) = (   0.0416667   0.0416667   0.1250000), wk =   0.0069444
        k(    3) = (   0.0416667   0.0416667   0.2083333), wk =   0.0069444
        k(    4) = (   0.0416667   0.0416667   0.2916667), wk =   0.0069444
        k(    5) = (   0.0416667   0.0416667   0.3750000), wk =   0.0069444
        k(    6) = (   0.0416667   0.0416667   0.4583333), wk =   0.0069444
        k(    7) = (   0.0416667   0.0416667  -0.4583333), wk =   0.0069444
        k(    8) = (   0.0416667   0.0416667  -0.3750000), wk =   0.0069444
        k(    9) = (   0.0416667   0.0416667  -0.2916667), wk =   0.0069444
        k(   10) = (   0.0416667   0.0416667  -0.2083333), wk =   0.0069444
        k(   11) = (   0.0416667   0.0416667  -0.1250000), wk =   0.0069444
        k(   12) = (   0.0416667   0.0416667  -0.0416667), wk =   0.0069444
        k(   13) = (   0.0416667   0.1250000   0.1250000), wk =   0.0069444
        k(   14) = (   0.0416667   0.1250000   0.2083333), wk =   0.0138889
        k(   15) = (   0.0416667   0.1250000   0.2916667), wk =   0.0138889
        k(   16) = (   0.0416667   0.1250000   0.3750000), wk =   0.0138889
        k(   17) = (   0.0416667   0.1250000   0.4583333), wk =   0.0138889
        k(   18) = (   0.0416667   0.1250000  -0.4583333), wk =   0.0138889
        k(   19) = (   0.0416667   0.1250000  -0.3750000), wk =   0.0138889
        k(   20) = (   0.0416667   0.1250000  -0.2916667), wk =   0.0138889
        k(   21) = (   0.0416667   0.1250000  -0.2083333), wk =   0.0138889
        k(   22) = (   0.0416667   0.1250000  -0.1250000), wk =   0.0138889
        k(   23) = (   0.0416667   0.1250000  -0.0416667), wk =   0.0138889
        k(   24) = (   0.0416667   0.2083333   0.2083333), wk =   0.0069444
        k(   25) = (   0.0416667   0.2083333   0.2916667), wk =   0.0138889
        k(   26) = (   0.0416667   0.2083333   0.3750000), wk =   0.0138889
        k(   27) = (   0.0416667   0.2083333   0.4583333), wk =   0.0138889
        k(   28) = (   0.0416667   0.2083333  -0.4583333), wk =   0.0138889
        k(   29) = (   0.0416667   0.2083333  -0.3750000), wk =   0.0138889
        k(   30) = (   0.0416667   0.2083333  -0.2916667), wk =   0.0138889
        k(   31) = (   0.0416667   0.2083333  -0.2083333), wk =   0.0138889
        k(   32) = (   0.0416667   0.2083333  -0.1250000), wk =   0.0138889
        k(   33) = (   0.0416667   0.2083333  -0.0416667), wk =   0.0138889
        k(   34) = (   0.0416667   0.2916667   0.2916667), wk =   0.0069444
        k(   35) = (   0.0416667   0.2916667   0.3750000), wk =   0.0138889
        k(   36) = (   0.0416667   0.2916667   0.4583333), wk =   0.0138889
        k(   37) = (   0.0416667   0.2916667  -0.4583333), wk =   0.0138889
        k(   38) = (   0.0416667   0.2916667  -0.3750000), wk =   0.0138889
        k(   39) = (   0.0416667   0.2916667  -0.2916667), wk =   0.0138889
        k(   40) = (   0.0416667   0.2916667  -0.2083333), wk =   0.0138889
        k(   41) = (   0.0416667   0.2916667  -0.1250000), wk =   0.0138889
        k(   42) = (   0.0416667   0.2916667  -0.0416667), wk =   0.0138889
        k(   43) = (   0.0416667   0.3750000   0.3750000), wk =   0.0069444
        k(   44) = (   0.0416667   0.3750000   0.4583333), wk =   0.0138889
        k(   45) = (   0.0416667   0.3750000  -0.4583333), wk =   0.0138889
        k(   46) = (   0.0416667   0.3750000  -0.3750000), wk =   0.0138889
        k(   47) = (   0.0416667   0.3750000  -0.2916667), wk =   0.0138889
        k(   48) = (   0.0416667   0.3750000  -0.2083333), wk =   0.0138889
        k(   49) = (   0.0416667   0.3750000  -0.1250000), wk =   0.0138889
        k(   50) = (   0.0416667   0.3750000  -0.0416667), wk =   0.0138889
        k(   51) = (   0.0416667   0.4583333   0.4583333), wk =   0.0069444
        k(   52) = (   0.0416667   0.4583333  -0.4583333), wk =   0.0138889
        k(   53) = (   0.0416667   0.4583333  -0.3750000), wk =   0.0138889
        k(   54) = (   0.0416667   0.4583333  -0.2916667), wk =   0.0138889
        k(   55) = (   0.0416667   0.4583333  -0.2083333), wk =   0.0138889
        k(   56) = (   0.0416667   0.4583333  -0.1250000), wk =   0.0138889
        k(   57) = (   0.0416667   0.4583333  -0.0416667), wk =   0.0138889
        k(   58) = (   0.0416667  -0.4583333  -0.4583333), wk =   0.0069444
        k(   59) = (   0.0416667  -0.4583333  -0.3750000), wk =   0.0138889
        k(   60) = (   0.0416667  -0.4583333  -0.2916667), wk =   0.0138889
        k(   61) = (   0.0416667  -0.4583333  -0.2083333), wk =   0.0138889
        k(   62) = (   0.0416667  -0.4583333  -0.1250000), wk =   0.0138889
        k(   63) = (   0.0416667  -0.3750000  -0.3750000), wk =   0.0069444
        k(   64) = (   0.0416667  -0.3750000  -0.2916667), wk =   0.0138889
        k(   65) = (   0.0416667  -0.3750000  -0.2083333), wk =   0.0138889
        k(   66) = (   0.0416667  -0.3750000  -0.1250000), wk =   0.0138889
        k(   67) = (   0.0416667  -0.2916667  -0.2916667), wk =   0.0069444
        k(   68) = (   0.0416667  -0.2916667  -0.2083333), wk =   0.0138889
        k(   69) = (   0.0416667  -0.2916667  -0.1250000), wk =   0.0138889
        k(   70) = (   0.0416667  -0.2083333  -0.2083333), wk =   0.0069444
        k(   71) = (   0.0416667  -0.2083333  -0.1250000), wk =   0.0138889
        k(   72) = (   0.0416667  -0.1250000  -0.1250000), wk =   0.0069444
        k(   73) = (   0.1250000   0.1250000   0.1250000), wk =   0.0023148
        k(   74) = (   0.1250000   0.1250000   0.2083333), wk =   0.0069444
        k(   75) = (   0.1250000   0.1250000   0.2916667), wk =   0.0069444
        k(   76) = (   0.1250000   0.1250000   0.3750000), wk =   0.0069444
        k(   77) = (   0.1250000   0.1250000   0.4583333), wk =   0.0069444
        k(   78) = (   0.1250000   0.1250000  -0.4583333), wk =   0.0069444
        k(   79) = (   0.1250000   0.1250000  -0.3750000), wk =   0.0069444
        k(   80) = (   0.1250000   0.1250000  -0.2916667), wk =   0.0069444
        k(   81) = (   0.1250000   0.1250000  -0.2083333), wk =   0.0069444
        k(   82) = (   0.1250000   0.1250000  -0.1250000), wk =   0.0069444
        k(   83) = (   0.1250000   0.2083333   0.2083333), wk =   0.0069444
        k(   84) = (   0.1250000   0.2083333   0.2916667), wk =   0.0138889
        k(   85) = (   0.1250000   0.2083333   0.3750000), wk =   0.0138889
        k(   86) = (   0.1250000   0.2083333   0.4583333), wk =   0.0138889
        k(   87) = (   0.1250000   0.2083333  -0.4583333), wk =   0.0138889
        k(   88) = (   0.1250000   0.2083333  -0.3750000), wk =   0.0138889
        k(   89) = (   0.1250000   0.2083333  -0.2916667), wk =   0.0138889
        k(   90) = (   0.1250000   0.2083333  -0.2083333), wk =   0.0138889
        k(   91) = (   0.1250000   0.2083333  -0.1250000), wk =   0.0138889
        k(   92) = (   0.1250000   0.2916667   0.2916667), wk =   0.0069444
        k(   93) = (   0.1250000   0.2916667   0.3750000), wk =   0.0138889
        k(   94) = (   0.1250000   0.2916667   0.4583333), wk =   0.0138889
        k(   95) = (   0.1250000   0.2916667  -0.4583333), wk =   0.0138889
        k(   96) = (   0.1250000   0.2916667  -0.3750000), wk =   0.0138889
        k(   97) = (   0.1250000   0.2916667  -0.2916667), wk =   0.0138889
        k(   98) = (   0.1250000   0.2916667  -0.2083333), wk =   0.0138889
        k(   99) = (   0.1250000   0.2916667  -0.1250000), wk =   0.0138889
        k(  100) = (   0.1250000   0.3750000   0.3750000), wk =   0.0069444
        k(  101) = (   0.1250000   0.3750000   0.4583333), wk =   0.0138889
        k(  102) = (   0.1250000   0.3750000  -0.4583333), wk =   0.0138889
        k(  103) = (   0.1250000   0.3750000  -0.3750000), wk =   0.0138889
        k(  104) = (   0.1250000   0.3750000  -0.2916667), wk =   0.0138889
        k(  105) = (   0.1250000   0.3750000  -0.2083333), wk =   0.0138889
        k(  106) = (   0.1250000   0.3750000  -0.1250000), wk =   0.0138889
        k(  107) = (   0.1250000   0.4583333   0.4583333), wk =   0.0069444
        k(  108) = (   0.1250000   0.4583333  -0.4583333), wk =   0.0138889
        k(  109) = (   0.1250000   0.4583333  -0.3750000), wk =   0.0138889
        k(  110) = (   0.1250000   0.4583333  -0.2916667), wk =   0.0138889
        k(  111) = (   0.1250000   0.4583333  -0.2083333), wk =   0.0138889
        k(  112) = (   0.1250000   0.4583333  -0.1250000), wk =   0.0138889
        k(  113) = (   0.1250000  -0.4583333  -0.4583333), wk =   0.0069444
        k(  114) = (   0.1250000  -0.4583333  -0.3750000), wk =   0.0138889
        k(  115) = (   0.1250000  -0.4583333  -0.2916667), wk =   0.0138889
        k(  116) = (   0.1250000  -0.4583333  -0.2083333), wk =   0.0138889
        k(  117) = (   0.1250000  -0.3750000  -0.3750000), wk =   0.0069444
        k(  118) = (   0.1250000  -0.3750000  -0.2916667), wk =   0.0138889
        k(  119) = (   0.1250000  -0.3750000  -0.2083333), wk =   0.0138889
        k(  120) = (   0.1250000  -0.2916667  -0.2916667), wk =   0.0069444
        k(  121) = (   0.1250000  -0.2916667  -0.2083333), wk =   0.0138889
        k(  122) = (   0.1250000  -0.2083333  -0.2083333), wk =   0.0069444
        k(  123) = (   0.2083333   0.2083333   0.2083333), wk =   0.0023148
        k(  124) = (   0.2083333   0.2083333   0.2916667), wk =   0.0069444
        k(  125) = (   0.2083333   0.2083333   0.3750000), wk =   0.0069444
        k(  126) = (   0.2083333   0.2083333   0.4583333), wk =   0.0069444
        k(  127) = (   0.2083333   0.2083333  -0.4583333), wk =   0.0069444
        k(  128) = (   0.2083333   0.2083333  -0.3750000), wk =   0.0069444
        k(  129) = (   0.2083333   0.2083333  -0.2916667), wk =   0.0069444
        k(  130) = (   0.2083333   0.2083333  -0.2083333), wk =   0.0069444
        k(  131) = (   0.2083333   0.2916667   0.2916667), wk =   0.0069444
        k(  132) = (   0.2083333   0.2916667   0.3750000), wk =   0.0138889
        k(  133) = (   0.2083333   0.2916667   0.4583333), wk =   0.0138889
        k(  134) = (   0.2083333   0.2916667  -0.4583333), wk =   0.0138889
        k(  135) = (   0.2083333   0.2916667  -0.3750000), wk =   0.0138889
        k(  136) = (   0.2083333   0.2916667  -0.2916667), wk =   0.0138889
        k(  137) = (   0.2083333   0.2916667  -0.2083333), wk =   0.0138889
        k(  138) = (   0.2083333   0.3750000   0.3750000), wk =   0.0069444
        k(  139) = (   0.2083333   0.3750000   0.4583333), wk =   0.0138889
        k(  140) = (   0.2083333   0.3750000  -0.4583333), wk =   0.0138889
        k(  141) = (   0.2083333   0.3750000  -0.3750000), wk =   0.0138889
        k(  142) = (   0.2083333   0.3750000  -0.2916667), wk =   0.0138889
        k(  143) = (   0.2083333   0.3750000  -0.2083333), wk =   0.0138889
        k(  144) = (   0.2083333   0.4583333   0.4583333), wk =   0.0069444
        k(  145) = (   0.2083333   0.4583333  -0.4583333), wk =   0.0138889
        k(  146) = (   0.2083333   0.4583333  -0.3750000), wk =   0.0138889
        k(  147) = (   0.2083333   0.4583333  -0.2916667), wk =   0.0138889
        k(  148) = (   0.2083333   0.4583333  -0.2083333), wk =   0.0138889
        k(  149) = (   0.2083333  -0.4583333  -0.4583333), wk =   0.0069444
        k(  150) = (   0.2083333  -0.4583333  -0.3750000), wk =   0.0138889
        k(  151) = (   0.2083333  -0.4583333  -0.2916667), wk =   0.0138889
        k(  152) = (   0.2083333  -0.3750000  -0.3750000), wk =   0.0069444
        k(  153) = (   0.2083333  -0.3750000  -0.2916667), wk =   0.0138889
        k(  154) = (   0.2083333  -0.2916667  -0.2916667), wk =   0.0069444
        k(  155) = (   0.2916667   0.2916667   0.2916667), wk =   0.0023148
        k(  156) = (   0.2916667   0.2916667   0.3750000), wk =   0.0069444
        k(  157) = (   0.2916667   0.2916667   0.4583333), wk =   0.0069444
        k(  158) = (   0.2916667   0.2916667  -0.4583333), wk =   0.0069444
        k(  159) = (   0.2916667   0.2916667  -0.3750000), wk =   0.0069444
        k(  160) = (   0.2916667   0.2916667  -0.2916667), wk =   0.0069444
        k(  161) = (   0.2916667   0.3750000   0.3750000), wk =   0.0069444
        k(  162) = (   0.2916667   0.3750000   0.4583333), wk =   0.0138889
        k(  163) = (   0.2916667   0.3750000  -0.4583333), wk =   0.0138889
        k(  164) = (   0.2916667   0.3750000  -0.3750000), wk =   0.0138889
        k(  165) = (   0.2916667   0.3750000  -0.2916667), wk =   0.0138889
        k(  166) = (   0.2916667   0.4583333   0.4583333), wk =   0.0069444
        k(  167) = (   0.2916667   0.4583333  -0.4583333), wk =   0.0138889
        k(  168) = (   0.2916667   0.4583333  -0.3750000), wk =   0.0138889
        k(  169) = (   0.2916667   0.4583333  -0.2916667), wk =   0.0138889
        k(  170) = (   0.2916667  -0.4583333  -0.4583333), wk =   0.0069444
        k(  171) = (   0.2916667  -0.4583333  -0.3750000), wk =   0.0138889
        k(  172) = (   0.2916667  -0.3750000  -0.3750000), wk =   0.0069444
        k(  173) = (   0.3750000   0.3750000   0.3750000), wk =   0.0023148
        k(  174) = (   0.3750000   0.3750000   0.4583333), wk =   0.0069444
        k(  175) = (   0.3750000   0.3750000  -0.4583333), wk =   0.0069444
        k(  176) = (   0.3750000   0.3750000  -0.3750000), wk =   0.0069444
        k(  177) = (   0.3750000   0.4583333   0.4583333), wk =   0.0069444
        k(  178) = (   0.3750000   0.4583333  -0.4583333), wk =   0.0138889
        k(  179) = (   0.3750000   0.4583333  -0.3750000), wk =   0.0138889
        k(  180) = (   0.3750000  -0.4583333  -0.4583333), wk =   0.0069444
        k(  181) = (   0.4583333   0.4583333   0.4583333), wk =   0.0023148
        k(  182) = (   0.4583333   0.4583333  -0.4583333), wk =   0.0069444

     Dense  grid:     1363 G-vectors     FFT dimensions: (  15,  15,  15)

     Dynamical RAM for                 wfc:       0.01 MB

     Dynamical RAM for     wfc (w. buffer):       0.61 MB

     Dynamical RAM for           str. fact:       0.00 MB

     Dynamical RAM for           local pot:       0.00 MB

     Dynamical RAM for          nlocal pot:       0.01 MB

     Dynamical RAM for                qrad:       0.41 MB

     Dynamical RAM for          rho,v,vnew:       0.03 MB

     Dynamical RAM for               rhoin:       0.01 MB

     Dynamical RAM for            rho*nmix:       0.06 MB

     Dynamical RAM for           G-vectors:       0.01 MB

     Dynamical RAM for          h,s,v(r/c):       0.01 MB

     Dynamical RAM for          <psi|beta>:       0.00 MB

     Dynamical RAM for                 psi:       0.01 MB

     Dynamical RAM for                hpsi:       0.01 MB

     Dynamical RAM for                spsi:       0.01 MB

     Dynamical RAM for      wfcinit/wfcrot:       0.02 MB

     Dynamical RAM for           addusdens:       0.08 MB

     Dynamical RAM for          addusforce:       0.08 MB

     Dynamical RAM for         addusstress:       0.09 MB

     Estimated static dynamical RAM per process >       1.12 MB

     Estimated max dynamical RAM per process >       1.27 MB

     Estimated total dynamical RAM >      14.85 MB

     Initial potential from superposition of free atoms

     starting charge       2.9975, renormalised to       3.0000

     negative rho (up, down):  6.646E-04 0.000E+00
     Starting wfcs are    8 randomized atomic wfcs
     Checking if some PAW data can be deallocated... 

     total cpu time spent up to now is        1.5 secs

     per-process dynamical memory:    39.1 Mb

     Self-consistent Calculation

     iteration #  1     ecut=    38.00 Ry     beta= 0.70
     Davidson diagonalization with overlap

---- Real-time Memory Report at c_bands before calling an iterative solver
           113 MiB given to the printing process from OS
            38 MiB allocation reported by mallinfo(arena+hblkhd)
         97523 MiB available memory on the node where the printing process lives
------------------
     c_bands:  3 eigenvalues not converged
     c_bands:  2 eigenvalues not converged
     c_bands:  1 eigenvalues not converged
     c_bands:  3 eigenvalues not converged
     c_bands:  1 eigenvalues not converged
     c_bands:  1 eigenvalues not converged
     c_bands:  1 eigenvalues not converged
     c_bands:  1 eigenvalues not converged
     c_bands:  1 eigenvalues not converged
     c_bands:  1 eigenvalues not converged
     c_bands:  1 eigenvalues not converged
     c_bands:  1 eigenvalues not converged
     c_bands:  1 eigenvalues not converged
     c_bands:  1 eigenvalues not converged
     c_bands:  2 eigenvalues not converged
     c_bands:  1 eigenvalues not converged
     c_bands:  1 eigenvalues not converged
     c_bands:  1 eigenvalues not converged
     ethr =  1.00E-06,  avg # of iterations = 14.7

     negative rho (up, down):  7.251E-04 0.000E+00

     total cpu time spent up to now is        1.7 secs

     total energy              =     -39.50174850 Ry
     estimated scf accuracy    <       0.00561368 Ry

     iteration #  2     ecut=    38.00 Ry     beta= 0.70
     Davidson diagonalization with overlap

---- Real-time Memory Report at c_bands before calling an iterative solver
           113 MiB given to the printing process from OS
            34 MiB allocation reported by mallinfo(arena+hblkhd)
         97517 MiB available memory on the node where the printing process lives
------------------
     ethr =  1.87E-04,  avg # of iterations =  1.0

     negative rho (up, down):  7.668E-04 0.000E+00

     total cpu time spent up to now is        1.7 secs

     total energy              =     -39.50177207 Ry
     estimated scf accuracy    <       0.00038136 Ry

     iteration #  3     ecut=    38.00 Ry     beta= 0.70
     Davidson diagonalization with overlap

---- Real-time Memory Report at c_bands before calling an iterative solver
           113 MiB given to the printing process from OS
            34 MiB allocation reported by mallinfo(arena+hblkhd)
         97517 MiB available memory on the node where the printing process lives
------------------
     ethr =  1.27E-05,  avg # of iterations =  1.0

     negative rho (up, down):  7.530E-04 0.000E+00

     total cpu time spent up to now is        1.8 secs

     total energy              =     -39.50178387 Ry
     estimated scf accuracy    <       0.00000044 Ry

     iteration #  4     ecut=    38.00 Ry     beta= 0.70
     Davidson diagonalization with overlap

---- Real-time Memory Report at c_bands before calling an iterative solver
           113 MiB given to the printing process from OS
            34 MiB allocation reported by mallinfo(arena+hblkhd)
         97517 MiB available memory on the node where the printing process lives
------------------
     ethr =  1.48E-08,  avg # of iterations =  2.8

     negative rho (up, down):  7.379E-04 0.000E+00

     total cpu time spent up to now is        1.8 secs

     total energy              =     -39.50178450 Ry
     estimated scf accuracy    <       0.00000003 Ry

     iteration #  5     ecut=    38.00 Ry     beta= 0.70
     Davidson diagonalization with overlap

---- Real-time Memory Report at c_bands before calling an iterative solver
           113 MiB given to the printing process from OS
            34 MiB allocation reported by mallinfo(arena+hblkhd)
         97513 MiB available memory on the node where the printing process lives
------------------
     ethr =  1.11E-09,  avg # of iterations =  1.2

     negative rho (up, down):  7.347E-04 0.000E+00

     total cpu time spent up to now is        1.9 secs

     total energy              =     -39.50178450 Ry
     estimated scf accuracy    <          1.2E-09 Ry

     iteration #  6     ecut=    38.00 Ry     beta= 0.70
     Davidson diagonalization with overlap

---- Real-time Memory Report at c_bands before calling an iterative solver
           113 MiB given to the printing process from OS
            34 MiB allocation reported by mallinfo(arena+hblkhd)
         97509 MiB available memory on the node where the printing process lives
------------------
     ethr =  3.86E-11,  avg # of iterations =  1.0

     negative rho (up, down):  7.346E-04 0.000E+00

     total cpu time spent up to now is        1.9 secs

     total energy              =     -39.50178450 Ry
     estimated scf accuracy    <          6.3E-13 Ry

     iteration #  7     ecut=    38.00 Ry     beta= 0.70
     Davidson diagonalization with overlap

---- Real-time Memory Report at c_bands before calling an iterative solver
           113 MiB given to the printing process from OS
            34 MiB allocation reported by mallinfo(arena+hblkhd)
         97509 MiB available memory on the node where the printing process lives
------------------
     ethr =  1.00E-13,  avg # of iterations =  2.8

     negative rho (up, down):  7.346E-04 0.000E+00

     total cpu time spent up to now is        2.0 secs

     total energy              =     -39.50178450 Ry
     estimated scf accuracy    <          1.0E-13 Ry

     iteration #  8     ecut=    38.00 Ry     beta= 0.70
     Davidson diagonalization with overlap

---- Real-time Memory Report at c_bands before calling an iterative solver
           113 MiB given to the printing process from OS
            34 MiB allocation reported by mallinfo(arena+hblkhd)
         97509 MiB available memory on the node where the printing process lives
------------------
     ethr =  1.00E-13,  avg # of iterations =  1.0

     negative rho (up, down):  7.346E-04 0.000E+00

     total cpu time spent up to now is        2.0 secs

     total energy              =     -39.50178450 Ry
     estimated scf accuracy    <          6.4E-17 Ry

     iteration #  9     ecut=    38.00 Ry     beta= 0.70
     Davidson diagonalization with overlap

---- Real-time Memory Report at c_bands before calling an iterative solver
           113 MiB given to the printing process from OS
            34 MiB allocation reported by mallinfo(arena+hblkhd)
         97509 MiB available memory on the node where the printing process lives
------------------
     ethr =  1.00E-13,  avg # of iterations =  1.0

     negative rho (up, down):  7.346E-04 0.000E+00

     total cpu time spent up to now is        2.1 secs

     total energy              =     -39.50178450 Ry
     estimated scf accuracy    <          1.6E-17 Ry

     iteration # 10     ecut=    38.00 Ry     beta= 0.70
     Davidson diagonalization with overlap

---- Real-time Memory Report at c_bands before calling an iterative solver
           113 MiB given to the printing process from OS
            34 MiB allocation reported by mallinfo(arena+hblkhd)
         97509 MiB available memory on the node where the printing process lives
------------------
     ethr =  1.00E-13,  avg # of iterations =  1.0

     negative rho (up, down):  7.346E-04 0.000E+00

     total cpu time spent up to now is        2.1 secs

     End of self-consistent calculation

          k =-0.0295 0.0295 0.0295 (   441 PWs)   bands (ev):

    -3.1443  19.5967  20.4026  20.4026  22.3523  22.3523

     occupation numbers 
     1.0000  -0.0000  -0.0000  -0.0000  -0.0000  -0.0000

          k =-0.0884 0.0884-0.0295 (   437 PWs)   bands (ev):

    -2.8925  17.4012  18.7943  20.6395  22.5089  23.0152

     occupation numbers 
     1.0000  -0.0000  -0.0000  -0.0000  -0.0000  -0.0000

          k =-0.1473 0.1473-0.0884 (   447 PWs)   bands (ev):

    -2.2648  14.0891  18.0651  20.0999  22.8641  23.1465

     occupation numbers 
     1.0000  -0.0000  -0.0000  -0.0000  -0.0000  -0.0000

          k =-0.2062 0.2062-0.1473 (   443 PWs)   bands (ev):

    -1.2662  10.9303  17.6528  19.7293  21.6822  22.6435

     occupation numbers 
     1.0000  -0.0000  -0.0000  -0.0000  -0.0000  -0.0000

          k =-0.2652 0.2652-0.2062 (   437 PWs)   bands (ev):

     0.0958   8.0327  17.5583  19.6464  20.3155  21.5439

     occupation numbers 
     1.0000   0.4321  -0.0000  -0.0000  -0.0000  -0.0000

          k =-0.3241 0.3241-0.2652 (   433 PWs)   bands (ev):

     1.8108   5.4345  17.7860  19.2287  19.8887  20.4676

     occupation numbers 
     1.0000   1.0000  -0.0000  -0.0000  -0.0000  -0.0000

          k = 0.3241-0.3241 0.3830 (   441 PWs)   bands (ev):

     3.1329   3.8910  18.3372  18.4737  19.6972  20.4290

     occupation numbers 
     1.0000   1.0000  -0.0000  -0.0000  -0.0000  -0.0000

          k = 0.2652-0.2652 0.3241 (   432 PWs)   bands (ev):

     1.2008   6.2658  18.0361  19.2048  19.2518  21.2856

     occupation numbers 
     1.0000   1.0000  -0.0000  -0.0000  -0.0000  -0.0000

          k = 0.2062-0.2062 0.2652 (   438 PWs)   bands (ev):

    -0.3980   8.9671  17.9172  19.1114  20.3985  22.4422

     occupation numbers 
     1.0000  -0.0000  -0.0000  -0.0000  -0.0000  -0.0000

          k = 0.1473-0.1473 0.2062 (   445 PWs)   bands (ev):

    -1.6399  11.9585  18.1150  19.2861  21.8617  22.9302

     occupation numbers 
     1.0000  -0.0000  -0.0000  -0.0000  -0.0000  -0.0000

          k = 0.0884-0.0884 0.1473 (   444 PWs)   bands (ev):

    -2.5155  15.1930  18.6239  19.7257  22.9373  23.2811

     occupation numbers 
     1.0000  -0.0000  -0.0000  -0.0000  -0.0000  -0.0000

          k = 0.0295-0.0295 0.0884 (   435 PWs)   bands (ev):

    -3.0183  18.5262  19.4251  20.1633  22.0165  23.2559

     occupation numbers 
     1.0000  -0.0000  -0.0000  -0.0000  -0.0000  -0.0000

          k =-0.0295 0.1473 0.0295 (   441 PWs)   bands (ev):

    -2.7667  17.4582  18.4014  19.3033  21.4974  23.7132

     occupation numbers 
     1.0000  -0.0000  -0.0000  -0.0000  -0.0000  -0.0000

          k =-0.0884 0.2062-0.0295 (   448 PWs)   bands (ev):

    -2.2648  15.2937  16.8999  19.5056  21.4179  21.9484

     occupation numbers 
     1.0000  -0.0000  -0.0000  -0.0000  -0.0000  -0.0000

          k =-0.1473 0.2652-0.0884 (   443 PWs)   bands (ev):

    -1.3907  12.1548  16.3211  19.3105  19.7584  23.3846

     occupation numbers 
     1.0000  -0.0000  -0.0000  -0.0000  -0.0000  -0.0000

          k =-0.2062 0.3241-0.1473 (   440 PWs)   bands (ev):

    -0.1510   9.1887  16.1011  18.2239  19.1933  23.4740

     occupation numbers 
     1.0000  -0.0000  -0.0000  -0.0000  -0.0000  -0.0000

          k =-0.2652 0.3830-0.2062 (   438 PWs)   bands (ev):

     1.4447   6.4986  16.2060  17.0145  19.3482  22.3264

     occupation numbers 
     1.0000   1.0000  -0.0000  -0.0000  -0.0000  -0.0000

          k = 0.3830-0.2652 0.4419 (   442 PWs)   bands (ev):

     3.3712   4.1318  16.0803  16.6923  19.8166  21.4639

     occupation numbers 
     1.0000   1.0000  -0.0000  -0.0000  -0.0000  -0.0000

          k = 0.3241-0.2062 0.3830 (   440 PWs)   bands (ev):

     2.0535   5.6689  15.5353  17.4514  20.5681  20.9478

     occupation numbers 
     1.0000   1.0000  -0.0000  -0.0000  -0.0000  -0.0000

          k = 0.2652-0.1473 0.3241 (   436 PWs)   bands (ev):

     0.3420   8.2556  15.3159  18.5469  20.6315  21.7413

     occupation numbers 
     1.0000  -0.0114  -0.0000  -0.0000  -0.0000  -0.0000

          k = 0.2062-0.0884 0.2652 (   443 PWs)   bands (ev):

    -1.0176  11.1259  15.4419  19.9473  20.6886  23.0986

     occupation numbers 
     1.0000  -0.0000  -0.0000  -0.0000  -0.0000  -0.0000

          k = 0.1473-0.0295 0.2062 (   446 PWs)   bands (ev):

    -2.0145  14.1671  15.9781  20.8591  21.5927  22.9518

     occupation numbers 
     1.0000  -0.0000  -0.0000  -0.0000  -0.0000  -0.0000

          k = 0.0884 0.0295 0.1473 (   441 PWs)   bands (ev):

    -2.6411  16.3047  17.8333  20.3044  22.2191  23.7928

     occupation numbers 
     1.0000  -0.0000  -0.0000  -0.0000  -0.0000  -0.0000

          k =-0.0295 0.2652 0.0295 (   441 PWs)   bands (ev):

    -1.8895  15.5634  16.6019  17.4727  19.3911  20.2257

     occupation numbers 
     1.0000  -0.0000  -0.0000  -0.0000  -0.0000  -0.0000

          k =-0.0884 0.3241-0.0295 (   441 PWs)   bands (ev):

    -1.1419  13.5809  15.2835  17.4066  17.9109  20.4686

     occupation numbers 
     1.0000  -0.0000  -0.0000  -0.0000  -0.0000  -0.0000

          k =-0.1473 0.3830-0.0884 (   444 PWs)   bands (ev):

    -0.0280  10.6495  14.8823  15.7466  17.9832  22.2511

     occupation numbers 
     1.0000  -0.0000  -0.0000  -0.0000  -0.0000  -0.0000

          k =-0.2062 0.4419-0.1473 (   439 PWs)   bands (ev):

     1.4435   7.8966  14.3135  14.9526  18.0967  24.4563

     occupation numbers 
     1.0000   0.8228  -0.0000  -0.0000  -0.0000  -0.0000

          k = 0.4419-0.2062 0.5008 (   436 PWs)   bands (ev):

     3.2573   5.4310  13.3208  15.2570  18.4886  23.9175

     occupation numbers 
     1.0000   1.0000  -0.0000  -0.0000  -0.0000  -0.0000

          k = 0.3830-0.1473 0.4419 (   437 PWs)   bands (ev):

     3.2602   5.4220  12.6508  15.9196  19.1990  23.2746

     occupation numbers 
     1.0000   1.0000  -0.0000  -0.0000  -0.0000  -0.0000

          k = 0.3241-0.0884 0.3830 (   435 PWs)   bands (ev):

     1.4445   7.8644  12.3466  16.9145  20.2258  22.9146

     occupation numbers 
     1.0000   0.8901  -0.0000  -0.0000  -0.0000  -0.0000

          k = 0.2652-0.0295 0.3241 (   439 PWs)   bands (ev):

    -0.0276  10.4786  12.5225  18.2312  21.5363  22.7306

     occupation numbers 
     1.0000  -0.0000  -0.0000  -0.0000  -0.0000  -0.0000

          k = 0.2062 0.0295 0.2652 (   445 PWs)   bands (ev):

    -1.1419  12.2156  14.1823  19.8481  21.6748  22.9953

     occupation numbers 
     1.0000  -0.0000  -0.0000  -0.0000  -0.0000  -0.0000

          k = 0.1473 0.0884 0.2062 (   444 PWs)   bands (ev):

    -1.8895  13.0711  17.1695  19.9415  21.7166  23.6143

     occupation numbers 
     1.0000  -0.0000  -0.0000  -0.0000  -0.0000  -0.0000

          k =-0.0295 0.3830 0.0295 (   439 PWs)   bands (ev):

    -0.5221  14.0756  15.2117  15.2525  16.0019  18.9813

     occupation numbers 
     1.0000  -0.0000  -0.0000  -0.0000  -0.0000  -0.0000

          k =-0.0884 0.4419-0.0295 (   440 PWs)   bands (ev):

     0.4635  12.3039  13.3997  14.1413  16.6632  19.3810

     occupation numbers 
     1.0000  -0.0000  -0.0000  -0.0000  -0.0000  -0.0000

          k =-0.1473 0.5008-0.0884 (   438 PWs)   bands (ev):

     1.8062   9.5927  11.9457  13.9382  16.9752  21.3746

     occupation numbers 
     1.0000  -0.0000  -0.0000  -0.0000  -0.0000  -0.0000

          k = 0.5008-0.1473 0.5598 (   440 PWs)   bands (ev):

     3.4904   7.0675  10.8050  14.1463  17.3231  23.9741

     occupation numbers 
     1.0000   1.0000  -0.0000  -0.0000  -0.0000  -0.0000

          k = 0.4419-0.0884 0.5008 (   438 PWs)   bands (ev):

     4.7959   5.5241  10.0315  14.7005  17.9504  25.8744

     occupation numbers 
     1.0000   1.0000  -0.0000  -0.0000  -0.0000  -0.0000

          k = 0.3830-0.0295 0.4419 (   436 PWs)   bands (ev):

     2.9001   7.6846   9.7538  15.5896  18.8927  25.4314

     occupation numbers 
     1.0000   1.0354  -0.0000  -0.0000  -0.0000  -0.0000

          k = 0.3241 0.0295 0.3830 (   433 PWs)   bands (ev):

     1.3223   8.9667  11.0380  16.8060  20.1360  23.9788

     occupation numbers 
     1.0000  -0.0000  -0.0000  -0.0000  -0.0000  -0.0000

          k = 0.2652 0.0884 0.3241 (   441 PWs)   bands (ev):

     0.0957   9.3859  13.8105  18.3372  21.4952  21.8153

     occupation numbers 
     1.0000  -0.0000  -0.0000  -0.0000  -0.0000  -0.0000

          k = 0.2062 0.1473 0.2652 (   442 PWs)   bands (ev):

    -0.7695  10.0048  16.8506  19.6942  20.1521  22.9950

     occupation numbers 
     1.0000  -0.0000  -0.0000  -0.0000  -0.0000  -0.0000

          k =-0.0295 0.5008 0.0295 (   443 PWs)   bands (ev):

     1.3185  11.4624  13.0450  14.2474  14.9541  18.0299

     occupation numbers 
     1.0000  -0.0000  -0.0000  -0.0000  -0.0000  -0.0000

          k =-0.0884 0.5598-0.0295 (   443 PWs)   bands (ev):

     2.5267   9.8338  11.5119  13.3339  15.8603  18.6412

     occupation numbers 
     1.0000  -0.0000  -0.0000  -0.0000  -0.0000  -0.0000

          k = 0.5598-0.0884 0.6187 (   441 PWs)   bands (ev):

     4.0632   8.5101   9.1105  13.3747  16.4004  20.8636

     occupation numbers 
     1.0000  -0.0131  -0.0000  -0.0000  -0.0000  -0.0000

          k = 0.5008-0.0295 0.5598 (   438 PWs)   bands (ev):

     5.8019   6.6764   7.8832  13.8106  16.9823  23.7016

     occupation numbers 
     1.0000   1.0000   0.8525  -0.0000  -0.0000  -0.0000

          k = 0.4419 0.0295 0.5008 (   439 PWs)   bands (ev):

     4.6919   6.6360   8.6893  14.5893  17.8398  26.5791

     occupation numbers 
     1.0000   1.0000  -0.0012  -0.0000  -0.0000  -0.0000

          k = 0.3830 0.0884 0.4419 (   438 PWs)   bands (ev):

     3.0205   6.5698  11.0809  15.6997  18.9966  24.3324

     occupation numbers 
     1.0000   1.0000  -0.0000  -0.0000  -0.0000  -0.0000

          k = 0.3241 0.1473 0.3830 (   437 PWs)   bands (ev):

     1.6885   6.7244  13.8929  17.1306  20.3915  21.8666

     occupation numbers 
     1.0000   1.0000  -0.0000  -0.0000  -0.0000  -0.0000

          k = 0.2652 0.2062 0.3241 (   437 PWs)   bands (ev):

     0.7107   7.2086  16.8584  18.8509  19.7314  21.7322

     occupation numbers 
     1.0000   1.0001  -0.0000  -0.0000  -0.0000  -0.0000

          k =-0.0295 0.6187 0.0295 (   451 PWs)   bands (ev):

     3.5856   8.1095  12.4610  13.7121  14.3734  17.4730

     occupation numbers 
     1.0000   0.2143  -0.0000  -0.0000  -0.0000  -0.0000

          k = 0.6187-0.0295 0.6776 (   448 PWs)   bands (ev):

     4.8738   6.8400  11.1589  12.9986  15.5147  18.3140

     occupation numbers 
     1.0000   1.0000  -0.0000  -0.0000  -0.0000  -0.0000

          k = 0.5598 0.0295 0.6187 (   438 PWs)   bands (ev):

     5.2244   7.1863   8.9391  13.2625  16.2846  20.7599

     occupation numbers 
     1.0000   1.0001  -0.0000  -0.0000  -0.0000  -0.0000

          k = 0.5008 0.0884 0.5598 (   439 PWs)   bands (ev):

     4.6556   6.8257   9.2146  13.9225  17.0964  23.7940

     occupation numbers 
     1.0000   1.0000  -0.0000  -0.0000  -0.0000  -0.0000

          k = 0.4419 0.1473 0.5008 (   439 PWs)   bands (ev):

     4.3131   5.0880  11.6165  14.9228  18.1687  24.8666

     occupation numbers 
     1.0000   1.0000  -0.0000  -0.0000  -0.0000  -0.0000

          k = 0.3830 0.2062 0.4419 (   441 PWs)   bands (ev):

     3.6099   4.3700  14.3338  16.2488  19.4851  22.3122

     occupation numbers 
     1.0000   1.0000  -0.0000  -0.0000  -0.0000  -0.0000

          k = 0.3241 0.2652 0.3830 (   439 PWs)   bands (ev):

     2.5379   4.7195  17.1895  17.8690  20.0722  20.7628

     occupation numbers 
     1.0000   1.0000  -0.0000  -0.0000  -0.0000  -0.0000

          k =-0.0295-0.6776 0.0295 (   445 PWs)   bands (ev):

     4.7568   6.7204  12.3443  13.6051  14.2573  17.3599

     occupation numbers 
     1.0000   1.0000  -0.0000  -0.0000  -0.0000  -0.0000

          k =-0.0884-0.6187-0.0295 (   447 PWs)   bands (ev):

     3.7052   8.2250  11.2761  13.1102  15.6300  18.4235

     occupation numbers 
     1.0000   0.0132  -0.0000  -0.0000  -0.0000  -0.0000

          k =-0.1473-0.5598-0.0884 (   439 PWs)   bands (ev):

     2.8891   9.2181  10.2430  13.5994  16.6312  21.0698

     occupation numbers 
     1.0000  -0.0000  -0.0000  -0.0000  -0.0000  -0.0000

          k =-0.2062-0.5008-0.1473 (   438 PWs)   bands (ev):

     2.4134   7.4239  12.5202  14.4836  17.6592  24.2266

     occupation numbers 
     1.0000   1.0047  -0.0000  -0.0000  -0.0000  -0.0000

          k =-0.2652-0.4419-0.2062 (   437 PWs)   bands (ev):

     2.2952   5.9051  15.0995  15.7164  18.8943  23.0651

     occupation numbers 
     1.0000   1.0000  -0.0000  -0.0000  -0.0000  -0.0000

          k =-0.0295-0.5598 0.0295 (   447 PWs)   bands (ev):

     2.4057   9.7246  12.6945  13.9262  14.6057  17.6981

     occupation numbers 
     1.0000  -0.0000  -0.0000  -0.0000  -0.0000  -0.0000

          k =-0.0884-0.5008-0.0295 (   439 PWs)   bands (ev):

     1.4406  11.5336  11.8929  13.6712  16.2052  18.9625

     occupation numbers 
     1.0000  -0.0000  -0.0000  -0.0000  -0.0000  -0.0000

          k =-0.1473-0.4419-0.0884 (   445 PWs)   bands (ev):

     0.8318  10.0652  13.7437  14.4119  17.4279  21.7713

     occupation numbers 
     1.0000  -0.0000  -0.0000  -0.0000  -0.0000  -0.0000

          k =-0.2062-0.3830-0.1473 (   439 PWs)   bands (ev):

     0.5875   8.4853  15.4317  16.2859  18.6208  24.0691

     occupation numbers 
     1.0000  -0.0167  -0.0000  -0.0000  -0.0000  -0.0000

          k =-0.0295-0.4419 0.0295 (   439 PWs)   bands (ev):

     0.3406  13.2830  13.5323  14.6759  15.4185  18.4611

     occupation numbers 
     1.0000  -0.0000  -0.0000  -0.0000  -0.0000  -0.0000

          k =-0.0884-0.3830-0.0295 (   441 PWs)   bands (ev):

    -0.3984  12.8881  14.6036  15.4172  17.2323  19.8873

     occupation numbers 
     1.0000  -0.0000  -0.0000  -0.0000  -0.0000  -0.0000

          k =-0.1473-0.3241-0.0884 (   443 PWs)   bands (ev):

    -0.7696  11.3465  15.5594  17.7210  18.6265  22.7985

     occupation numbers 
     1.0000  -0.0000  -0.0000  -0.0000  -0.0000  -0.0000

          k =-0.0295-0.3241 0.0295 (   442 PWs)   bands (ev):

    -1.2663  14.7663  15.8539  16.6698  17.3004  19.5757

     occupation numbers 
     1.0000  -0.0000  -0.0000  -0.0000  -0.0000  -0.0000

          k =-0.0884-0.2652-0.0295 (   440 PWs)   bands (ev):

    -1.7646  14.3837  16.0456  18.6697  19.4891  21.1114

     occupation numbers 
     1.0000  -0.0000  -0.0000  -0.0000  -0.0000  -0.0000

          k =-0.0295-0.2062 0.0295 (   447 PWs)   bands (ev):

    -2.3901  16.4634  17.4531  18.3613  20.8631  21.5679

     occupation numbers 
     1.0000  -0.0000  -0.0000  -0.0000  -0.0000  -0.0000

          k =-0.0884 0.0884 0.0884 (   444 PWs)   bands (ev):

    -2.7667  16.2885  19.6506  19.6506  22.6943  23.6274

     occupation numbers 
     1.0000  -0.0000  -0.0000  -0.0000  -0.0000  -0.0000

          k =-0.1473 0.1473 0.0295 (   445 PWs)   bands (ev):

    -2.3901  15.1895  16.9047  21.1084  22.6041  23.4973

     occupation numbers 
     1.0000  -0.0000  -0.0000  -0.0000  -0.0000  -0.0000

          k =-0.2062 0.2062-0.0295 (   449 PWs)   bands (ev):

    -1.6399  13.1375  15.0484  21.2628  21.8698  23.2761

     occupation numbers 
     1.0000  -0.0000  -0.0000  -0.0000  -0.0000  -0.0000

          k =-0.2652 0.2652-0.0884 (   443 PWs)   bands (ev):

    -0.5217  10.2009  14.5859  19.7461  21.6978  21.7000

     occupation numbers 
     1.0000  -0.0000  -0.0000  -0.0000  -0.0000  -0.0000

          k =-0.3241 0.3241-0.1473 (   437 PWs)   bands (ev):

     0.9558   7.4330  14.5620  18.4685  20.3643  21.7296

     occupation numbers 
     1.0000   1.0053  -0.0000  -0.0000  -0.0000  -0.0000

          k = 0.3241-0.3241 0.5008 (   445 PWs)   bands (ev):

     2.7792   4.9554  14.8934  17.4973  19.3310  22.0610

     occupation numbers 
     1.0000   1.0000  -0.0000  -0.0000  -0.0000  -0.0000

          k = 0.2652-0.2652 0.4419 (   441 PWs)   bands (ev):

     2.7785   4.9576  15.5668  16.8460  18.6225  22.7024

     occupation numbers 
     1.0000   1.0000  -0.0000  -0.0000  -0.0000  -0.0000

          k = 0.2062-0.2062 0.3830 (   438 PWs)   bands (ev):

     0.9555   7.4399  16.5166  16.5727  18.2478  23.6442

     occupation numbers 
     1.0000   1.0058  -0.0000  -0.0000  -0.0000  -0.0000

          k = 0.1473-0.1473 0.3241 (   441 PWs)   bands (ev):

    -0.5218  10.2254  16.5087  17.8649  18.2304  24.0942

     occupation numbers 
     1.0000  -0.0000  -0.0000  -0.0000  -0.0000  -0.0000

          k = 0.0884-0.0884 0.2652 (   447 PWs)   bands (ev):

    -1.6399  13.2709  16.8213  18.3380  19.5839  22.1257

     occupation numbers 
     1.0000  -0.0000  -0.0000  -0.0000  -0.0000  -0.0000

          k =-0.0884 0.2062 0.0884 (   452 PWs)   bands (ev):

    -2.1396  14.1818  17.6739  19.1158  21.5960  22.8547

     occupation numbers 
     1.0000  -0.0000  -0.0000  -0.0000  -0.0000  -0.0000

          k =-0.1473 0.2652 0.0295 (   445 PWs)   bands (ev):

    -1.5152  13.2498  15.1191  19.6625  20.1654  22.3143

     occupation numbers 
     1.0000  -0.0000  -0.0000  -0.0000  -0.0000  -0.0000

          k =-0.2062 0.3241-0.0295 (   440 PWs)   bands (ev):

    -0.5218  11.4054  13.4037  17.9219  21.0776  22.9200

     occupation numbers 
     1.0000  -0.0000  -0.0000  -0.0000  -0.0000  -0.0000

          k =-0.2652 0.3830-0.0884 (   439 PWs)   bands (ev):

     0.8329   8.6839  13.1308  16.4802  21.2039  22.1751

     occupation numbers 
     1.0000  -0.0013  -0.0000  -0.0000  -0.0000  -0.0000

          k = 0.3830-0.2652 0.5598 (   436 PWs)   bands (ev):

     2.5375   6.1323  13.3187  15.3660  20.9807  21.6048

     occupation numbers 
     1.0000   1.0000  -0.0000  -0.0000  -0.0000  -0.0000

          k = 0.3241-0.2062 0.5008 (   438 PWs)   bands (ev):

     3.8456   4.6104  13.8403  14.6159  20.2309  22.1327

     occupation numbers 
     1.0000   1.0000  -0.0000  -0.0000  -0.0000  -0.0000

          k = 0.2652-0.1473 0.4419 (   437 PWs)   bands (ev):

     1.9309   6.9587  14.0511  14.8649  19.7496  22.9887

     occupation numbers 
     1.0000   1.0000  -0.0000  -0.0000  -0.0000  -0.0000

          k = 0.2062-0.0884 0.3830 (   436 PWs)   bands (ev):

     0.3416   9.6144  13.9959  16.0712  19.5466  23.5573

     occupation numbers 
     1.0000  -0.0000  -0.0000  -0.0000  -0.0000  -0.0000

          k = 0.1473-0.0295 0.3241 (   442 PWs)   bands (ev):

    -0.8936  12.4426  14.3481  17.6287  19.4432  21.7221

     occupation numbers 
     1.0000  -0.0000  -0.0000  -0.0000  -0.0000  -0.0000

          k =-0.0884 0.3241 0.0884 (   442 PWs)   bands (ev):

    -1.0177  12.4668  16.0722  17.3990  17.7101  21.4829

     occupation numbers 
     1.0000  -0.0000  -0.0000  -0.0000  -0.0000  -0.0000

          k =-0.1473 0.3830 0.0295 (   441 PWs)   bands (ev):

    -0.1513  11.7477  13.6687  15.6397  18.7915  21.1737

     occupation numbers 
     1.0000  -0.0000  -0.0000  -0.0000  -0.0000  -0.0000

          k =-0.2062 0.4419-0.0295 (   438 PWs)   bands (ev):

     1.0768  10.1268  12.1319  14.0706  19.9333  22.1383

     occupation numbers 
     1.0000  -0.0000  -0.0000  -0.0000  -0.0000  -0.0000

          k = 0.4419-0.2062 0.6187 (   437 PWs)   bands (ev):

     2.6556   7.6255  12.0244  12.8737  20.3449  23.5746

     occupation numbers 
     1.0000   1.0312  -0.0000  -0.0000  -0.0000  -0.0000

          k = 0.3830-0.1473 0.5598 (   436 PWs)   bands (ev):

     4.5507   5.3178  11.7712  12.6423  20.8630  22.8458

     occupation numbers 
     1.0000   1.0000  -0.0000  -0.0000  -0.0000  -0.0000

          k = 0.3241-0.0884 0.5008 (   432 PWs)   bands (ev):

     3.2586   6.8045  11.2889  13.3771  21.6067  22.2964

     occupation numbers 
     1.0000   1.0000  -0.0000  -0.0000  -0.0000  -0.0000

          k = 0.2652-0.0295 0.4419 (   435 PWs)   bands (ev):

     1.5655   9.1984  11.2504  14.5012  21.7149  22.6685

     occupation numbers 
     1.0000  -0.0000  -0.0000  -0.0000  -0.0000  -0.0000

          k = 0.2062 0.0295 0.3830 (   438 PWs)   bands (ev):

     0.2185  10.7088  12.7211  15.9622  20.4693  22.5507

     occupation numbers 
     1.0000  -0.0000  -0.0000  -0.0000  -0.0000  -0.0000

          k =-0.0884 0.4419 0.0884 (   441 PWs)   bands (ev):

     0.5864  11.1888  13.5549  14.8927  16.3621  20.4054

     occupation numbers 
     1.0000  -0.0000  -0.0000  -0.0000  -0.0000  -0.0000

          k =-0.1473 0.5008 0.0295 (   440 PWs)   bands (ev):

     1.6844  10.6931  11.7681  12.7728  17.7846  20.2910

     occupation numbers 
     1.0000  -0.0000  -0.0000  -0.0000  -0.0000  -0.0000

          k = 0.5008-0.1473 0.6776 (   439 PWs)   bands (ev):

     3.1302   9.3007  10.3695  11.4831  19.1595  21.4886

     occupation numbers 
     1.0000  -0.0000  -0.0000  -0.0000  -0.0000  -0.0000

          k = 0.4419-0.0884 0.6187 (   437 PWs)   bands (ev):

     4.8931   7.0302   9.4227  11.5961  19.8140  23.9651

     occupation numbers 
     1.0000   1.0000  -0.0000  -0.0000  -0.0000  -0.0000

          k = 0.3830-0.0295 0.5598 (   436 PWs)   bands (ev):

     4.9215   6.8687   8.9128  12.2376  20.5652  24.8770

     occupation numbers 
     1.0000   1.0000  -0.0000  -0.0000  -0.0000  -0.0000

          k = 0.3241 0.0295 0.5008 (   434 PWs)   bands (ev):

     3.1385   7.9169   9.9734  13.2558  21.5605  23.2253

     occupation numbers 
     1.0000   0.7735  -0.0000  -0.0000  -0.0000  -0.0000

          k = 0.2652 0.0884 0.4419 (   438 PWs)   bands (ev):

     1.6874   8.0968  12.5487  14.6176  20.7491  22.8429

     occupation numbers 
     1.0000   0.2468  -0.0000  -0.0000  -0.0000  -0.0000

          k =-0.0884 0.5598 0.0884 (   443 PWs)   bands (ev):

     2.6476   9.8981  10.4588  14.1422  15.5326  19.6782

     occupation numbers 
     1.0000  -0.0000  -0.0000  -0.0000  -0.0000  -0.0000

          k = 0.5598-0.0884 0.7365 (   441 PWs)   bands (ev):

     3.9440   8.4520  10.1366  12.1519  17.2168  19.7741

     occupation numbers 
     1.0000  -0.0221  -0.0000  -0.0000  -0.0000  -0.0000

          k = 0.5008-0.0295 0.6776 (   439 PWs)   bands (ev):

     5.4581   7.4246   8.9819  11.0714  18.8228  21.1934

     occupation numbers 
     1.0000   1.0047  -0.0000  -0.0000  -0.0000  -0.0000

          k = 0.4419 0.0295 0.6187 (   438 PWs)   bands (ev):

     6.0355   6.8851   8.1018  11.4697  19.7054  23.9044

     occupation numbers 
     1.0000   1.0000   0.2336  -0.0000  -0.0000  -0.0000

          k = 0.3830 0.0884 0.5598 (   433 PWs)   bands (ev):

     5.0251   5.7602  10.2417  12.3619  20.6669  23.8627

     occupation numbers 
     1.0000   1.0000  -0.0000  -0.0000  -0.0000  -0.0000

          k = 0.3241 0.1473 0.5008 (   439 PWs)   bands (ev):

     3.4976   5.6593  12.8092  13.6450  21.1222  21.9361

     occupation numbers 
     1.0000   1.0000  -0.0000  -0.0000  -0.0000  -0.0000

          k =-0.0884-0.7365 0.0884 (   445 PWs)   bands (ev):

     4.9908   6.9577  10.0542  13.8208  15.1727  19.3581

     occupation numbers 
     1.0000   1.0000  -0.0000  -0.0000  -0.0000  -0.0000

          k =-0.1473-0.6776 0.0295 (   445 PWs)   bands (ev):

     5.1077   7.0773  10.0166  12.0348  17.1024  19.6687

     occupation numbers 
     1.0000   1.0000  -0.0000  -0.0000  -0.0000  -0.0000

          k =-0.2062-0.6187-0.0295 (   438 PWs)   bands (ev):

     4.3015   8.7466   9.1388  11.1989  18.9353  21.2928

     occupation numbers 
     1.0000  -0.0004  -0.0000  -0.0000  -0.0000  -0.0000

          k =-0.2652-0.5598-0.0884 (   439 PWs)   bands (ev):

     3.7305   7.2705  10.9554  11.8830  20.0289  23.9942

     occupation numbers 
     1.0000   1.0004  -0.0000  -0.0000  -0.0000  -0.0000

          k =-0.0884-0.6187 0.0884 (   448 PWs)   bands (ev):

     3.8246   8.3352  10.1770  13.9279  15.2929  19.4651

     occupation numbers 
     1.0000  -0.0353  -0.0000  -0.0000  -0.0000  -0.0000

          k =-0.1473-0.5598 0.0295 (   441 PWs)   bands (ev):

     2.7684  10.0156  10.4059  12.3894  17.4444  19.9828

     occupation numbers 
     1.0000  -0.0000  -0.0000  -0.0000  -0.0000  -0.0000

          k =-0.2062-0.5008-0.0295 (   438 PWs)   bands (ev):

     2.0494   9.6590  11.5670  12.3505  19.4936  21.7749

     occupation numbers 
     1.0000  -0.0000  -0.0000  -0.0000  -0.0000  -0.0000

          k =-0.0884-0.5008 0.0884 (   438 PWs)   bands (ev):

     1.5626  10.7055  11.7357  14.4638  15.8901  19.9937

     occupation numbers 
     1.0000  -0.0000  -0.0000  -0.0000  -0.0000  -0.0000

          k =-0.1473-0.4419 0.0295 (   441 PWs)   bands (ev):

     0.7091  11.1657  13.0359  13.7856  18.2354  20.6914

     occupation numbers 
     1.0000  -0.0000  -0.0000  -0.0000  -0.0000  -0.0000

          k =-0.0884-0.3830 0.0884 (   445 PWs)   bands (ev):

    -0.2748  11.7726  15.4289  15.4768  16.9466  20.9053

     occupation numbers 
     1.0000  -0.0000  -0.0000  -0.0000  -0.0000  -0.0000

          k =-0.1473 0.1473 0.1473 (   438 PWs)   bands (ev):

    -2.0145  12.9815  19.0685  19.0685  22.4348  23.4799

     occupation numbers 
     1.0000  -0.0000  -0.0000  -0.0000  -0.0000  -0.0000

          k =-0.2062 0.2062 0.0884 (   445 PWs)   bands (ev):

    -1.5152  12.0469  16.2920  20.7417  21.4919  23.1709

     occupation numbers 
     1.0000  -0.0000  -0.0000  -0.0000  -0.0000  -0.0000

          k =-0.2652 0.2652 0.0295 (   441 PWs)   bands (ev):

    -0.6456  11.2907  13.3086  19.6388  21.6595  22.7726

     occupation numbers 
     1.0000  -0.0000  -0.0000  -0.0000  -0.0000  -0.0000

          k =-0.3241 0.3241-0.0295 (   436 PWs)   bands (ev):

     0.5877   9.6652  11.7301  18.1426  20.1392  23.9222

     occupation numbers 
     1.0000  -0.0000  -0.0000  -0.0000  -0.0000  -0.0000

          k = 0.3241-0.3241 0.6187 (   439 PWs)   bands (ev):

     2.1746   7.1590  11.6608  16.9557  18.8737  24.1174

     occupation numbers 
     1.0000   1.0000  -0.0000  -0.0000  -0.0000  -0.0000

          k = 0.2652-0.2652 0.5598 (   440 PWs)   bands (ev):

     4.0858   4.8409  12.0809  16.0896  17.9199  24.5501

     occupation numbers 
     1.0000   1.0000  -0.0000  -0.0000  -0.0000  -0.0000

          k = 0.2062-0.2062 0.5008 (   440 PWs)   bands (ev):

     2.7762   6.3745  12.8717  15.5466  17.2972  25.2758

     occupation numbers 
     1.0000   1.0000  -0.0000  -0.0000  -0.0000  -0.0000

          k = 0.1473-0.1473 0.4419 (   437 PWs)   bands (ev):

     1.0768   8.9387  14.0092  15.3265  16.9986  23.1443

     occupation numbers 
     1.0000  -0.0000  -0.0000  -0.0000  -0.0000  -0.0000

          k =-0.1473 0.2652 0.1473 (   442 PWs)   bands (ev):

    -1.1419  11.0376  17.2599  18.8114  19.9383  24.1236

     occupation numbers 
     1.0000  -0.0000  -0.0000  -0.0000  -0.0000  -0.0000

          k =-0.2062 0.3241 0.0884 (   440 PWs)   bands (ev):

    -0.3981  10.3140  14.6727  18.0252  20.1316  23.4486

     occupation numbers 
     1.0000  -0.0000  -0.0000  -0.0000  -0.0000  -0.0000

          k =-0.2652 0.3830 0.0295 (   436 PWs)   bands (ev):

     0.7102   9.7809  11.8352  16.3714  21.9663  22.2953

     occupation numbers 
     1.0000  -0.0000  -0.0000  -0.0000  -0.0000  -0.0000

          k = 0.3830-0.2652 0.6776 (   432 PWs)   bands (ev):

     2.1739   8.3838  10.4520  15.0284  20.7560  23.6027

     occupation numbers 
     1.0000  -0.0328  -0.0000  -0.0000  -0.0000  -0.0000

          k = 0.3241-0.2062 0.6187 (   434 PWs)   bands (ev):

     3.9770   6.0994  10.6095  14.0166  19.7425  24.1150

     occupation numbers 
     1.0000   1.0000  -0.0000  -0.0000  -0.0000  -0.0000

          k = 0.2652-0.1473 0.5598 (   436 PWs)   bands (ev):

     3.9681   6.1310  11.2553  13.3530  19.0257  24.6650

     occupation numbers 
     1.0000   1.0000  -0.0000  -0.0000  -0.0000  -0.0000

          k = 0.2062-0.0884 0.5008 (   437 PWs)   bands (ev):

     2.1709   8.5575  12.2330  13.0874  18.5871  22.8772

     occupation numbers 
     1.0000  -0.0078  -0.0000  -0.0000  -0.0000  -0.0000

          k =-0.1473 0.3830 0.1473 (   440 PWs)   bands (ev):

     0.2185   9.5251  15.8639  15.9209  17.5602  23.5987

     occupation numbers 
     1.0000  -0.0000  -0.0000  -0.0000  -0.0000  -0.0000

          k =-0.2062 0.4419 0.0884 (   438 PWs)   bands (ev):

     1.1991   9.0287  13.3860  14.2107  19.0216  23.2252

     occupation numbers 
     1.0000  -0.0000  -0.0000  -0.0000  -0.0000  -0.0000

          k = 0.4419-0.2062 0.7365 (   437 PWs)   bands (ev):

     2.5346   8.7313  10.7617  12.7129  21.3027  23.0653

     occupation numbers 
     1.0000  -0.0006  -0.0000  -0.0000  -0.0000  -0.0000

          k = 0.3830-0.1473 0.6776 (   437 PWs)   bands (ev):

     4.2091   7.5663   9.5941  11.5792  22.4358  22.9544

     occupation numbers 
     1.0000   1.0215  -0.0000  -0.0000  -0.0000  -0.0000

          k = 0.3241-0.0884 0.6187 (   437 PWs)   bands (ev):

     5.4706   6.2268   9.9280  10.8737  21.6803  23.6578

     occupation numbers 
     1.0000   1.0000  -0.0000  -0.0000  -0.0000  -0.0000

          k = 0.2652-0.0295 0.5598 (   440 PWs)   bands (ev):

     3.6110   8.3792  10.2899  11.1183  20.9802  23.0046

     occupation numbers 
     1.0000  -0.0333  -0.0000  -0.0000  -0.0000  -0.0000

          k =-0.1473 0.5008 0.1473 (   438 PWs)   bands (ev):

     2.0494   8.4666  12.1834  14.8967  16.5368  22.7636

     occupation numbers 
     1.0000  -0.0196  -0.0000  -0.0000  -0.0000  -0.0000

          k = 0.5008-0.1473 0.7955 (   438 PWs)   bands (ev):

     3.2504   8.1994  10.5590  12.7007  18.2550  22.5969

     occupation numbers 
     1.0000   0.0425  -0.0000  -0.0000  -0.0000  -0.0000

          k = 0.4419-0.0884 0.7365 (   438 PWs)   bands (ev):

     4.7764   8.1366   9.2213  10.3652  20.7617  22.8698

     occupation numbers 
     1.0000   0.1511  -0.0000  -0.0000  -0.0000  -0.0000

          k = 0.3830-0.0295 0.6776 (   440 PWs)   bands (ev):

     6.5023   7.2047   8.4060   9.4882  22.5673  24.1561

     occupation numbers 
     1.0000   1.0001  -0.0297  -0.0000  -0.0000  -0.0000

          k = 0.3241 0.0295 0.6187 (   435 PWs)   bands (ev):

     5.3664   7.3313   9.2322  10.1216  22.6587  23.4612

     occupation numbers 
     1.0000   1.0012  -0.0000  -0.0000  -0.0000  -0.0000

          k =-0.1473-0.7955 0.1473 (   438 PWs)   bands (ev):

     4.3010   7.8429   8.8874  14.3598  15.9467  22.2706

     occupation numbers 
     1.0000   0.9274  -0.0000  -0.0000  -0.0000  -0.0000

          k =-0.2062-0.7365 0.0884 (   439 PWs)   bands (ev):

     5.5740   7.4459   7.9987  12.3462  17.9187  22.3061

     occupation numbers 
     1.0000   1.0062   0.5375  -0.0000  -0.0000  -0.0000

          k =-0.2652-0.6776 0.0295 (   436 PWs)   bands (ev):

     5.9243   7.7983   8.1348  10.1918  20.6518  22.7908

     occupation numbers 
     1.0000   0.9849   0.1552  -0.0000  -0.0000  -0.0000

          k =-0.1473-0.6776 0.1473 (   434 PWs)   bands (ev):

     5.4572   7.3270   7.9123  14.2525  15.8272  22.1703

     occupation numbers 
     1.0000   1.0011   0.7851  -0.0000  -0.0000  -0.0000

          k =-0.2062-0.6187 0.0884 (   440 PWs)   bands (ev):

     4.4200   7.9388   8.9914  12.4633  18.0312  22.4039

     occupation numbers 
     1.0000   0.7153  -0.0000  -0.0000  -0.0000  -0.0000

          k =-0.1473-0.5598 0.1473 (   439 PWs)   bands (ev):

     3.1300   8.1072  10.4626  14.5745  16.1842  22.4699

     occupation numbers 
     1.0000   0.2200  -0.0000  -0.0000  -0.0000  -0.0000

          k =-0.2062 0.2062 0.2062 (   432 PWs)   bands (ev):

    -0.8935   9.8974  18.7756  18.7756  22.0065  22.0065

     occupation numbers 
     1.0000  -0.0000  -0.0000  -0.0000  -0.0000  -0.0000

          k =-0.2652 0.2652 0.1473 (   441 PWs)   bands (ev):

    -0.2744   9.0752  16.0662  19.9547  20.6488  21.7205

     occupation numbers 
     1.0000  -0.0000  -0.0000  -0.0000  -0.0000  -0.0000

          k =-0.3241 0.3241 0.0884 (   436 PWs)   bands (ev):

     0.7105   8.5684  13.0296  18.2512  20.2203  22.8024

     occupation numbers 
     1.0000  -0.0068  -0.0000  -0.0000  -0.0000  -0.0000

          k = 0.3241-0.3241 0.7365 (   435 PWs)   bands (ev):

     2.0532   8.2677  10.3419  16.8475  18.7733  25.2746

     occupation numbers 
     1.0000  -0.0183  -0.0000  -0.0000  -0.0000  -0.0000

          k = 0.2652-0.2652 0.6776 (   439 PWs)   bands (ev):

     3.7412   7.1015   9.1646  15.7659  17.5918  26.8025

     occupation numbers 
     1.0000   1.0000  -0.0000  -0.0000  -0.0000  -0.0000

          k = 0.2062-0.2062 0.6187 (   441 PWs)   bands (ev):

     4.9978   5.7934   9.5648  15.0083  16.7273  25.2714

     occupation numbers 
     1.0000   1.0000  -0.0000  -0.0000  -0.0000  -0.0000

          k =-0.2062 0.3241 0.2062 (   439 PWs)   bands (ev):

     0.2189   8.1468  17.1633  18.4871  18.7898  22.9885

     occupation numbers 
     1.0000   0.1300  -0.0000  -0.0000  -0.0000  -0.0000

          k =-0.2652 0.3830 0.1473 (   437 PWs)   bands (ev):

     1.0779   7.5494  14.6484  16.6964  20.2123  22.2788

     occupation numbers 
     1.0000   1.0187  -0.0000  -0.0000  -0.0000  -0.0000

          k = 0.3830-0.2652 0.7955 (   431 PWs)   bands (ev):

     2.2952   7.2760  11.7672  15.1408  20.8435  22.5989

     occupation numbers 
     1.0000   1.0005  -0.0000  -0.0000  -0.0000  -0.0000

          k = 0.3241-0.2062 0.7365 (   436 PWs)   bands (ev):

     3.8589   7.2180   9.2774  13.9020  19.6391  25.1594

     occupation numbers 
     1.0000   1.0002  -0.0000  -0.0000  -0.0000  -0.0000

          k = 0.2652-0.1473 0.6776 (   442 PWs)   bands (ev):

     5.7340   6.2968   8.3324  13.0017  18.6999  25.2384

     occupation numbers 
     1.0000   1.0000  -0.0352  -0.0000  -0.0000  -0.0000

          k =-0.2062 0.4419 0.2062 (   439 PWs)   bands (ev):

     1.8092   6.8485  14.6844  15.9775  17.7347  24.4072

     occupation numbers 
     1.0000   1.0000  -0.0000  -0.0000  -0.0000  -0.0000

          k = 0.4419-0.2062 0.8544 (   439 PWs)   bands (ev):

     2.8970   6.4853  12.9264  13.7333  19.3432  23.8080

     occupation numbers 
     1.0000   1.0000  -0.0000  -0.0000  -0.0000  -0.0000

          k = 0.3830-0.1473 0.7955 (   438 PWs)   bands (ev):

     4.3266   6.4518  10.8651  11.7516  21.8460  22.6938

     occupation numbers 
     1.0000   1.0000  -0.0000  -0.0000  -0.0000  -0.0000

          k = 0.3241-0.0884 0.7365 (   438 PWs)   bands (ev):

     6.0601   6.6435   8.6499  10.6961  21.5838  24.6307

     occupation numbers 
     1.0000   1.0000  -0.0022  -0.0000  -0.0000  -0.0000

          k =-0.2062-0.8544 0.2062 (   440 PWs)   bands (ev):

     3.8484   6.0198  11.1562  15.2235  16.9578  25.4197

     occupation numbers 
     1.0000   1.0000  -0.0000  -0.0000  -0.0000  -0.0000

          k =-0.2652-0.7955 0.1473 (   437 PWs)   bands (ev):

     5.1161   5.9050   9.6742  13.1179  18.8094  25.1922

     occupation numbers 
     1.0000   1.0000  -0.0000  -0.0000  -0.0000  -0.0000

          k =-0.2062-0.7365 0.2062 (   440 PWs)   bands (ev):

     5.6219   6.1806   8.2184  14.9008  16.6108  25.1927

     occupation numbers 
     1.0000   1.0000   0.0200  -0.0000  -0.0000  -0.0000

          k =-0.2652 0.2652 0.2652 (   431 PWs)   bands (ev):

     0.5880   7.0938  18.7923  18.7923  20.7417  20.7417

     occupation numbers 
     1.0000   1.0000  -0.0000  -0.0000  -0.0000  -0.0000

          k =-0.3241 0.3241 0.2062 (   439 PWs)   bands (ev):

     1.3229   6.3813  16.1795  18.7944  20.5104  20.7554

     occupation numbers 
     1.0000   1.0000  -0.0000  -0.0000  -0.0000  -0.0000

          k = 0.3241-0.3241 0.8544 (   441 PWs)   bands (ev):

     2.4171   6.0141  13.2221  17.1723  19.0670  23.0383

     occupation numbers 
     1.0000   1.0000  -0.0000  -0.0000  -0.0000  -0.0000

          k = 0.2652-0.2652 0.7955 (   443 PWs)   bands (ev):

     3.8594   5.9813  10.5008  15.8737  17.7025  25.6287

     occupation numbers 
     1.0000   1.0000  -0.0000  -0.0000  -0.0000  -0.0000

          k =-0.2652 0.3830 0.2652 (   438 PWs)   bands (ev):

     1.9321   5.5526  17.3869  17.4040  19.0248  21.9394

     occupation numbers 
     1.0000   1.0000  -0.0000  -0.0000  -0.0000  -0.0000

          k = 0.3830-0.2652 0.9133 (   439 PWs)   bands (ev):

     2.8991   5.0746  14.9553  15.7143  20.5586  21.3191

     occupation numbers 
     1.0000   1.0000  -0.0000  -0.0000  -0.0000  -0.0000

          k = 0.3241-0.2062 0.8544 (   437 PWs)   bands (ev):

     4.2027   4.9606  12.1798  14.2478  19.9443  23.0781

     occupation numbers 
     1.0000   1.0000  -0.0000  -0.0000  -0.0000  -0.0000

          k =-0.2652-0.9133 0.2652 (   443 PWs)   bands (ev):

     3.7264   4.4924  13.7803  16.4136  18.2341  23.5733

     occupation numbers 
     1.0000   1.0000  -0.0000  -0.0000  -0.0000  -0.0000

          k =-0.3241 0.3241 0.3241 (   434 PWs)   bands (ev):

     2.4173   4.6006  19.1245  19.1245  19.7771  19.7771

     occupation numbers 
     1.0000   1.0000  -0.0000  -0.0000  -0.0000  -0.0000

          k = 0.3241-0.3241 0.9722 (   439 PWs)   bands (ev):

     3.2524   4.0112  16.6269  17.9313  19.6060  21.1913

     occupation numbers 
     1.0000   1.0000  -0.0000  -0.0000  -0.0000  -0.0000

     the Fermi energy is     8.0108 ev

!    total energy              =     -39.50178450 Ry
     total all-electron energy =       -39.501785 Ry
     estimated scf accuracy    <          4.5E-19 Ry
     smearing contrib. (-TS)   =      -0.00008844 Ry
     internal energy E=F+TS    =     -39.50169606 Ry

     The total energy is F=E-TS. E is the sum of the following terms:
     one-electron contribution =       3.16220086 Ry
     hartree contribution      =       0.00827452 Ry
     xc contribution           =      -2.10394221 Ry
     ewald contribution        =      -5.40758785 Ry
     one-center paw contrib.   =     -35.16064138 Ry
      -> PAW hartree energy AE =       0.30750723 Ry
      -> PAW hartree energy PS =      -0.29818115 Ry
      -> PAW xc energy AE      =     -36.02478246 Ry
      -> PAW xc energy PS      =       0.85481501 Ry
      -> total E_H with PAW    =       0.01760060 Ry
      -> total E_XC with PAW   =     -37.27390966 Ry

     convergence has been achieved in  10 iterations

     negative rho (up, down):  7.346E-04 0.000E+00

     Forces acting on atoms (cartesian axes, Ry/au):

     atom    1 type  1   force =     0.00000000    0.00000000    0.00000000
     The non-local contrib.  to forces
     atom    1 type  1   force =    -0.00000000   -0.00000000    0.00000000
     The ionic contribution  to forces
     atom    1 type  1   force =     0.00000000    0.00000000    0.00000000
     The local contribution  to forces
     atom    1 type  1   force =    -0.00000000   -0.00000000   -0.00000000
     The core correction contribution to forces
     atom    1 type  1   force =     0.00000000   -0.00000000    0.00000000
     The Hubbard contrib.    to forces
     atom    1 type  1   force =     0.00000000    0.00000000    0.00000000
     The SCF correction term to forces
     atom    1 type  1   force =     0.00000000    0.00000000   -0.00000000

     Total force =     0.000000     Total SCF correction =     0.000000


     Computing stress (Cartesian axis) and pressure


     negative rho (up, down):  7.346E-04 0.000E+00
          total   stress  (Ry/bohr**3)                   (kbar)     P=        0.07
   0.00000045   0.00000000  -0.00000000            0.07        0.00       -0.00
  -0.00000000   0.00000045   0.00000000           -0.00        0.07        0.00
  -0.00000000   0.00000000   0.00000045           -0.00        0.00        0.07

     kinetic stress (kbar)   1464.51      0.00     -0.00
                                0.00   1464.51     -0.00
                               -0.00     -0.00   1464.51

     local   stress (kbar)    -47.03     -0.00      0.00
                               -0.00    -47.03     -0.00
                                0.00     -0.00    -47.03

     nonloc. stress (kbar)   1751.70      0.00      0.00
                                0.00   1751.70      0.00
                                0.00      0.00   1751.70

     hartree stress (kbar)      3.65     -0.00     -0.00
                               -0.00      3.65      0.00
                               -0.00      0.00      3.65

     exc-cor stress (kbar)    -86.36     -0.00      0.00
                               -0.00    -86.36     -0.00
                                0.00     -0.00    -86.36

     corecor stress (kbar)   -699.29     -0.00     -0.00
                               -0.00   -699.29     -0.00
                               -0.00     -0.00   -699.29

     ewald   stress (kbar)  -2387.12     -0.00      0.00
                               -0.00  -2387.12      0.00
                                0.00      0.00  -2387.12

     hubbard stress (kbar)      0.00      0.00      0.00
                                0.00      0.00      0.00
                                0.00      0.00      0.00

     DFT-D   stress (kbar)      0.00      0.00      0.00
                                0.00      0.00      0.00
                                0.00      0.00      0.00

     XDM     stress (kbar)      0.00      0.00      0.00
                                0.00      0.00      0.00
                                0.00      0.00      0.00

     dft-nl  stress (kbar)      0.00      0.00      0.00
                                0.00      0.00      0.00
                                0.00      0.00      0.00

     TS-vdW  stress (kbar)      0.00      0.00      0.00
                                0.00      0.00      0.00
                                0.00      0.00      0.00

     MDB     stress (kbar)      0.00      0.00      0.00
                                0.00      0.00      0.00
                                0.00      0.00      0.00

     3D-RISM stress (kbar)      0.00      0.00      0.00
                                0.00      0.00      0.00
                                0.00      0.00      0.00


     Writing all to output data dir ./tmp/al.save/ :
     XML data file, charge density, pseudopotentials, collected wavefunctions
 
     init_run     :      0.12s CPU      0.14s WALL (       2 calls)
     electrons    :      1.60s CPU      1.79s WALL (       4 calls)
     update_pot   :      0.02s CPU      0.02s WALL (       2 calls)
     forces       :      0.01s CPU      0.01s WALL (       4 calls)
     stress       :      0.04s CPU      0.04s WALL (       4 calls)

     Called by init_run:
     wfcinit      :      0.04s CPU      0.04s WALL (       2 calls)
     wfcinit:atom :      0.00s CPU      0.00s WALL (     182 calls)
     wfcinit:wfcr :      0.03s CPU      0.04s WALL (     182 calls)
     potinit      :      0.03s CPU      0.03s WALL (       2 calls)
     hinit0       :      0.05s CPU      0.06s WALL (       2 calls)

     Called by electrons:
     c_bands      :      1.17s CPU      1.30s WALL (      33 calls)
     sum_band     :      0.20s CPU      0.22s WALL (      33 calls)
     v_of_rho     :      0.01s CPU      0.01s WALL (      34 calls)
     v_h          :      0.00s CPU      0.00s WALL (      34 calls)
     v_xc         :      0.01s CPU      0.01s WALL (      42 calls)
     newd         :      0.00s CPU      0.00s WALL (      34 calls)
     PAW_pot      :      0.27s CPU      0.31s WALL (      36 calls)
     mix_rho      :      0.00s CPU      0.00s WALL (      33 calls)

     Called by c_bands:
     init_us_2    :      0.03s CPU      0.03s WALL (    7098 calls)
     cegterg      :      1.08s CPU      1.21s WALL (    3003 calls)

     Called by sum_band:
     sum_band:wei :      0.02s CPU      0.02s WALL (      33 calls)
     sum_band:loo :      0.18s CPU      0.19s WALL (      33 calls)
     sum_band:buf :      0.00s CPU      0.00s WALL (    3003 calls)
     sum_band:ini :      0.01s CPU      0.01s WALL (    3003 calls)
     sum_band:cal :      0.02s CPU      0.02s WALL (    3185 calls)
     sum_band:bec :      0.00s CPU      0.00s WALL (    3185 calls)
     addusdens    :      0.00s CPU      0.00s WALL (      33 calls)
                                        0.00s GPU  (      33 calls)
     addusd:skk   :      0.00s CPU      0.00s WALL (      33 calls)
                                        0.00s GPU  (      33 calls)

     Called by *egterg:
     cdiaghg      :      0.16s CPU      0.18s WALL (    8806 calls)
     cegterg:over :      0.05s CPU      0.06s WALL (    6258 calls)
     cegterg:upda :      0.01s CPU      0.01s WALL (    6258 calls)
     cegterg:last :      0.01s CPU      0.01s WALL (    5153 calls)
     h_psi        :      0.77s CPU      0.86s WALL (    9443 calls)
     s_psi        :      0.01s CPU      0.01s WALL (    9443 calls)
     g_psi        :      0.00s CPU      0.00s WALL (    6258 calls)

     Called by h_psi:
     h_psi:calbec :      0.05s CPU      0.05s WALL (    9443 calls)
     vloc_psi     :      0.69s CPU      0.77s WALL (    9443 calls)
     add_vuspsi   :      0.01s CPU      0.01s WALL (    9443 calls)

     General routines
     calbec       :      0.08s CPU      0.09s WALL (   18816 calls)
     fft          :      0.00s CPU      0.01s WALL (     479 calls)
     ffts         :      0.00s CPU      0.00s WALL (      33 calls)
     fftw         :      0.74s CPU      0.83s WALL (  109864 calls)
 
     Parallel routines

     PAW routines
     PAW_pot      :      0.27s CPU      0.31s WALL (      36 calls)
     PAW_symme    :      0.00s CPU      0.00s WALL (      69 calls)
 
     PWSCF        :      1.91s CPU      2.16s WALL

 
   This run was terminated on:  11:19:33   1May2026            

=------------------------------------------------------------------------------=
   JOB DONE.
=------------------------------------------------------------------------------=
