
     Program PWSCF v.7.4 starts on 12Jun2026 at  6: 0: 5 

     This program is part of the open-source Quantum ESPRESSO suite
     for quantum simulation of materials; please cite
         "P. Giannozzi et al., J. Phys.:Condens. Matter 21 395502 (2009);
         "P. Giannozzi et al., J. Phys.:Condens. Matter 29 465901 (2017);
         "P. Giannozzi et al., J. Chem. Phys. 152 154105 (2020);
          URL http://www.quantum-espresso.org", 
     in publications or presentations arising from this work. More details at
     http://www.quantum-espresso.org/quote

     Parallel version (MPI), running on    12 processors

     MPI processes distributed on     1 nodes
     203908 MiB available memory on the printing compute node when the environment starts
 
     Reading input from ./scratch_runs/atom02_x_minus/atom02_x_minus.in

     Current dimensions of program PWSCF are:
     Max number of different atomic species (ntypx) = 10
     Max number of k-points (npk) =  40000
     Max angular momentum in pseudopotentials (lmaxx) =  4
     file Si_NC_PBE.upf: wavefunction(s)  4f renormalized

     IMPORTANT: XC functional enforced from input :
     Exchange-correlation= HSE
                           (   1   4  12   4   0   0   0)
     EXX-fraction              =        0.25
     Any further DFT definition will be discarded
     Please, verify this is what you really want

     EXX fraction changed:   0.25
     Message from routine setup:
     using ibrav=0 with symmetry is DISCOURAGED, use correct ibrav instead
 
     R & G space division:  proc/nbgrp/npool/nimage =      12
     Subspace diagonalization in iterative solution of the eigenvalue problem:
     a serial algorithm will be used

     EXX: q-point mesh:     6    6    6
     EXX: setup a grid of 216 q-points centered on each k-point
     (set verbosity='high' to see the list)
 
     Parallelization info
     --------------------
     sticks:   dense  smooth     PW     G-vecs:    dense   smooth      PW
     Min         242     242     67                 8614     8614    1257
     Max         243     243     68                 8618     8618    1260
     Sum        2905    2905    805               103379   103379   15089
 
     Using Slab Decomposition
 


     bravais-lattice index     =            0
     lattice parameter (alat)  =      14.5142  a.u.
     unit-cell volume          =    2162.0514 (a.u.)^3
     number of atoms/cell      =           16
     number of atomic types    =            1
     number of electrons       =        64.00
     number of Kohn-Sham states=           32
     kinetic-energy cutoff     =      50.0000  Ry
     charge density cutoff     =     200.0000  Ry
     cutoff for Fock operator  =     200.0000  Ry
     scf convergence threshold =      1.0E-08
     mixing beta               =       0.7000
     number of iterations used =            8  plain     mixing
     Exchange-correlation= HSE
                           (   1   4  12   4   0   0   0)
     EXX-fraction              =        0.25

     celldm(1)=  14.514219  celldm(2)=   0.000000  celldm(3)=   0.000000
     celldm(4)=   0.000000  celldm(5)=   0.000000  celldm(6)=   0.000000

     crystal axes: (cart. coord. in units of alat)
               a(1) = (  -0.707107   0.000000   0.707107 )  
               a(2) = (   0.000000   0.707107   0.707107 )  
               a(3) = (  -0.707107   0.707107   0.000000 )  

     reciprocal axes: (cart. coord. in units 2 pi/alat)
               b(1) = ( -0.707107 -0.707107  0.707107 )  
               b(2) = (  0.707107  0.707107  0.707107 )  
               b(3) = ( -0.707107  0.707107 -0.707107 )  


     PseudoPot. # 1 for Si read from file:
     ../../../pseudopotentzialak/Si_NC_PBE.upf
     MD5 check sum: 2f548285ada518390005852429903be6
     Pseudo is Norm-conserving, Zval =  4.0
     Generated using FHI98PP, converted with fhi2upf.x v.5.0.2
     Using radial grid of  495 points,  3 beta functions with: 
                l(1) =   0
                l(2) =   1
                l(3) =   3

     atomic species   valence    mass     pseudopotential
     Si                4.00    28.08600     Si( 1.00)

      4 Sym. Ops. (no inversion) found ( 2 have fractional translation)



   Cartesian axes

     site n.     atom                  positions (alat units)
         1        Si     tau(   1) = (   0.0000000   0.0000000   0.0000000  )
         2        Si     tau(   2) = (  -0.1780787   0.1767767   0.1767767  )
         3        Si     tau(   3) = (  -0.3535534   0.0000000   0.3535534  )
         4        Si     tau(   4) = (  -0.5303301   0.1767767   0.5303301  )
         5        Si     tau(   5) = (   0.0000000   0.3535534   0.3535534  )
         6        Si     tau(   6) = (  -0.1767767   0.5303301   0.5303301  )
         7        Si     tau(   7) = (  -0.3535534   0.3535534   0.0000000  )
         8        Si     tau(   8) = (  -0.5303301   0.5303301   0.1767767  )
         9        Si     tau(   9) = (  -0.3535534   0.3535534   0.7071068  )
        10        Si     tau(  10) = (  -0.5303301   0.5303301   0.8838835  )
        11        Si     tau(  11) = (  -0.7071068   0.3535534   0.3535534  )
        12        Si     tau(  12) = (  -0.8838835   0.5303301   0.5303301  )
        13        Si     tau(  13) = (  -0.3535534   0.7071068   0.3535534  )
        14        Si     tau(  14) = (  -0.5303301   0.8838835   0.5303301  )
        15        Si     tau(  15) = (  -0.7071068   0.7071068   0.7071068  )
        16        Si     tau(  16) = (  -0.8838835   0.8838835   0.8838835  )

     number of k points=    46
                       cart. coord. in units 2pi/alat
        k(    1) = (   0.0000000   0.0000000   0.0000000), wk =   0.0092593
        k(    2) = (  -0.1178511   0.1178511  -0.1178511), wk =   0.0370370
        k(    3) = (  -0.2357023   0.2357023  -0.2357023), wk =   0.0370370
        k(    4) = (   0.3535534  -0.3535534   0.3535534), wk =   0.0185185
        k(    5) = (   0.0000000   0.2357023   0.0000000), wk =   0.0370370
        k(    6) = (  -0.1178511   0.3535534  -0.1178511), wk =   0.0740741
        k(    7) = (   0.4714045  -0.2357023   0.4714045), wk =   0.0740741
        k(    8) = (   0.3535534  -0.1178511   0.3535534), wk =   0.0740741
        k(    9) = (   0.2357023  -0.0000000   0.2357023), wk =   0.0740741
        k(   10) = (   0.0000000   0.4714045   0.0000000), wk =   0.0370370
        k(   11) = (   0.5892557  -0.1178511   0.5892557), wk =   0.0740741
        k(   12) = (   0.4714045  -0.0000000   0.4714045), wk =   0.0740741
        k(   13) = (   0.0000000  -0.7071068   0.0000000), wk =   0.0185185
        k(   14) = (   0.4714045  -0.2357023   0.7071068), wk =   0.0740741
        k(   15) = (   0.3535534  -0.1178511   0.5892557), wk =   0.0370370
        k(   16) = (  -0.2357023  -0.7071068   0.0000000), wk =   0.0370370
        k(   17) = (  -0.1178511   0.1178511   0.1178511), wk =   0.0370370
        k(   18) = (  -0.2357023   0.2357023   0.2357023), wk =   0.0370370
        k(   19) = (   0.3535534  -0.3535534  -0.3535534), wk =   0.0185185
        k(   20) = (   0.2357023   0.0000000   0.0000000), wk =   0.0185185
        k(   21) = (   0.3535534  -0.1178511   0.1178511), wk =   0.0370370
        k(   22) = (  -0.3535534   0.1178511   0.1178511), wk =   0.0370370
        k(   23) = (  -0.1178511  -0.3535534  -0.1178511), wk =   0.0740741
        k(   24) = (  -0.2357023   0.4714045  -0.4714045), wk =   0.0370370
        k(   25) = (   0.2357023  -0.4714045  -0.4714045), wk =   0.0370370
        k(   26) = (   0.4714045   0.2357023   0.4714045), wk =   0.0740741
        k(   27) = (  -0.1178511   0.3535534  -0.3535534), wk =   0.0370370
        k(   28) = (   0.1178511  -0.3535534  -0.3535534), wk =   0.0370370
        k(   29) = (   0.3535534   0.1178511   0.3535534), wk =   0.0740741
        k(   30) = (  -0.0000000   0.2357023  -0.2357023), wk =   0.0185185
        k(   31) = (   0.0000000  -0.2357023  -0.2357023), wk =   0.0185185
        k(   32) = (   0.4714045   0.0000000   0.0000000), wk =   0.0185185
        k(   33) = (  -0.1178511   0.5892557  -0.5892557), wk =   0.0370370
        k(   34) = (   0.1178511  -0.5892557  -0.5892557), wk =   0.0370370
        k(   35) = (   0.5892557   0.1178511   0.5892557), wk =   0.0740741
        k(   36) = (   0.0000000   0.4714045  -0.4714045), wk =   0.0185185
        k(   37) = (   0.0000000  -0.4714045  -0.4714045), wk =   0.0185185
        k(   38) = (  -0.7071068   0.0000000   0.0000000), wk =   0.0092593
        k(   39) = (  -0.2357023   0.4714045  -0.7071068), wk =   0.0740741
        k(   40) = (   0.7071068   0.2357023   0.4714045), wk =   0.0370370
        k(   41) = (  -0.7071068   0.2357023  -0.4714045), wk =   0.0370370
        k(   42) = (  -0.1178511   0.3535534  -0.5892557), wk =   0.0740741
        k(   43) = (   0.1178511  -0.3535534  -0.5892557), wk =   0.0740741
        k(   44) = (   0.3535534   0.5892557   0.1178511), wk =   0.0370370
        k(   45) = (  -0.7071068  -0.2357023   0.0000000), wk =   0.0370370
        k(   46) = (   0.0000000   0.7071068  -0.2357023), wk =   0.0370370

     Dense  grid:   103379 G-vectors     FFT dimensions: (  72,  72,  72)

     Estimated max dynamical RAM per process >       1.84 GB

     Estimated total dynamical RAM >      22.06 GB
     EXX: ACE will be initialized later

     Initial potential from superposition of free atoms

     starting charge      63.9887, renormalised to      64.0000
     Starting wfcs are  256 randomized atomic wfcs

     total cpu time spent up to now is        8.7 secs

     per-process dynamical memory:    95.4 Mb

     Self-consistent Calculation

     iteration #  1     ecut=    50.00 Ry     beta= 0.70
     Davidson diagonalization with overlap
     ethr =  1.00E-02,  avg # of iterations =  2.0

     Threshold (ethr) on eigenvalues was too large:
     Diagonalizing with lowered threshold

     Davidson diagonalization with overlap
     ethr =  6.72E-04,  avg # of iterations =  1.0

     total cpu time spent up to now is       12.2 secs

     total energy              =    -126.07721095 Ry
     estimated scf accuracy    <       0.44932990 Ry

     iteration #  2     ecut=    50.00 Ry     beta= 0.70
     Davidson diagonalization with overlap
     ethr =  7.02E-04,  avg # of iterations =  1.0

     total cpu time spent up to now is       13.8 secs

     total energy              =    -126.09638321 Ry
     estimated scf accuracy    <       0.02090158 Ry

     iteration #  3     ecut=    50.00 Ry     beta= 0.70
     Davidson diagonalization with overlap
     ethr =  3.27E-05,  avg # of iterations =  2.0

     total cpu time spent up to now is       15.8 secs

     total energy              =    -126.09925028 Ry
     estimated scf accuracy    <       0.00040078 Ry

     iteration #  4     ecut=    50.00 Ry     beta= 0.70
     Davidson diagonalization with overlap
     ethr =  6.26E-07,  avg # of iterations =  4.5

     total cpu time spent up to now is       18.4 secs

     total energy              =    -126.09945224 Ry
     estimated scf accuracy    <       0.00002562 Ry

     iteration #  5     ecut=    50.00 Ry     beta= 0.70
     Davidson diagonalization with overlap
     ethr =  4.00E-08,  avg # of iterations =  3.7

     total cpu time spent up to now is       20.8 secs

     total energy              =    -126.09946598 Ry
     estimated scf accuracy    <       0.00000228 Ry

     iteration #  6     ecut=    50.00 Ry     beta= 0.70
     Davidson diagonalization with overlap
     ethr =  3.56E-09,  avg # of iterations =  3.2

     total cpu time spent up to now is       23.1 secs

     total energy              =    -126.09946648 Ry
     estimated scf accuracy    <       0.00000022 Ry

     iteration #  7     ecut=    50.00 Ry     beta= 0.70
     Davidson diagonalization with overlap
     ethr =  3.36E-10,  avg # of iterations =  3.5

     total cpu time spent up to now is       25.5 secs

     End of self-consistent calculation

          k = 0.0000 0.0000 0.0000 ( 12939 PWs)   bands (ev):

    -5.7481  -3.4194  -3.4165  -3.4126  -3.4097  -1.6081  -1.6041  -1.6000
    -1.6000  -1.5960  -1.5920  -0.7550  -0.7505  -0.7489  -0.7443   3.3670
     3.3703   3.3707   3.3707   3.3711   3.3743   5.0124   5.0200   5.0218
     5.0225   5.0234   5.0241   5.0260   5.0335   6.2150   6.2210   6.2271

          k =-0.1179 0.1179-0.1179 ( 12939 PWs)   bands (ev):

    -5.6570  -3.7479  -3.3819  -3.3755  -3.3752  -2.2022  -2.1955  -2.1949
    -0.9375  -0.9309  -0.9301  -0.6497  -0.6456  -0.6412  -0.2467   3.0460
     3.0498   3.0498   3.4457   3.4469   3.4495   4.4333   4.4391   4.4407
     4.8460   4.8466   4.8509   5.0704   5.0769   5.3571   6.0757   6.0833

          k =-0.2357 0.2357-0.2357 ( 12885 PWs)   bands (ev):

    -5.3864  -4.3694  -3.2598  -3.2532  -3.2531  -2.6818  -2.6752  -2.6747
    -0.3901  -0.3851  -0.3818  -0.3517  -0.3457  -0.3437   0.8836   2.5891
     2.5927   2.5931   3.4395   3.4451   3.4457   3.6682   3.6693   3.6721
     3.8358   4.4461   4.4469   4.4506   5.2191   5.2255   5.7695   5.7765

          k = 0.3536-0.3536 0.3536 ( 12938 PWs)   bands (ev):

    -4.9497  -4.9448  -3.0376  -3.0303  -3.0281  -3.0265  -3.0232  -3.0211
    -0.1723  -0.1660  -0.1649  -0.1644  -0.1590  -0.1538   2.2886   2.2924
     2.6793   2.6865   2.6892   2.6901   2.6916   2.6918   4.0156   4.0163
     4.0173   4.0194   4.0196   4.0269   5.4592   5.4605   5.4611   5.4728

          k = 0.0000 0.2357 0.0000 ( 12951 PWs)   bands (ev):

    -5.6265  -3.5034  -3.4998  -3.4961  -3.4926  -2.8114  -1.5683  -1.5620
    -1.5620  -1.5557  -0.4747  -0.4694  -0.4683  -0.4631  -0.2449   3.0623
     3.0644   3.0664   3.0685   3.4804   3.4804   4.3385   4.3438   4.3458
     4.3510   4.9862   4.9885   4.9898   4.9920   5.5216   5.7925   5.7926

          k =-0.1179 0.3536-0.1179 ( 12894 PWs)   bands (ev):

    -5.4152  -4.0797  -3.5132  -3.5092  -3.3067  -3.1416  -2.1069  -2.1025
    -0.9271  -0.9218  -0.5432  -0.1442  -0.1376   0.4209   0.5016   2.4703
     2.4734   3.2298   3.2526   3.2562   3.3195   3.6553   3.6601   3.6634
     4.2870   4.3744   4.6307   4.6674   4.6701   5.2279   5.4289   5.6214

          k = 0.4714-0.2357 0.4714 ( 12908 PWs)   bands (ev):

    -5.0307  -4.6886  -3.6524  -3.3972  -3.3930  -2.7048  -2.5490  -2.5452
    -0.5764  -0.5221  -0.5158   0.1897   0.1965   0.7634   1.8160   2.2739
     2.2763   2.3256   2.7869   2.9962   3.0001   3.2342   3.6023   3.6060
     3.9799   4.0978   4.1006   4.1983   4.5346   5.1156   5.2974   5.5380

          k = 0.3536-0.1179 0.3536 ( 12892 PWs)   bands (ev):

    -5.1781  -4.4939  -3.8394  -3.1391  -3.1346  -2.8995  -2.8962  -2.2090
    -0.8377  -0.5167  -0.5102   0.1923   0.1987   0.5505   1.3512   2.0140
     2.7522   2.7542   2.7947   2.7969   3.2741   3.5954   3.5984   3.7874
     3.8228   4.0779   4.0820   4.3935   4.8389   4.9052   4.9441   5.8674

          k = 0.2357-0.0000 0.2357 ( 12901 PWs)   bands (ev):

    -5.5059  -3.8689  -3.8674  -3.1741  -3.1712  -2.7362  -2.7316  -1.7415
    -1.3372  -0.6426  -0.6363  -0.2845  -0.2787   0.1208   0.1259   2.3798
     3.1003   3.1013   3.2958   3.2989   3.5637   3.6233   3.6241   4.5729
     4.5774   4.6271   4.6428   4.6477   4.8151   4.8163   5.3601   6.1029

          k = 0.0000 0.4714 0.0000 ( 12907 PWs)   bands (ev):

    -5.2634  -3.8418  -3.6461  -3.6419  -3.6382  -3.6340  -1.4867  -1.4805
    -1.4804  -1.4742   0.2067   0.2121   0.2135   0.2189   1.2056   2.5775
     2.5798   2.5815   2.5837   3.1703   3.1750   3.1766   3.1813   3.8058
     3.8058   4.1756   4.9215   4.9245   4.9256   4.9285   5.0306   5.0308

          k = 0.5893-0.1179 0.5893 ( 12907 PWs)   bands (ev):

    -4.9358  -4.2650  -4.2278  -3.6266  -3.6222  -3.0801  -1.9986  -1.9948
    -0.9350  -0.9297  -0.0837   0.5472   0.5541   1.3579   1.7907   2.1400
     2.1421   2.2071   2.7086   2.7119   2.9202   2.9237   3.0884   3.3224
     3.8665   4.0872   4.5028   4.5676   4.5705   4.6852   4.6963   5.2926

          k = 0.4714-0.0000 0.4714 ( 12878 PWs)   bands (ev):

    -4.7976  -4.4475  -4.4469  -3.4585  -3.4541  -2.4822  -2.4722  -2.4688
    -0.6288  -0.6227  -0.5531   0.5697   0.5766   1.7791   1.7843   1.8134
     2.2149   2.2156   2.5001   2.6548   2.6567   3.4615   3.4654   3.8123
     3.9281   3.9311   4.1113   4.2263   4.2324   4.4771   4.4777   5.6565

          k = 0.0000-0.7071 0.0000 ( 12896 PWs)   bands (ev):

    -4.6649  -4.6649  -3.7085  -3.7040  -3.7003  -3.6959  -1.4426  -1.4366
    -1.4365  -1.4303   0.7336   0.7341   0.7406   0.7412   2.3701   2.3724
     2.3739   2.3759   2.4705   2.4725   2.4730   2.4751   2.6981   2.6982
     4.3337   4.3338   4.3338   4.3339   4.8910   4.8942   4.8952   4.8984

          k = 0.4714-0.2357 0.7071 ( 12905 PWs)   bands (ev):

    -5.1462  -4.1338  -4.1331  -3.7430  -3.0347  -3.0328  -2.5199  -1.9500
    -1.0381  -0.4260  -0.3287  -0.3240   0.9465   0.9507   1.0306   1.9755
     2.4568   2.6355   2.6370   3.0757   3.3848   3.4508   3.4897   3.7845
     3.7900   3.8125   4.2512   4.2526   4.5905   4.9122   4.9147   5.5151

          k = 0.3536-0.1179 0.5893 ( 12886 PWs)   bands (ev):

    -4.7116  -4.7068  -4.0235  -4.0191  -2.8352  -2.8272  -2.4797  -2.4742
    -0.5907  -0.5863  -0.2004  -0.1952   1.2448   1.2519   1.9858   1.9886
     2.2459   2.2499   2.3055   2.3113   3.3531   3.3565   3.5907   3.5968
     3.7997   3.8035   4.0552   4.0640   4.3082   4.3099   5.2385   5.2412

          k =-0.2357-0.7071 0.0000 ( 12912 PWs)   bands (ev):

    -4.5544  -4.5543  -4.2276  -4.2276  -3.0141  -3.0141  -2.2283  -2.2282
    -0.7026  -0.7026   0.0001   0.0002   1.5293   1.5294   2.0166   2.0168
     2.0749   2.0751   2.2963   2.2964   3.1257   3.1263   3.1466   3.1473
     3.8948   3.8949   4.1470   4.1470   4.5962   4.5962   4.9501   4.9501

          k =-0.1179 0.1179 0.1179 ( 12939 PWs)   bands (ev):

    -5.6570  -3.7498  -3.3790  -3.3786  -3.3722  -2.1998  -2.1992  -2.1926
    -0.9362  -0.9354  -0.9288  -0.6518  -0.6475  -0.6434  -0.2415   3.0492
     3.0492   3.0530   3.4437   3.4464   3.4476   4.4390   4.4406   4.4463
     4.8412   4.8458   4.8464   5.0690   5.0753   5.3631   6.0722   6.0798

          k =-0.2357 0.2357 0.2357 ( 12885 PWs)   bands (ev):

    -5.3866  -4.3703  -3.2568  -3.2567  -3.2501  -2.6792  -2.6788  -2.6721
    -0.3924  -0.3880  -0.3835  -0.3516  -0.3508  -0.3441   0.8880   2.5934
     2.5938   2.5973   3.4453   3.4459   3.4515   3.6659   3.6687   3.6699
     3.8404   4.4424   4.4462   4.4471   5.2174   5.2239   5.7669   5.7738

          k = 0.3536-0.3536-0.3536 ( 12938 PWs)   bands (ev):

    -4.9501  -4.9452  -3.0337  -3.0317  -3.0284  -3.0268  -3.0246  -3.0173
    -0.1755  -0.1704  -0.1650  -0.1645  -0.1634  -0.1571   2.2929   2.2965
     2.6884   2.6886   2.6901   2.6910   2.6937   2.7012   4.0093   4.0167
     4.0171   4.0190   4.0200   4.0208   5.4520   5.4636   5.4641   5.4656

          k = 0.2357 0.0000 0.0000 ( 12951 PWs)   bands (ev):

    -5.6265  -3.5023  -3.4998  -3.4961  -3.4936  -2.8113  -1.5661  -1.5621
    -1.5620  -1.5579  -0.4737  -0.4700  -0.4677  -0.4640  -0.2450   3.0645
     3.0654   3.0654   3.0664   3.4781   3.4825   4.3422   4.3439   4.3457
     4.3474   4.9802   4.9880   4.9902   4.9978   5.5217   5.7879   5.7972

          k = 0.3536-0.1179 0.1179 ( 12894 PWs)   bands (ev):

    -5.4152  -4.0796  -3.5152  -3.5095  -3.3064  -3.1388  -2.1075  -2.1026
    -0.9256  -0.9225  -0.5494  -0.1395  -0.1365   0.4198   0.5009   2.4720
     2.4729   3.2305   3.2538   3.2541   3.3182   3.6582   3.6608   3.6665
     4.2886   4.3710   4.6335   4.6598   4.6682   5.2326   5.4333   5.6148

          k =-0.3536 0.1179 0.1179 ( 12894 PWs)   bands (ev):

    -5.4153  -4.0809  -3.5129  -3.5073  -3.3066  -3.1419  -2.1066  -2.1017
    -0.9271  -0.9241  -0.5427  -0.1456  -0.1427   0.4201   0.5063   2.4734
     2.4743   3.2330   3.2529   3.2532   3.3229   3.6570   3.6581   3.6630
     4.2912   4.3739   4.6269   4.6660   4.6745   5.2243   5.4253   5.6203

          k =-0.1179-0.3536-0.1179 ( 12894 PWs)   bands (ev):

    -5.4153  -4.0808  -3.5132  -3.5092  -3.3062  -3.1392  -2.1066  -2.1022
    -0.9278  -0.9225  -0.5490  -0.1446  -0.1380   0.4189   0.5058   2.4728
     2.4759   3.2337   3.2508   3.2543   3.3217   3.6583   3.6625   3.6641
     4.2929   4.3704   4.6298   4.6643   4.6669   5.2293   5.4293   5.6138

          k =-0.2357 0.4714-0.4714 ( 12908 PWs)   bands (ev):

    -5.0308  -4.6884  -3.6518  -3.3986  -3.3934  -2.7017  -2.5507  -2.5451
    -0.5825  -0.5175  -0.5172   0.1951   0.1968   0.7603   1.8150   2.2726
     2.2760   2.3262   2.7879   2.9993   3.0000   3.2345   3.6041   3.6046
     3.9821   4.0919   4.0985   4.2009   4.5317   5.1195   5.2917   5.5432

          k = 0.2357-0.4714-0.4714 ( 12908 PWs)   bands (ev):

    -5.0310  -4.6891  -3.6522  -3.3968  -3.3914  -2.7054  -2.5490  -2.5433
    -0.5757  -0.5217  -0.5215   0.1888   0.1903   0.7618   1.8205   2.2770
     2.2800   2.3286   2.7908   3.0003   3.0010   3.2389   3.6023   3.6027
     3.9770   4.0964   4.1031   4.1953   4.5338   5.1123   5.2965   5.5340

          k = 0.4714 0.2357 0.4714 ( 12908 PWs)   bands (ev):

    -5.0311  -4.6890  -3.6515  -3.3972  -3.3929  -2.7023  -2.5489  -2.5450
    -0.5821  -0.5228  -0.5168   0.1889   0.1957   0.7586   1.8197   2.2766
     2.2788   2.3291   2.7919   3.0002   3.0043   3.2391   3.6006   3.6045
     3.9795   4.0943   4.0971   4.1979   4.5308   5.1163   5.2908   5.5392

          k =-0.1179 0.3536-0.3536 ( 12892 PWs)   bands (ev):

    -5.1780  -4.4940  -3.8384  -3.1400  -3.1351  -2.9023  -2.8959  -2.2057
    -0.8425  -0.5121  -0.5094   0.1978   0.1982   0.5462   1.3519   2.0132
     2.7479   2.7543   2.7961   2.7971   3.2723   3.5913   3.5965   3.7882
     3.8251   4.0804   4.0814   4.3959   4.8371   4.9093   4.9388   5.8730

          k = 0.1179-0.3536-0.3536 ( 12892 PWs)   bands (ev):

    -5.1783  -4.4946  -3.8392  -3.1385  -3.1335  -2.8999  -2.8936  -2.2101
    -0.8364  -0.5180  -0.5152   0.1922   0.1927   0.5494   1.3553   2.0165
     2.7542   2.7604   2.7978   2.7987   3.2792   3.5945   3.5997   3.7920
     3.8201   4.0773   4.0783   4.3901   4.8378   4.9023   4.9432   5.8625

          k = 0.3536 0.1179 0.3536 ( 12892 PWs)   bands (ev):

    -5.1782  -4.4947  -3.8382  -3.1390  -3.1346  -2.8995  -2.8961  -2.2069
    -0.8414  -0.5171  -0.5106   0.1916   0.1981   0.5452   1.3560   2.0158
     2.7543   2.7555   2.7981   2.8008   3.2773   3.5925   3.5955   3.7926
     3.8227   4.0767   4.0808   4.3927   4.8354   4.9063   4.9385   5.8680

          k =-0.0000 0.2357-0.2357 ( 12901 PWs)   bands (ev):

    -5.5058  -3.8715  -3.8634  -3.1773  -3.1707  -2.7369  -2.7322  -1.7378
    -1.3412  -0.6383  -0.6344  -0.2811  -0.2790   0.1181   0.1243   2.3776
     3.0998   3.1017   3.2936   3.2988   3.5660   3.6161   3.6243   4.5770
     4.5784   4.6229   4.6421   4.6434   4.8139   4.8243   5.3606   6.1087

          k = 0.0000-0.2357-0.2357 ( 12901 PWs)   bands (ev):

    -5.5060  -3.8728  -3.8648  -3.1746  -3.1680  -2.7357  -2.7310  -1.7452
    -1.3332  -0.6446  -0.6405  -0.2843  -0.2820   0.1224   0.1286   2.3819
     3.1000   3.1019   3.2959   3.3012   3.5614   3.6231   3.6312   4.5727
     4.5740   4.6323   4.6465   4.6475   4.8070   4.8173   5.3594   6.0971

          k = 0.4714 0.0000 0.0000 ( 12907 PWs)   bands (ev):

    -5.2634  -3.8419  -3.6437  -3.6417  -3.6384  -3.6363  -1.4849  -1.4805
    -1.4805  -1.4761   0.2084   0.2107   0.2149   0.2172   1.2056   2.5804
     2.5806   2.5806   2.5809   3.1737   3.1751   3.1765   3.1780   3.8033
     3.8081   4.1756   4.9162   4.9240   4.9261   4.9329   5.0277   5.0345

          k =-0.1179 0.5893-0.5893 ( 12907 PWs)   bands (ev):

    -4.9359  -4.2646  -4.2276  -3.6279  -3.6228  -3.0781  -2.0000  -1.9945
    -0.9329  -0.9303  -0.0891   0.5535   0.5549   1.3556   1.7888   2.1400
     2.1413   2.2078   2.7092   2.7126   2.9216   2.9229   3.0903   3.3212
     3.8660   4.0896   4.5057   4.5604   4.5696   4.6799   4.6993   5.2971

          k = 0.1179-0.5893-0.5893 ( 12907 PWs)   bands (ev):

    -4.9359  -4.2658  -4.2277  -3.6260  -3.6209  -3.0811  -1.9987  -1.9932
    -0.9349  -0.9324  -0.0814   0.5461   0.5475   1.3628   1.7893   2.1423
     2.1435   2.2087   2.7091   2.7125   2.9202   2.9214   3.0914   3.3212
     3.8709   4.0844   4.4995   4.5676   4.5763   4.6852   4.6932   5.2887

          k = 0.5893 0.1179 0.5893 ( 12907 PWs)   bands (ev):

    -4.9360  -4.2653  -4.2275  -3.6266  -3.6222  -3.0792  -1.9984  -1.9946
    -0.9354  -0.9302  -0.0868   0.5468   0.5538   1.3605   1.7873   2.1414
     2.1433   2.2095   2.7096   2.7130   2.9193   2.9228   3.0934   3.3199
     3.8706   4.0870   4.5025   4.5667   4.5697   4.6791   4.6965   5.2931

          k = 0.0000 0.4714-0.4714 ( 12878 PWs)   bands (ev):

    -4.7973  -4.4514  -4.4428  -3.4597  -3.4547  -2.4797  -2.4743  -2.4690
    -0.6237  -0.6231  -0.5571   0.5766   0.5770   1.7784   1.7833   1.8122
     2.2104   2.2149   2.4961   2.6536   2.6572   3.4640   3.4657   3.8132
     3.9221   3.9305   4.1138   4.2252   4.2292   4.4750   4.4855   5.6613

          k = 0.0000-0.4714-0.4714 ( 12878 PWs)   bands (ev):

    -4.7979  -4.4516  -4.4431  -3.4579  -3.4529  -2.4836  -2.4731  -2.4667
    -0.6284  -0.6277  -0.5491   0.5694   0.5697   1.7804   1.7853   1.8140
     2.2156   2.2199   2.5046   2.6541   2.6577   3.4613   3.4630   3.8118
     3.9286   3.9367   4.1084   4.2295   4.2337   4.4692   4.4796   5.6516

          k =-0.7071 0.0000 0.0000 ( 12896 PWs)   bands (ev):

    -4.6692  -4.6606  -3.7056  -3.7038  -3.7006  -3.6987  -1.4411  -1.4366
    -1.4365  -1.4320   0.7328   0.7338   0.7410   0.7420   2.3726   2.3731
     2.3732   2.3739   2.4704   2.4711   2.4745   2.4750   2.6966   2.6996
     4.3256   4.3312   4.3363   4.3416   4.8866   4.8936   4.8957   4.9030

          k =-0.2357 0.4714-0.7071 ( 12905 PWs)   bands (ev):

    -5.1462  -4.1341  -4.1329  -3.7430  -3.0352  -3.0322  -2.5200  -1.9500
    -1.0382  -0.4261  -0.3299  -0.3228   0.9457   0.9517   1.0304   1.9755
     2.4569   2.6355   2.6369   3.0757   3.3847   3.4507   3.4898   3.7865
     3.7877   3.8126   4.2488   4.2549   4.5904   4.9096   4.9173   5.5151

          k = 0.7071 0.2357 0.4714 ( 12905 PWs)   bands (ev):

    -5.1464  -4.1379  -4.1296  -3.7426  -3.0364  -3.0293  -2.5186  -1.9531
    -1.0342  -0.4290  -0.3308  -0.3269   0.9474   0.9530   1.0281   1.9771
     2.4567   2.6356   2.6418   3.0778   3.3853   3.4480   3.4940   3.7840
     3.7890   3.8150   4.2492   4.2523   4.5897   4.9106   4.9151   5.5103

          k =-0.7071 0.2357-0.4714 ( 12905 PWs)   bands (ev):

    -5.1461  -4.1374  -4.1290  -3.7434  -3.0382  -3.0310  -2.5213  -1.9468
    -1.0421  -0.4232  -0.3258  -0.3219   0.9442   0.9501   1.0329   1.9737
     2.4572   2.6305   2.6367   3.0736   3.3845   3.4531   3.4856   3.7854
     3.7898   3.8106   4.2515   4.2546   4.5911   4.9117   4.9161   5.5200

          k =-0.1179 0.3536-0.5893 ( 12886 PWs)   bands (ev):

    -4.7116  -4.7067  -4.0239  -4.0187  -2.8339  -2.8314  -2.4777  -2.4731
    -0.5943  -0.5884  -0.1974  -0.1907   1.2457   1.2505   1.9845   1.9890
     2.2451   2.2497   2.3067   2.3087   3.3560   3.3574   3.5899   3.5941
     3.8021   3.8050   4.0573   4.0584   4.3041   4.3098   5.2387   5.2467

          k = 0.1179-0.3536-0.5893 ( 12886 PWs)   bands (ev):

    -4.7120  -4.7070  -4.0235  -4.0183  -2.8320  -2.8295  -2.4791  -2.4744
    -0.5923  -0.5863  -0.2025  -0.1958   1.2431   1.2478   1.9869   1.9912
     2.2497   2.2540   2.3082   2.3106   3.3569   3.3583   3.5916   3.5958
     3.7987   3.8018   4.0565   4.0577   4.3063   4.3121   5.2342   5.2421

          k = 0.3536 0.5893 0.1179 ( 12886 PWs)   bands (ev):

    -4.7118  -4.7070  -4.0231  -4.0187  -2.8362  -2.8282  -2.4779  -2.4724
    -0.5943  -0.5900  -0.1979  -0.1928   1.2416   1.2487   1.9872   1.9900
     2.2490   2.2534   2.3061   2.3116   3.3579   3.3612   3.5887   3.5950
     3.8003   3.8043   4.0512   4.0599   4.3062   4.3079   5.2396   5.2424

          k =-0.7071-0.2357 0.0000 ( 12912 PWs)   bands (ev):

    -4.5586  -4.5500  -4.2281  -4.2270  -3.0156  -3.0126  -2.2315  -2.2251
    -0.7039  -0.7015  -0.0038   0.0041   1.5253   1.5334   2.0165   2.0174
     2.0747   2.0751   2.2952   2.2974   3.1258   3.1270   3.1453   3.1478
     3.8931   3.8963   4.1439   4.1500   4.5946   4.5977   4.9461   4.9541

          k = 0.0000 0.7071-0.2357 ( 12912 PWs)   bands (ev):

    -4.5546  -4.5541  -4.2318  -4.2233  -3.0179  -3.0103  -2.2305  -2.2260
    -0.7063  -0.6989  -0.0002   0.0004   1.5287   1.5301   2.0159   2.0178
     2.0738   2.0758   2.2930   2.2998   3.1242   3.1274   3.1446   3.1497
     3.8942   3.8954   4.1451   4.1489   4.5925   4.5997   4.9483   4.9519

     highest occupied level (ev):     6.2271

!    total energy              =    -126.09946655 Ry
     estimated scf accuracy    <          4.5E-09 Ry

     convergence has been achieved in   7 iterations

     Using ACE for calculation of exact exchange

     EXX grid:   103379 G-vectors     FFT dimensions: (  72,  72,  72)
     ACE projected onto    32 (nbndproj) and applied to    32 (nbnd) bands

     EXX: now go back to refine exchange calculation

     total cpu time spent up to now is    16309.8 secs

     per-process dynamical memory:  4154.9 Mb

     Self-consistent Calculation

     iteration #  1     ecut=    50.00 Ry     beta= 0.70
     Davidson diagonalization with overlap
     ethr =  3.36E-10,  avg # of iterations = 11.2

     total cpu time spent up to now is    16322.4 secs

     total energy              =    -126.14716233 Ry
     estimated scf accuracy    <       0.00044951 Ry

     iteration #  2     ecut=    50.00 Ry     beta= 0.70
     Davidson diagonalization with overlap
     ethr =  7.02E-07,  avg # of iterations =  1.0

     total cpu time spent up to now is    16325.4 secs

     total energy              =    -126.14717667 Ry
     estimated scf accuracy    <       0.00003256 Ry

     iteration #  3     ecut=    50.00 Ry     beta= 0.70
     Davidson diagonalization with overlap
     ethr =  5.09E-08,  avg # of iterations =  1.9

     total cpu time spent up to now is    16328.5 secs

     total energy              =    -126.14717940 Ry
     estimated scf accuracy    <       0.00000018 Ry

     iteration #  4     ecut=    50.00 Ry     beta= 0.70
     Davidson diagonalization with overlap
     ethr =  2.80E-10,  avg # of iterations =  3.1

     total cpu time spent up to now is    16332.9 secs

     total energy              =    -126.14717957 Ry
     estimated scf accuracy    <       0.00000002 Ry

     iteration #  5     ecut=    50.00 Ry     beta= 0.70
     Davidson diagonalization with overlap
     ethr =  2.68E-11,  avg # of iterations =  2.3

     total cpu time spent up to now is    16336.8 secs

     End of self-consistent calculation

          k = 0.0000 0.0000 0.0000 ( 12939 PWs)   bands (ev):

    -7.4302  -4.8386  -4.8355  -4.8312  -4.8281  -2.8190  -2.8145  -2.8101
    -2.8101  -2.8057  -2.8013  -1.8706  -1.8657  -1.8641  -1.8590   2.7267
     2.7305   2.7309   2.7309   2.7312   2.7350   4.5517   4.5604   4.5625
     4.5632   4.5641   4.5649   4.5670   4.5755   5.8797   5.8864   5.8934

          k =-0.1179 0.1179-0.1179 ( 12939 PWs)   bands (ev):

    -7.3292  -5.2068  -4.7972  -4.7902  -4.7898  -3.4837  -3.4765  -3.4758
    -2.0668  -2.0594  -2.0586  -1.7510  -1.7467  -1.7418  -1.2972   2.3895
     2.3937   2.3938   2.8155   2.8167   2.8198   3.9468   3.9534   3.9552
     4.3721   4.3726   4.3777   4.6184   4.6258   4.9769   5.7346   5.7433

          k =-0.2357 0.2357-0.2357 ( 12885 PWs)   bands (ev):

    -7.0296  -5.8998  -4.6619  -4.6546  -4.6545  -4.0190  -4.0118  -4.0113
    -1.4560  -1.4507  -1.4470  -1.4081  -1.4014  -1.3993  -0.0221   1.8982
     1.9022   1.9027   2.8584   2.8648   2.8655   3.0655   3.0666   3.0699
     3.3005   3.9338   3.9346   3.9390   4.7883   4.7955   5.4047   5.4127

          k = 0.3536-0.3536 0.3536 ( 12938 PWs)   bands (ev):

    -6.5450  -6.5398  -4.4149  -4.4069  -4.4045  -4.4029  -4.3993  -4.3970
    -1.2078  -1.2008  -1.1997  -1.1992  -1.1933  -1.1875   1.5621   1.5664
     2.0060   2.0143   2.0170   2.0180   2.0196   2.0197   3.4550   3.4558
     3.4569   3.4590   3.4592   3.4677   5.0599   5.0617   5.0622   5.0754

          k = 0.0000 0.2357 0.0000 ( 12951 PWs)   bands (ev):

    -7.2954  -4.9333  -4.9294  -4.9253  -4.9215  -4.1652  -2.7737  -2.7668
    -2.7668  -2.7598  -1.5536  -1.5477  -1.5466  -1.5409  -1.2892   2.4078
     2.4100   2.4124   2.4145   2.8552   2.8552   3.8420   3.8478   3.8501
     3.8558   4.5255   4.5280   4.5294   4.5319   5.1558   5.4370   5.4372

          k =-0.1179 0.3536-0.1179 ( 12894 PWs)   bands (ev):

    -7.0614  -5.5772  -4.9451  -4.9407  -4.7176  -4.5296  -3.3759  -3.3711
    -2.0539  -2.0481  -1.6292  -1.1796  -1.1724  -0.5395  -0.4525   1.7647
     1.7682   2.6203   2.6224   2.6253   2.6973   3.0611   3.0959   3.1014
     3.8018   3.8845   4.1372   4.1840   4.1871   4.7937   5.0402   5.2572

          k = 0.4714-0.2357 0.4714 ( 12908 PWs)   bands (ev):

    -6.6350  -6.2549  -5.1024  -4.8167  -4.8120  -4.0417  -3.8690  -3.8648
    -1.6636  -1.5999  -1.5930  -0.8011  -0.7936  -0.1545   1.0296   1.5495
     1.5521   1.6086   2.1230   2.3611   2.3655   2.6241   3.0107   3.0148
     3.4173   3.5611   3.5643   3.6579   4.0668   4.6892   4.9090   5.1384

          k = 0.3536-0.1179 0.3536 ( 12892 PWs)   bands (ev):

    -6.7985  -6.0385  -5.3100  -4.5296  -4.5247  -4.2593  -4.2557  -3.4884
    -1.9544  -1.5970  -1.5900  -0.7965  -0.7893  -0.3960   0.5057   1.2564
     2.0882   2.0904   2.1301   2.1325   2.6698   3.0025   3.0058   3.2380
     3.2486   3.5378   3.5423   3.8789   4.4079   4.4493   4.5185   5.5010

          k = 0.2357-0.0000 0.2357 ( 12901 PWs)   bands (ev):

    -7.1618  -5.3421  -5.3404  -4.5654  -4.5622  -4.0805  -4.0754  -2.9663
    -2.5155  -1.7417  -1.7348  -1.3328  -1.3264  -0.8820  -0.8764   1.6629
     2.4547   2.4556   2.6654   2.6688   2.9478   3.0605   3.0615   4.0775
     4.0825   4.1752   4.1822   4.1876   4.3426   4.3441   4.9795   5.7562

          k = 0.0000 0.4714 0.0000 ( 12907 PWs)   bands (ev):

    -6.8933  -5.3140  -5.0937  -5.0891  -5.0850  -5.0804  -2.6804  -2.6737
    -2.6736  -2.6668  -0.7835  -0.7776  -0.7760  -0.7701   0.3446   1.8845
     1.8869   1.8889   1.8913   2.5568   2.5619   2.5637   2.5689   3.2229
     3.2230   3.6834   4.4592   4.4625   4.4636   4.4669   4.6012   4.6014

          k = 0.5893-0.1179 0.5893 ( 12907 PWs)   bands (ev):

    -6.5298  -5.7840  -5.7433  -5.0724  -5.0676  -4.4617  -3.2528  -3.2486
    -2.0622  -2.0564  -1.1086  -0.3988  -0.3910   0.5134   1.0032   1.3982
     1.4006   1.4756   2.0398   2.0435   2.2674   2.2712   2.4622   2.7289
     3.3133   3.5403   3.9967   4.0820   4.0854   4.2254   4.2326   4.8696

          k = 0.4714-0.0000 0.4714 ( 12878 PWs)   bands (ev):

    -6.3762  -5.9873  -5.9866  -4.8856  -4.8807  -3.7929  -3.7818  -3.7781
    -1.7204  -1.7136  -1.6348  -0.3719  -0.3643   0.9889   0.9947   1.0309
     1.4835   1.4843   1.7988   1.9770   1.9790   2.8674   2.8716   3.2784
     3.3839   3.3872   3.5605   3.7356   3.7426   3.9766   3.9773   5.2694

          k = 0.0000-0.7071 0.0000 ( 12896 PWs)   bands (ev):

    -6.2292  -6.2291  -5.1636  -5.1587  -5.1547  -5.1498  -2.6303  -2.6237
    -2.6236  -2.6168  -0.1890  -0.1884  -0.1811  -0.1805   1.6558   1.6583
     1.6599   1.6622   1.7731   1.7753   1.7758   1.7782   2.0265   2.0267
     3.8193   3.8193   3.8194   3.8194   4.4275   4.4310   4.4321   4.4356

          k = 0.4714-0.2357 0.7071 ( 12905 PWs)   bands (ev):

    -6.7632  -5.6378  -5.6370  -5.2035  -4.4107  -4.4087  -3.8375  -3.1981
    -2.1791  -1.4910  -1.3853  -1.3803   0.0500   0.0546   0.1469   1.2130
     1.7523   1.9572   1.9589   2.4384   2.7779   2.8424   2.9102   3.2394
     3.2414   3.2461   3.7307   3.7322   4.1342   4.4592   4.4619   5.1280

          k = 0.3536-0.1179 0.5893 ( 12886 PWs)   bands (ev):

    -6.2805  -6.2754  -5.5154  -5.5107  -4.1888  -4.1802  -3.7901  -3.7841
    -1.6775  -1.6727  -1.2382  -1.2324   0.3874   0.3951   1.2258   1.2287
     1.5137   1.5182   1.5855   1.5919   2.7569   2.7609   3.0112   3.0179
     3.2312   3.2355   3.5421   3.5519   3.7973   3.7992   4.8225   4.8257

          k =-0.2357-0.7071 0.0000 ( 12912 PWs)   bands (ev):

    -6.1061  -6.1061  -5.7424  -5.7424  -4.3884  -4.3884  -3.5097  -3.5096
    -1.8017  -1.8016  -1.0131  -1.0130   0.7067   0.7068   1.2600   1.2603
     1.3266   1.3268   1.5712   1.5713   2.5079   2.5090   2.5202   2.5215
     3.3539   3.3540   3.6176   3.6177   4.1162   4.1162   4.5045   4.5045

          k =-0.1179 0.1179 0.1179 ( 12939 PWs)   bands (ev):

    -7.3293  -5.2088  -4.7940  -4.7935  -4.7866  -3.4811  -3.4805  -3.4732
    -2.0653  -2.0644  -2.0571  -1.7534  -1.7487  -1.7443  -1.2916   2.3930
     2.3931   2.3973   2.8132   2.8163   2.8176   3.9532   3.9551   3.9616
     4.3665   4.3719   4.3725   4.6168   4.6240   4.9839   5.7306   5.7392

          k =-0.2357 0.2357 0.2357 ( 12885 PWs)   bands (ev):

    -7.0297  -5.9008  -4.6586  -4.6585  -4.6512  -4.0161  -4.0157  -4.0084
    -1.4586  -1.4538  -1.4489  -1.4080  -1.4070  -1.3996  -0.0174   1.9028
     1.9033   1.9074   2.8649   2.8656   2.8720   3.0628   3.0661   3.0674
     3.3058   3.9296   3.9340   3.9349   4.7863   4.7937   5.4017   5.4096

          k = 0.3536-0.3536-0.3536 ( 12938 PWs)   bands (ev):

    -6.5454  -6.5402  -4.4107  -4.4085  -4.4048  -4.4032  -4.4008  -4.3928
    -1.2113  -1.2057  -1.1997  -1.1992  -1.1981  -1.1911   1.5668   1.5710
     2.0163   2.0165   2.0180   2.0190   2.0218   2.0304   3.4478   3.4563
     3.4567   3.4587   3.4597   3.4606   5.0519   5.0649   5.0654   5.0674

          k = 0.2357 0.0000 0.0000 ( 12951 PWs)   bands (ev):

    -7.2954  -4.9322  -4.9294  -4.9254  -4.9226  -4.1651  -2.7713  -2.7669
    -2.7668  -2.7623  -1.5524  -1.5484  -1.5460  -1.5418  -1.2892   2.4101
     2.4112   2.4112   2.4124   2.8527   2.8576   3.8461   3.8479   3.8501
     3.8520   4.5187   4.5275   4.5298   4.5385   5.1558   5.4316   5.4425

          k = 0.3536-0.1179 0.1179 ( 12894 PWs)   bands (ev):

    -7.0614  -5.5770  -4.9473  -4.9410  -4.7172  -4.5265  -3.3766  -3.3712
    -2.0523  -2.0489  -1.6359  -1.1745  -1.1712  -0.5407  -0.4532   1.7665
     1.7676   2.6214   2.6222   2.6242   2.6959   3.0633   3.1008   3.1020
     3.8035   3.8806   4.1403   4.1755   4.1849   4.7990   5.0452   5.2497

          k =-0.3536 0.1179 0.1179 ( 12894 PWs)   bands (ev):

    -7.0615  -5.5786  -4.9448  -4.9386  -4.7174  -4.5299  -3.3755  -3.3701
    -2.0540  -2.0507  -1.6287  -1.1811  -1.1779  -0.5404  -0.4474   1.7681
     1.7692   2.6208   2.6211   2.6269   2.7010   3.0582   3.0988   3.1005
     3.8065   3.8840   4.1328   4.1825   4.1920   4.7896   5.0360   5.2560

          k =-0.1179-0.3536-0.1179 ( 12894 PWs)   bands (ev):

    -7.0615  -5.5784  -4.9450  -4.9407  -4.7170  -4.5269  -3.3756  -3.3707
    -2.0548  -2.0489  -1.6355  -1.1800  -1.1728  -0.5418  -0.4480   1.7674
     1.7709   2.6182   2.6223   2.6278   2.6997   3.0610   3.0993   3.1049
     3.8084   3.8800   4.1362   4.1805   4.1835   4.7952   5.0406   5.2486

          k =-0.2357 0.4714-0.4714 ( 12908 PWs)   bands (ev):

    -6.6351  -6.2548  -5.1016  -4.8182  -4.8125  -4.0383  -3.8709  -3.8647
    -1.6702  -1.5949  -1.5946  -0.7951  -0.7933  -0.1579   1.0285   1.5480
     1.5518   1.6094   2.1242   2.3647   2.3655   2.6245   3.0128   3.0131
     3.4198   3.5545   3.5619   3.6608   4.0634   4.6938   4.9024   5.1443

          k = 0.2357-0.4714-0.4714 ( 12908 PWs)   bands (ev):

    -6.6353  -6.2556  -5.1021  -4.8162  -4.8103  -4.0423  -3.8690  -3.8628
    -1.6628  -1.5995  -1.5992  -0.8021  -0.8005  -0.1564   1.0346   1.5528
     1.5563   1.6120   2.1274   2.3657   2.3665   2.6293   3.0107   3.0110
     3.4140   3.5596   3.5670   3.6544   4.0658   4.6854   4.9080   5.1338

          k = 0.4714 0.2357 0.4714 ( 12908 PWs)   bands (ev):

    -6.6354  -6.2554  -5.1014  -4.8166  -4.8120  -4.0390  -3.8688  -3.8646
    -1.6697  -1.6007  -1.5941  -0.8020  -0.7945  -0.1598   1.0335   1.5524
     1.5548   1.6126   2.1286   2.3656   2.3702   2.6296   3.0088   3.0131
     3.4168   3.5572   3.5604   3.6574   4.0624   4.6901   4.9014   5.1396

          k =-0.1179 0.3536-0.3536 ( 12892 PWs)   bands (ev):

    -6.7984  -6.0386  -5.3089  -4.5306  -4.5252  -4.2623  -4.2554  -3.4849
    -1.9597  -1.5920  -1.5891  -0.7905  -0.7900  -0.4007   0.5065   1.2556
     2.0835   2.0906   2.1316   2.1327   2.6678   2.9978   3.0037   3.2408
     3.2493   3.5406   3.5417   3.8817   4.4058   4.4538   4.5124   5.5073

          k = 0.1179-0.3536-0.3536 ( 12892 PWs)   bands (ev):

    -6.7987  -6.0392  -5.3098  -4.5289  -4.5235  -4.2597  -4.2528  -3.4896
    -1.9530  -1.5985  -1.5955  -0.7966  -0.7960  -0.3973   0.5102   1.2592
     2.0905   2.0973   2.1335   2.1345   2.6755   3.0014   3.0073   3.2353
     3.2537   3.5371   3.5381   3.8751   4.4067   4.4458   4.5176   5.4954

          k = 0.3536 0.1179 0.3536 ( 12892 PWs)   bands (ev):

    -6.7986  -6.0393  -5.3087  -4.5295  -4.5247  -4.2593  -4.2556  -3.4861
    -1.9585  -1.5975  -1.5905  -0.7973  -0.7900  -0.4019   0.5109   1.2585
     2.0905   2.0918   2.1337   2.1369   2.6733   2.9992   3.0025   3.2379
     3.2545   3.5364   3.5410   3.8781   4.4039   4.4505   4.5121   5.5016

          k =-0.0000 0.2357-0.2357 ( 12901 PWs)   bands (ev):

    -7.1618  -5.3449  -5.3361  -4.5689  -4.5616  -4.0813  -4.0761  -2.9623
    -2.5198  -1.7371  -1.7328  -1.3291  -1.3267  -0.8849  -0.8781   1.6605
     2.4542   2.4561   2.6628   2.6688   2.9503   3.0525   3.0616   4.0820
     4.0834   4.1717   4.1806   4.1823   4.3414   4.3529   4.9800   5.7627

          k = 0.0000-0.2357-0.2357 ( 12901 PWs)   bands (ev):

    -7.1619  -5.3463  -5.3376  -4.5659  -4.5587  -4.0799  -4.0748  -2.9703
    -2.5111  -1.7439  -1.7394  -1.3326  -1.3301  -0.8803  -0.8734   1.6652
     2.4543   2.4563   2.6654   2.6714   2.9452   3.0604   3.0694   4.0772
     4.0785   4.1817   4.1864   4.1870   4.3335   4.3449   4.9788   5.7496

          k = 0.4714 0.0000 0.0000 ( 12907 PWs)   bands (ev):

    -6.8933  -5.3140  -5.0910  -5.0888  -5.0852  -5.0829  -2.6785  -2.6737
    -2.6736  -2.6688  -0.7815  -0.7791  -0.7745  -0.7720   0.3446   1.8878
     1.8879   1.8879   1.8881   2.5604   2.5622   2.5635   2.5653   3.2202
     3.2255   3.6834   4.4531   4.4619   4.4641   4.4720   4.5977   4.6056

          k =-0.1179 0.5893-0.5893 ( 12907 PWs)   bands (ev):

    -6.5299  -5.7835  -5.7430  -5.0738  -5.0682  -4.4596  -3.2544  -3.2483
    -2.0599  -2.0570  -1.1144  -0.3917  -0.3903   0.5109   1.0011   1.3982
     1.3996   1.4763   2.0405   2.0443   2.2690   2.2704   2.4644   2.7275
     3.3127   3.5430   4.0000   4.0740   4.0842   4.2259   4.2295   4.8748

          k = 0.1179-0.5893-0.5893 ( 12907 PWs)   bands (ev):

    -6.5300  -5.7848  -5.7431  -5.0718  -5.0661  -4.4629  -3.2530  -3.2469
    -2.0621  -2.0594  -1.1060  -0.3998  -0.3985   0.5188   1.0016   1.4007
     1.4021   1.4773   2.0403   2.0441   2.2674   2.2687   2.4656   2.7276
     3.3183   3.5371   3.9929   4.0822   4.0919   4.2225   4.2319   4.8652

          k = 0.5893 0.1179 0.5893 ( 12907 PWs)   bands (ev):

    -6.5300  -5.7843  -5.7430  -5.0724  -5.0676  -4.4607  -3.2526  -3.2484
    -2.0627  -2.0569  -1.1119  -0.3992  -0.3914   0.5163   0.9994   1.3997
     1.4018   1.4781   2.0410   2.0447   2.2664   2.2703   2.4678   2.7262
     3.3179   3.5401   3.9964   4.0810   4.0844   4.2240   4.2274   4.8702

          k = 0.0000 0.4714-0.4714 ( 12878 PWs)   bands (ev):

    -6.3758  -5.9915  -5.9821  -4.8868  -4.8814  -3.7902  -3.7841  -3.7783
    -1.7148  -1.7141  -1.6393  -0.3642  -0.3639   0.9881   0.9936   1.0296
     1.4786   1.4835   1.7943   1.9757   1.9797   2.8702   2.8721   3.2794
     3.3771   3.3865   3.5634   3.7344   3.7389   3.9744   3.9861   5.2749

          k = 0.0000-0.4714-0.4714 ( 12878 PWs)   bands (ev):

    -6.3766  -5.9917  -5.9825  -4.8849  -4.8794  -3.7944  -3.7828  -3.7758
    -1.7199  -1.7192  -1.6305  -0.3722  -0.3720   0.9903   0.9957   1.0315
     1.4843   1.4890   1.8038   1.9763   1.9802   2.8672   2.8690   3.2778
     3.3844   3.3934   3.5573   3.7392   3.7441   3.9678   3.9794   5.2639

          k =-0.7071 0.0000 0.0000 ( 12896 PWs)   bands (ev):

    -6.2339  -6.2245  -5.1605  -5.1584  -5.1550  -5.1529  -2.6287  -2.6237
    -2.6236  -2.6186  -0.1897  -0.1888  -0.1807  -0.1797   1.6585   1.6591
     1.6592   1.6599   1.7730   1.7737   1.7775   1.7781   2.0249   2.0282
     3.8102   3.8166   3.8220   3.8281   4.4224   4.4304   4.4326   4.4409

          k =-0.2357 0.4714-0.7071 ( 12905 PWs)   bands (ev):

    -6.7632  -5.6381  -5.6368  -5.2035  -4.4113  -4.4080  -3.8376  -3.1981
    -2.1791  -1.4911  -1.3866  -1.3789   0.0491   0.0557   0.1467   1.2130
     1.7524   1.9572   1.9588   2.4385   2.7779   2.8423   2.9103   3.2388
     3.2428   3.2453   3.7279   3.7348   4.1341   4.4563   4.4649   5.1280

          k = 0.7071 0.2357 0.4714 ( 12905 PWs)   bands (ev):

    -6.7633  -5.6423  -5.6332  -5.2031  -4.4126  -4.4048  -3.8361  -3.2015
    -2.1747  -1.4943  -1.3876  -1.3833   0.0509   0.0571   0.1441   1.2148
     1.7522   1.9574   1.9642   2.4408   2.7785   2.8394   2.9150   3.2376
     3.2442   3.2464   3.7285   3.7318   4.1334   4.4576   4.4625   5.1225

          k =-0.7071 0.2357-0.4714 ( 12905 PWs)   bands (ev):

    -6.7630  -5.6417  -5.6325  -5.2040  -4.4145  -4.4067  -3.8390  -3.1946
    -2.1833  -1.4879  -1.3822  -1.3779   0.0475   0.0539   0.1495   1.2111
     1.7528   1.9517   1.9586   2.4361   2.7777   2.8449   2.9055   3.2370
     3.2412   3.2476   3.7310   3.7344   4.1348   4.4586   4.4635   5.1335

          k =-0.1179 0.3536-0.5893 ( 12886 PWs)   bands (ev):

    -6.2805  -6.2753  -5.5158  -5.5103  -4.1875  -4.1847  -3.7879  -3.7828
    -1.6815  -1.6750  -1.2349  -1.2275   0.3884   0.3936   1.2243   1.2291
     1.5128   1.5180   1.5868   1.5890   2.7603   2.7619   3.0103   3.0149
     3.2338   3.2372   3.5445   3.5456   3.7927   3.7990   4.8227   4.8317

          k = 0.1179-0.3536-0.5893 ( 12886 PWs)   bands (ev):

    -6.2810  -6.2757  -5.5154  -5.5099  -4.1854  -4.1826  -3.7895  -3.7843
    -1.6793  -1.6727  -1.2404  -1.2331   0.3854   0.3906   1.2270   1.2316
     1.5179   1.5228   1.5885   1.5911   2.7613   2.7628   3.0122   3.0168
     3.2301   3.2336   3.5436   3.5448   3.7952   3.8017   4.8177   4.8265

          k = 0.3536 0.5893 0.1179 ( 12886 PWs)   bands (ev):

    -6.2808  -6.2757  -5.5150  -5.5103  -4.1900  -4.1813  -3.7882  -3.7821
    -1.6815  -1.6767  -1.2355  -1.2298   0.3838   0.3916   1.2274   1.2302
     1.5171   1.5221   1.5861   1.5923   2.7623   2.7662   3.0089   3.0160
     3.2320   3.2363   3.5376   3.5474   3.7950   3.7969   4.8236   4.8269

          k =-0.7071-0.2357 0.0000 ( 12912 PWs)   bands (ev):

    -6.1108  -6.1014  -5.7430  -5.7418  -4.3900  -4.3868  -3.5132  -3.5062
    -1.8030  -1.8003  -1.0174  -1.0086   0.7022   0.7113   1.2598   1.2609
     1.3264   1.3268   1.5700   1.5724   2.5086   2.5099   2.5188   2.5215
     3.3521   3.3555   3.6142   3.6211   4.1145   4.1178   4.5000   4.5091

          k = 0.0000 0.7071-0.2357 ( 12912 PWs)   bands (ev):

    -6.1064  -6.1058  -5.7470  -5.7378  -4.3925  -4.3843  -3.5121  -3.5072
    -1.8057  -1.7976  -1.0134  -1.0127   0.7060   0.7076   1.2592   1.2613
     1.3255   1.3277   1.5675   1.5752   2.5062   2.5100   2.5184   2.5241
     3.3533   3.3546   3.6156   3.6197   4.1121   4.1202   4.5025   4.5065

     highest occupied level (ev):     5.8934

!    total energy              =    -126.14717958 Ry
     estimated scf accuracy    <          1.8E-09 Ry

     convergence has been achieved in   5 iterations

     Using ACE for calculation of exact exchange
     ACE projected onto    32 (nbndproj) and applied to    32 (nbnd) bands

     total energy              =    -126.14898257 Ry
     Harris-Foulkes estimate   =    -126.14898257 Ry
     est. exchange err (dexx)  =       0.00180299 Ry
     - averaged Fock potential =      13.34097505 Ry
     + Fock energy (ACE)       =      -6.68183019 Ry

     EXX: now go back to refine exchange calculation

     total cpu time spent up to now is    30762.1 secs

     per-process dynamical memory:  4154.9 Mb

     Self-consistent Calculation

     iteration #  1     ecut=    50.00 Ry     beta= 0.70
     Davidson diagonalization with overlap
     ethr =  2.68E-11,  avg # of iterations = 10.0

     total cpu time spent up to now is    30769.7 secs

     total energy              =    -126.14938011 Ry
     estimated scf accuracy    <       0.00005144 Ry

     iteration #  2     ecut=    50.00 Ry     beta= 0.70
     Davidson diagonalization with overlap
     ethr =  8.04E-08,  avg # of iterations =  1.0

     total cpu time spent up to now is    30771.7 secs

     total energy              =    -126.14938286 Ry
     estimated scf accuracy    <       0.00000162 Ry

     iteration #  3     ecut=    50.00 Ry     beta= 0.70
     Davidson diagonalization with overlap
     ethr =  2.53E-09,  avg # of iterations =  2.0

     total cpu time spent up to now is    30774.3 secs

     total energy              =    -126.14938317 Ry
     estimated scf accuracy    <       0.00000003 Ry

     iteration #  4     ecut=    50.00 Ry     beta= 0.70
     Davidson diagonalization with overlap
     ethr =  4.81E-11,  avg # of iterations =  2.9

     total cpu time spent up to now is    30777.4 secs

     total energy              =    -126.14938317 Ry
     estimated scf accuracy    <       0.00000001 Ry

     iteration #  5     ecut=    50.00 Ry     beta= 0.70
     Davidson diagonalization with overlap
     ethr =  1.97E-11,  avg # of iterations =  2.0

     total cpu time spent up to now is    30780.0 secs

     End of self-consistent calculation

          k = 0.0000 0.0000 0.0000 ( 12939 PWs)   bands (ev):

    -7.4232  -4.8326  -4.8295  -4.8252  -4.8221  -2.8137  -2.8092  -2.8048
    -2.8048  -2.8004  -2.7959  -1.8649  -1.8600  -1.8583  -1.8533   2.7206
     2.7245   2.7248   2.7249   2.7252   2.7290   4.5406   4.5493   4.5513
     4.5521   4.5530   4.5537   4.5559   4.5644   5.8625   5.8693   5.8762

          k =-0.1179 0.1179-0.1179 ( 12939 PWs)   bands (ev):

    -7.3222  -5.2005  -4.7912  -4.7842  -4.7838  -3.4781  -3.4708  -3.4702
    -2.0619  -2.0545  -2.0537  -1.7455  -1.7412  -1.7363  -1.2920   2.3860
     2.3902   2.3903   2.8094   2.8106   2.8136   3.9401   3.9467   3.9486
     4.3619   4.3625   4.3676   4.6072   4.6145   4.9672   5.7186   5.7273

          k =-0.2357 0.2357-0.2357 ( 12885 PWs)   bands (ev):

    -7.0226  -5.8932  -4.6559  -4.6487  -4.6485  -4.0132  -4.0059  -4.0054
    -1.4511  -1.4457  -1.4420  -1.4039  -1.3971  -1.3951  -0.0184   1.8979
     1.9020   1.9024   2.8567   2.8631   2.8638   3.0590   3.0602   3.0635
     3.2977   3.9253   3.9261   3.9305   4.7768   4.7841   5.3909   5.3989

          k = 0.3536-0.3536 0.3536 ( 12938 PWs)   bands (ev):

    -6.5382  -6.5330  -4.4090  -4.4010  -4.3986  -4.3970  -4.3933  -4.3911
    -1.2036  -1.1965  -1.1954  -1.1949  -1.1890  -1.1832   1.5636   1.5679
     2.0067   2.0150   2.0177   2.0187   2.0203   2.0204   3.4478   3.4486
     3.4497   3.4518   3.4520   3.4605   5.0477   5.0494   5.0499   5.0632

          k = 0.0000 0.2357 0.0000 ( 12951 PWs)   bands (ev):

    -7.2885  -4.9272  -4.9234  -4.9192  -4.9154  -4.1592  -2.7684  -2.7615
    -2.7615  -2.7546  -1.5483  -1.5424  -1.5413  -1.5355  -1.2847   2.4042
     2.4064   2.4088   2.4110   2.8491   2.8491   3.8358   3.8416   3.8439
     3.8496   4.5147   4.5172   4.5186   4.5211   5.1449   5.4235   5.4236

          k =-0.1179 0.3536-0.1179 ( 12894 PWs)   bands (ev):

    -7.0545  -5.5708  -4.9390  -4.9346  -4.7114  -4.5237  -3.3704  -3.3656
    -2.0492  -2.0434  -1.6240  -1.1749  -1.1676  -0.5358  -0.4484   1.7645
     1.7680   2.6165   2.6197   2.6229   2.6935   3.0548   3.0931   3.0987
     3.7972   3.8785   4.1279   4.1754   4.1785   4.7821   5.0288   5.2453

          k = 0.4714-0.2357 0.4714 ( 12908 PWs)   bands (ev):

    -6.6282  -6.2483  -5.0960  -4.8106  -4.8059  -4.0361  -3.8633  -3.8591
    -1.6588  -1.5955  -1.5886  -0.7971  -0.7896  -0.1513   1.0317   1.5510
     1.5537   1.6105   2.1231   2.3609   2.3652   2.6226   3.0060   3.0101
     3.4104   3.5549   3.5581   3.6501   4.0606   4.6792   4.8990   5.1255

          k = 0.3536-0.1179 0.3536 ( 12892 PWs)   bands (ev):

    -6.7916  -6.0319  -5.3037  -4.5236  -4.5186  -4.2536  -4.2500  -3.4830
    -1.9497  -1.5922  -1.5851  -0.7928  -0.7856  -0.3922   0.5086   1.2586
     2.0887   2.0910   2.1295   2.1319   2.6686   2.9978   3.0012   3.2312
     3.2459   3.5314   3.5360   3.8709   4.4008   4.4397   4.5102   5.4863

          k = 0.2357-0.0000 0.2357 ( 12901 PWs)   bands (ev):

    -7.1549  -5.3358  -5.3341  -4.5595  -4.5563  -4.0746  -4.0695  -2.9611
    -2.5103  -1.7363  -1.7295  -1.3286  -1.3221  -0.8773  -0.8717   1.6629
     2.4515   2.4523   2.6612   2.6646   2.9414   3.0579   3.0589   4.0690
     4.0741   4.1688   4.1751   4.1804   4.3328   4.3343   4.9696   5.7401

          k = 0.0000 0.4714 0.0000 ( 12907 PWs)   bands (ev):

    -6.8864  -5.3076  -5.0875  -5.0829  -5.0788  -5.0742  -2.6755  -2.6687
    -2.6686  -2.6618  -0.7793  -0.7734  -0.7718  -0.7659   0.3475   1.8840
     1.8865   1.8885   1.8908   2.5560   2.5612   2.5630   2.5681   3.2166
     3.2166   3.6794   4.4489   4.4522   4.4533   4.4566   4.5919   4.5920

          k = 0.5893-0.1179 0.5893 ( 12907 PWs)   bands (ev):

    -6.5230  -5.7774  -5.7368  -5.0662  -5.0614  -4.4558  -3.2476  -3.2434
    -2.0576  -2.0518  -1.1045  -0.3954  -0.3876   0.5159   1.0051   1.4000
     1.4023   1.4779   2.0407   2.0443   2.2660   2.2698   2.4615   2.7281
     3.3086   3.5335   3.9881   4.0742   4.0776   4.2172   4.2255   4.8579

          k = 0.4714-0.0000 0.4714 ( 12878 PWs)   bands (ev):

    -6.3695  -5.9807  -5.9800  -4.8794  -4.8745  -3.7874  -3.7763  -3.7726
    -1.7158  -1.7091  -1.6304  -0.3688  -0.3612   0.9907   0.9965   1.0340
     1.4854   1.4862   1.7989   1.9775   1.9795   2.8640   2.8682   3.2762
     3.3789   3.3822   3.5530   3.7311   3.7380   3.9687   3.9694   5.2558

          k = 0.0000-0.7071 0.0000 ( 12896 PWs)   bands (ev):

    -6.2225  -6.2224  -5.1573  -5.1525  -5.1484  -5.1436  -2.6254  -2.6188
    -2.6187  -2.6119  -0.1859  -0.1854  -0.1781  -0.1774   1.6567   1.6591
     1.6608   1.6630   1.7751   1.7772   1.7778   1.7801   2.0271   2.0272
     3.8120   3.8121   3.8121   3.8122   4.4174   4.4210   4.4220   4.4256

          k = 0.4714-0.2357 0.7071 ( 12905 PWs)   bands (ev):

    -6.7563  -5.6314  -5.6306  -5.1972  -4.4048  -4.4028  -3.8318  -3.1928
    -2.1743  -1.4868  -1.3807  -1.3756   0.0533   0.0579   0.1498   1.2152
     1.7526   1.9581   1.9597   2.4363   2.7746   2.8381   2.9081   3.2353
     3.2373   3.2430   3.7239   3.7254   4.1282   4.4499   4.4527   5.1162

          k = 0.3536-0.1179 0.5893 ( 12886 PWs)   bands (ev):

    -6.2739  -6.2687  -5.5090  -5.5043  -4.1830  -4.1743  -3.7846  -3.7786
    -1.6730  -1.6682  -1.2342  -1.2284   0.3898   0.3976   1.2285   1.2313
     1.5146   1.5192   1.5871   1.5934   2.7552   2.7592   3.0074   3.0141
     3.2260   3.2303   3.5382   3.5481   3.7906   3.7926   4.8120   4.8152

          k =-0.2357-0.7071 0.0000 ( 12912 PWs)   bands (ev):

    -6.0995  -6.0994  -5.7359  -5.7359  -4.3825  -4.3825  -3.5043  -3.5042
    -1.7972  -1.7972  -1.0093  -1.0092   0.7086   0.7086   1.2623   1.2626
     1.3292   1.3295   1.5720   1.5721   2.5074   2.5088   2.5182   2.5196
     3.3499   3.3501   3.6114   3.6114   4.1086   4.1086   4.4952   4.4952

          k =-0.1179 0.1179 0.1179 ( 12939 PWs)   bands (ev):

    -7.3223  -5.2026  -4.7880  -4.7875  -4.7806  -3.4755  -3.4749  -3.4676
    -2.0604  -2.0595  -2.0523  -1.7479  -1.7432  -1.7388  -1.2864   2.3895
     2.3896   2.3938   2.8070   2.8101   2.8114   3.9466   3.9485   3.9550
     4.3564   4.3617   4.3624   4.6055   4.6127   4.9742   5.7146   5.7233

          k =-0.2357 0.2357 0.2357 ( 12885 PWs)   bands (ev):

    -7.0228  -5.8942  -4.6526  -4.6525  -4.6453  -4.0103  -4.0099  -4.0025
    -1.4537  -1.4489  -1.4440  -1.4038  -1.4028  -1.3954  -0.0136   1.9026
     1.9031   1.9071   2.8632   2.8639   2.8703   3.0563   3.0597   3.0609
     3.3031   3.9210   3.9254   3.9264   4.7747   4.7821   5.3879   5.3957

          k = 0.3536-0.3536-0.3536 ( 12938 PWs)   bands (ev):

    -6.5387  -6.5334  -4.4048  -4.4026  -4.3989  -4.3973  -4.3949  -4.3869
    -1.2071  -1.2014  -1.1955  -1.1949  -1.1938  -1.1868   1.5683   1.5725
     2.0170   2.0171   2.0187   2.0197   2.0225   2.0311   3.4405   3.4491
     3.4495   3.4515   3.4526   3.4534   5.0396   5.0527   5.0532   5.0551

          k = 0.2357 0.0000 0.0000 ( 12951 PWs)   bands (ev):

    -7.2885  -4.9261  -4.9233  -4.9193  -4.9165  -4.1591  -2.7661  -2.7616
    -2.7615  -2.7570  -1.5471  -1.5430  -1.5406  -1.5365  -1.2848   2.4065
     2.4076   2.4077   2.4088   2.8465   2.8515   3.8399   3.8417   3.8439
     3.8457   4.5079   4.5167   4.5190   4.5277   5.1450   5.4181   5.4290

          k = 0.3536-0.1179 0.1179 ( 12894 PWs)   bands (ev):

    -7.0545  -5.5706  -4.9412  -4.9348  -4.7110  -4.5205  -3.3711  -3.3657
    -2.0476  -2.0442  -1.6307  -1.1697  -1.1665  -0.5371  -0.4491   1.7663
     1.7674   2.6177   2.6183   2.6229   2.6921   3.0570   3.0981   3.0992
     3.7990   3.8746   4.1311   4.1669   4.1763   4.7874   5.0339   5.2377

          k =-0.3536 0.1179 0.1179 ( 12894 PWs)   bands (ev):

    -7.0546  -5.5721  -4.9386  -4.9325  -4.7112  -4.5240  -3.3700  -3.3646
    -2.0493  -2.0460  -1.6235  -1.1763  -1.1732  -0.5368  -0.4433   1.7679
     1.7691   2.6169   2.6172   2.6257   2.6973   3.0519   3.0961   3.0978
     3.8020   3.8780   4.1235   4.1740   4.1835   4.7780   5.0246   5.2441

          k =-0.1179-0.3536-0.1179 ( 12894 PWs)   bands (ev):

    -7.0546  -5.5719  -4.9389  -4.9346  -4.7108  -4.5210  -3.3701  -3.3652
    -2.0501  -2.0442  -1.6303  -1.1753  -1.1680  -0.5382  -0.4438   1.7673
     1.7708   2.6143   2.6184   2.6267   2.6959   3.0547   3.0966   3.1022
     3.8039   3.8740   4.1269   4.1720   4.1750   4.7836   5.0293   5.2366

          k =-0.2357 0.4714-0.4714 ( 12908 PWs)   bands (ev):

    -6.6283  -6.2481  -5.0953  -4.8121  -4.8064  -4.0326  -3.8652  -3.8590
    -1.6654  -1.5904  -1.5901  -0.7911  -0.7894  -0.1548   1.0306   1.5496
     1.5533   1.6112   2.1243   2.3644   2.3652   2.6230   3.0080   3.0084
     3.4129   3.5483   3.5557   3.6530   4.0572   4.6837   4.8925   5.1314

          k = 0.2357-0.4714-0.4714 ( 12908 PWs)   bands (ev):

    -6.6285  -6.2489  -5.0958  -4.8101  -4.8042  -4.0367  -3.8634  -3.8571
    -1.6580  -1.5951  -1.5948  -0.7982  -0.7965  -0.1532   1.0367   1.5544
     1.5578   1.6139   2.1276   2.3654   2.3662   2.6278   3.0060   3.0062
     3.4071   3.5534   3.5609   3.6466   4.0596   4.6753   4.8980   5.1209

          k = 0.4714 0.2357 0.4714 ( 12908 PWs)   bands (ev):

    -6.6286  -6.2487  -5.0951  -4.8105  -4.8059  -4.0334  -3.8632  -3.8589
    -1.6649  -1.5963  -1.5897  -0.7980  -0.7905  -0.1566   1.0357   1.5539
     1.5564   1.6144   2.1288   2.3654   2.3700   2.6281   3.0041   3.0084
     3.4099   3.5510   3.5541   3.6496   4.0562   4.6801   4.8915   5.1267

          k =-0.1179 0.3536-0.3536 ( 12892 PWs)   bands (ev):

    -6.7915  -6.0320  -5.3025  -4.5246  -4.5192  -4.2566  -4.2496  -3.4794
    -1.9550  -1.5872  -1.5843  -0.7868  -0.7863  -0.3969   0.5094   1.2577
     2.0840   2.0911   2.1310   2.1321   2.6666   2.9932   2.9990   3.2340
     3.2466   3.5343   3.5354   3.8737   4.3987   4.4441   4.5041   5.4926

          k = 0.1179-0.3536-0.3536 ( 12892 PWs)   bands (ev):

    -6.7919  -6.0326  -5.3034  -4.5229  -4.5174  -4.2540  -4.2471  -3.4842
    -1.9483  -1.5936  -1.5906  -0.7929  -0.7923  -0.3935   0.5131   1.2614
     2.0910   2.0979   2.1329   2.1339   2.6743   2.9967   3.0026   3.2284
     3.2510   3.5308   3.5318   3.8670   4.3997   4.4361   4.5093   5.4807

          k = 0.3536 0.1179 0.3536 ( 12892 PWs)   bands (ev):

    -6.7918  -6.0327  -5.3023  -4.5235  -4.5186  -4.2535  -4.2499  -3.4807
    -1.9538  -1.5926  -1.5856  -0.7936  -0.7864  -0.3981   0.5139   1.2606
     2.0910   2.0923   2.1332   2.1363   2.6721   2.9945   2.9979   3.2311
     3.2518   3.5300   3.5347   3.8700   4.3968   4.4409   4.5037   5.4870

          k =-0.0000 0.2357-0.2357 ( 12901 PWs)   bands (ev):

    -7.1548  -5.3386  -5.3298  -4.5630  -4.5557  -4.0754  -4.0702  -2.9570
    -2.5146  -1.7317  -1.7274  -1.3248  -1.3224  -0.8802  -0.8735   1.6605
     2.4509   2.4529   2.6587   2.6646   2.9439   3.0498   3.0590   4.0736
     4.0750   4.1656   4.1733   4.1750   4.3317   4.3432   4.9701   5.7466

          k = 0.0000-0.2357-0.2357 ( 12901 PWs)   bands (ev):

    -7.1550  -5.3400  -5.3312  -4.5601  -4.5528  -4.0740  -4.0688  -2.9651
    -2.5059  -1.7385  -1.7340  -1.3283  -1.3258  -0.8756  -0.8688   1.6652
     2.4511   2.4530   2.6613   2.6672   2.9388   3.0577   3.0668   4.0688
     4.0701   4.1753   4.1793   4.1798   4.3237   4.3352   4.9689   5.7335

          k = 0.4714 0.0000 0.0000 ( 12907 PWs)   bands (ev):

    -6.8864  -5.3076  -5.0848  -5.0826  -5.0790  -5.0767  -2.6735  -2.6687
    -2.6687  -2.6638  -0.7773  -0.7749  -0.7703  -0.7678   0.3475   1.8873
     1.8875   1.8875   1.8876   2.5597   2.5614   2.5627   2.5646   3.2138
     3.2192   3.6795   4.4428   4.4516   4.4538   4.4617   4.5883   4.5963

          k =-0.1179 0.5893-0.5893 ( 12907 PWs)   bands (ev):

    -6.5231  -5.7770  -5.7365  -5.0676  -5.0620  -4.4537  -3.2491  -3.2430
    -2.0553  -2.0524  -1.1103  -0.3883  -0.3869   0.5133   1.0030   1.3999
     1.4013   1.4787   2.0413   2.0451   2.2676   2.2689   2.4636   2.7267
     3.3080   3.5361   3.9914   4.0662   4.0764   4.2188   4.2213   4.8630

          k = 0.1179-0.5893-0.5893 ( 12907 PWs)   bands (ev):

    -6.5232  -5.7783  -5.7366  -5.0655  -5.0599  -4.4570  -3.2477  -3.2417
    -2.0575  -2.0547  -1.1019  -0.3964  -0.3951   0.5213   1.0035   1.4024
     1.4038   1.4797   2.0412   2.0449   2.2660   2.2673   2.4648   2.7268
     3.3136   3.5303   3.9842   4.0744   4.0841   4.2142   4.2249   4.8534

          k = 0.5893 0.1179 0.5893 ( 12907 PWs)   bands (ev):

    -6.5232  -5.7778  -5.7364  -5.0661  -5.0614  -4.4548  -3.2474  -3.2431
    -2.0581  -2.0523  -1.1078  -0.3958  -0.3880   0.5187   1.0013   1.4014
     1.4035   1.4805   2.0418   2.0456   2.2650   2.2688   2.4671   2.7253
     3.3133   3.5332   3.9877   4.0733   4.0766   4.2164   4.2197   4.8585

          k = 0.0000 0.4714-0.4714 ( 12878 PWs)   bands (ev):

    -6.3691  -5.9849  -5.9755  -4.8806  -4.8752  -3.7847  -3.7786  -3.7728
    -1.7102  -1.7096  -1.6349  -0.3611  -0.3608   0.9899   0.9954   1.0328
     1.4804   1.4854   1.7944   1.9762   1.9802   2.8668   2.8686   3.2772
     3.3722   3.3815   3.5559   3.7298   3.7344   3.9665   3.9782   5.2613

          k = 0.0000-0.4714-0.4714 ( 12878 PWs)   bands (ev):

    -6.3699  -5.9851  -5.9759  -4.8787  -4.8732  -3.7890  -3.7774  -3.7703
    -1.7153  -1.7146  -1.6261  -0.3691  -0.3689   0.9921   0.9975   1.0347
     1.4862   1.4909   1.8039   1.9768   1.9807   2.8638   2.8656   3.2756
     3.3794   3.3885   3.5497   3.7347   3.7396   3.9599   3.9714   5.2503

          k =-0.7071 0.0000 0.0000 ( 12896 PWs)   bands (ev):

    -6.2272  -6.2178  -5.1542  -5.1522  -5.1487  -5.1466  -2.6238  -2.6188
    -2.6187  -2.6137  -0.1866  -0.1858  -0.1776  -0.1767   1.6594   1.6599
     1.6600   1.6607   1.7749   1.7757   1.7794   1.7801   2.0255   2.0287
     3.8029   3.8094   3.8148   3.8209   4.4123   4.4204   4.4225   4.4309

          k =-0.2357 0.4714-0.7071 ( 12905 PWs)   bands (ev):

    -6.7563  -5.6316  -5.6303  -5.1972  -4.4055  -4.4021  -3.8319  -3.1928
    -2.1743  -1.4869  -1.3820  -1.3743   0.0524   0.0590   0.1496   1.2152
     1.7528   1.9581   1.9597   2.4364   2.7746   2.8379   2.9082   3.2341
     3.2397   3.2417   3.7211   3.7280   4.1281   4.4470   4.4557   5.1162

          k = 0.7071 0.2357 0.4714 ( 12905 PWs)   bands (ev):

    -6.7565  -5.6358  -5.6267  -5.1967  -4.4067  -4.3989  -3.8304  -3.1962
    -2.1699  -1.4901  -1.3830  -1.3787   0.0542   0.0604   0.1470   1.2170
     1.7525   1.9582   1.9651   2.4388   2.7752   2.8350   2.9130   3.2339
     3.2404   3.2425   3.7216   3.7250   4.1274   4.4483   4.4532   5.1107

          k =-0.7071 0.2357-0.4714 ( 12905 PWs)   bands (ev):

    -6.7562  -5.6352  -5.6260  -5.1976  -4.4087  -4.4008  -3.8333  -3.1894
    -2.1785  -1.4837  -1.3775  -1.3733   0.0508   0.0572   0.1523   1.2133
     1.7531   1.9526   1.9595   2.4340   2.7744   2.8406   2.9034   3.2321
     3.2380   3.2443   3.7242   3.7276   4.1288   4.4494   4.4543   5.1217

          k =-0.1179 0.3536-0.5893 ( 12886 PWs)   bands (ev):

    -6.2739  -6.2686  -5.5094  -5.5038  -4.1817  -4.1789  -3.7824  -3.7773
    -1.6770  -1.6705  -1.2308  -1.2235   0.3908   0.3960   1.2269   1.2317
     1.5138   1.5190   1.5884   1.5906   2.7586   2.7602   3.0064   3.0111
     3.2286   3.2319   3.5407   3.5418   3.7860   3.7924   4.8123   4.8212

          k = 0.1179-0.3536-0.5893 ( 12886 PWs)   bands (ev):

    -6.2744  -6.2690  -5.5090  -5.5034  -4.1796  -4.1768  -3.7840  -3.7788
    -1.6748  -1.6681  -1.2364  -1.2291   0.3878   0.3931   1.2296   1.2342
     1.5189   1.5238   1.5901   1.5927   2.7596   2.7611   3.0084   3.0130
     3.2248   3.2284   3.5398   3.5410   3.7886   3.7950   4.8073   4.8161

          k = 0.3536 0.5893 0.1179 ( 12886 PWs)   bands (ev):

    -6.2742  -6.2690  -5.5086  -5.5038  -4.1841  -4.1755  -3.7827  -3.7766
    -1.6770  -1.6722  -1.2315  -1.2257   0.3862   0.3941   1.2300   1.2328
     1.5181   1.5231   1.5877   1.5938   2.7606   2.7645   3.0051   3.0122
     3.2267   3.2311   3.5338   3.5435   3.7884   3.7903   4.8131   4.8164

          k =-0.7071-0.2357 0.0000 ( 12912 PWs)   bands (ev):

    -6.1041  -6.0948  -5.7365  -5.7353  -4.3841  -4.3809  -3.5078  -3.5008
    -1.7986  -1.7959  -1.0136  -1.0048   0.7041   0.7131   1.2621   1.2632
     1.3290   1.3294   1.5708   1.5732   2.5084   2.5096   2.5168   2.5194
     3.3481   3.3515   3.6079   3.6148   4.1069   4.1103   4.4907   4.4999

          k = 0.0000 0.7071-0.2357 ( 12912 PWs)   bands (ev):

    -6.0997  -6.0992  -5.7405  -5.7313  -4.3866  -4.3784  -3.5067  -3.5018
    -1.8013  -1.7932  -1.0096  -1.0089   0.7079   0.7094   1.2615   1.2636
     1.3281   1.3303   1.5683   1.5760   2.5057   2.5097   2.5165   2.5222
     3.3494   3.3506   3.6093   3.6135   4.1045   4.1126   4.4933   4.4972

     highest occupied level (ev):     5.8762

!    total energy              =    -126.14938318 Ry
     estimated scf accuracy    <          8.4E-11 Ry

     convergence has been achieved in   5 iterations

     Using ACE for calculation of exact exchange
     ACE projected onto    32 (nbndproj) and applied to    32 (nbnd) bands

     total energy              =    -126.14948167 Ry
     Harris-Foulkes estimate   =    -126.14948167 Ry
     est. exchange err (dexx)  =       0.00009849 Ry
     - averaged Fock potential =      13.37039930 Ry
     + Fock energy (ACE)       =      -6.68866760 Ry

     EXX: now go back to refine exchange calculation

     total cpu time spent up to now is    47002.3 secs

     per-process dynamical memory:  4154.9 Mb

     Self-consistent Calculation

     iteration #  1     ecut=    50.00 Ry     beta= 0.70
     Davidson diagonalization with overlap
     ethr =  1.97E-11,  avg # of iterations =  8.2

     total cpu time spent up to now is    47008.5 secs

     total energy              =    -126.14950641 Ry
     estimated scf accuracy    <       0.00000430 Ry

     iteration #  2     ecut=    50.00 Ry     beta= 0.70
     Davidson diagonalization with overlap
     ethr =  6.72E-09,  avg # of iterations =  1.0

     total cpu time spent up to now is    47010.6 secs

     total energy              =    -126.14950669 Ry
     estimated scf accuracy    <       0.00000010 Ry

     iteration #  3     ecut=    50.00 Ry     beta= 0.70
     Davidson diagonalization with overlap
     ethr =  1.60E-10,  avg # of iterations =  2.2

     total cpu time spent up to now is    47013.3 secs

     End of self-consistent calculation

          k = 0.0000 0.0000 0.0000 ( 12939 PWs)   bands (ev):

    -7.4215  -4.8313  -4.8281  -4.8238  -4.8207  -2.8124  -2.8080  -2.8035
    -2.8035  -2.7992  -2.7947  -1.8633  -1.8584  -1.8568  -1.8518   2.7194
     2.7232   2.7236   2.7236   2.7239   2.7277   4.5379   4.5466   4.5487
     4.5494   4.5503   4.5511   4.5532   4.5618   5.8583   5.8651   5.8720

          k =-0.1179 0.1179-0.1179 ( 12939 PWs)   bands (ev):

    -7.3205  -5.1990  -4.7898  -4.7828  -4.7824  -3.4768  -3.4695  -3.4689
    -2.0608  -2.0534  -2.0526  -1.7441  -1.7397  -1.7348  -1.2906   2.3855
     2.3897   2.3898   2.8081   2.8093   2.8124   3.9387   3.9454   3.9472
     4.3596   4.3601   4.3652   4.6045   4.6119   4.9649   5.7148   5.7235

          k =-0.2357 0.2357-0.2357 ( 12885 PWs)   bands (ev):

    -7.0210  -5.8917  -4.6545  -4.6473  -4.6471  -4.0118  -4.0046  -4.0041
    -1.4498  -1.4445  -1.4407  -1.4030  -1.3962  -1.3941  -0.0173   1.8982
     1.9023   1.9027   2.8565   2.8629   2.8636   3.0577   3.0588   3.0621
     3.2972   3.9234   3.9241   3.9285   4.7741   4.7813   5.3876   5.3956

          k = 0.3536-0.3536 0.3536 ( 12938 PWs)   bands (ev):

    -6.5366  -6.5313  -4.4076  -4.3996  -4.3972  -4.3956  -4.3919  -4.3897
    -1.2025  -1.1955  -1.1944  -1.1939  -1.1879  -1.1822   1.5641   1.5684
     2.0071   2.0154   2.0182   2.0192   2.0208   2.0209   3.4463   3.4470
     3.4481   3.4503   3.4505   3.4590   5.0448   5.0465   5.0470   5.0603

          k = 0.0000 0.2357 0.0000 ( 12951 PWs)   bands (ev):

    -7.2868  -4.9258  -4.9219  -4.9178  -4.9139  -4.1577  -2.7672  -2.7603
    -2.7603  -2.7534  -1.5469  -1.5410  -1.5399  -1.5341  -1.2837   2.4037
     2.4059   2.4083   2.4104   2.8478   2.8478   3.8345   3.8404   3.8427
     3.8484   4.5122   4.5147   4.5161   4.5186   5.1423   5.4203   5.4205

          k =-0.1179 0.3536-0.1179 ( 12894 PWs)   bands (ev):

    -7.0528  -5.5693  -4.9375  -4.9332  -4.7099  -4.5223  -3.3691  -3.3643
    -2.0482  -2.0424  -1.6227  -1.1737  -1.1664  -0.5351  -0.4473   1.7648
     1.7683   2.6159   2.6192   2.6227   2.6929   3.0535   3.0927   3.0983
     3.7961   3.8773   4.1258   4.1735   4.1766   4.7793   5.0262   5.2425

          k = 0.4714-0.2357 0.4714 ( 12908 PWs)   bands (ev):

    -6.6265  -6.2466  -5.0945  -4.8091  -4.8045  -4.0348  -3.8620  -3.8578
    -1.6576  -1.5944  -1.5875  -0.7962  -0.7887  -0.1506   1.0324   1.5517
     1.5544   1.6112   2.1233   2.3611   2.3655   2.6226   3.0051   3.0092
     3.4089   3.5536   3.5568   3.6483   4.0594   4.6769   4.8968   5.1224

          k = 0.3536-0.1179 0.3536 ( 12892 PWs)   bands (ev):

    -6.7900  -6.0303  -5.3021  -4.5221  -4.5172  -4.2522  -4.2487  -3.4817
    -1.9486  -1.5910  -1.5839  -0.7920  -0.7848  -0.3913   0.5094   1.2595
     2.0891   2.0914   2.1297   2.1321   2.6683   2.9970   3.0003   3.2297
     3.2454   3.5301   3.5347   3.8691   4.3994   4.4375   4.5084   5.4827

          k = 0.2357-0.0000 0.2357 ( 12901 PWs)   bands (ev):

    -7.1532  -5.3343  -5.3326  -4.5581  -4.5549  -4.0732  -4.0681  -2.9599
    -2.5091  -1.7349  -1.7281  -1.3276  -1.3212  -0.8761  -0.8705   1.6633
     2.4510   2.4519   2.6604   2.6639   2.9401   3.0575   3.0585   4.0672
     4.0722   4.1673   4.1735   4.1789   4.3306   4.3321   4.9674   5.7361

          k = 0.0000 0.4714 0.0000 ( 12907 PWs)   bands (ev):

    -6.8847  -5.3060  -5.0860  -5.0814  -5.0773  -5.0727  -2.6743  -2.6676
    -2.6675  -2.6607  -0.7783  -0.7723  -0.7708  -0.7648   0.3480   1.8843
     1.8867   1.8887   1.8911   2.5561   2.5613   2.5631   2.5682   3.2152
     3.2153   3.6784   4.4465   4.4498   4.4509   4.4541   4.5898   4.5899

          k = 0.5893-0.1179 0.5893 ( 12907 PWs)   bands (ev):

    -6.5214  -5.7759  -5.7352  -5.0647  -5.0599  -4.4544  -3.2464  -3.2422
    -2.0566  -2.0508  -1.1035  -0.3945  -0.3868   0.5165   1.0055   1.4007
     1.4031   1.4789   2.0412   2.0449   2.2660   2.2698   2.4613   2.7283
     3.3078   3.5320   3.9861   4.0725   4.0758   4.2153   4.2240   4.8550

          k = 0.4714-0.0000 0.4714 ( 12878 PWs)   bands (ev):

    -6.3679  -5.9791  -5.9784  -4.8779  -4.8731  -3.7862  -3.7750  -3.7713
    -1.7147  -1.7080  -1.6294  -0.3682  -0.3605   0.9912   0.9970   1.0352
     1.4862   1.4870   1.7989   1.9780   1.9800   2.8634   2.8677   3.2760
     3.3779   3.3812   3.5513   3.7303   3.7372   3.9670   3.9677   5.2525

          k = 0.0000-0.7071 0.0000 ( 12896 PWs)   bands (ev):

    -6.2209  -6.2208  -5.1558  -5.1510  -5.1469  -5.1421  -2.6243  -2.6177
    -2.6176  -2.6108  -0.1852  -0.1847  -0.1774  -0.1768   1.6572   1.6597
     1.6614   1.6636   1.7759   1.7781   1.7786   1.7810   2.0271   2.0272
     3.8105   3.8105   3.8106   3.8106   4.4151   4.4186   4.4197   4.4232

          k = 0.4714-0.2357 0.7071 ( 12905 PWs)   bands (ev):

    -6.7547  -5.6298  -5.6290  -5.1957  -4.4034  -4.4014  -3.8304  -3.1917
    -2.1732  -1.4859  -1.3795  -1.3745   0.0541   0.0587   0.1504   1.2161
     1.7530   1.9586   1.9603   2.4361   2.7742   2.8373   2.9076   3.2343
     3.2367   3.2426   3.7224   3.7239   4.1271   4.4478   4.4506   5.1134

          k = 0.3536-0.1179 0.5893 ( 12886 PWs)   bands (ev):

    -6.2723  -6.2671  -5.5074  -5.5027  -4.1817  -4.1730  -3.7833  -3.7773
    -1.6720  -1.6671  -1.2332  -1.2275   0.3903   0.3981   1.2294   1.2323
     1.5148   1.5194   1.5878   1.5942   2.7551   2.7591   3.0067   3.0134
     3.2250   3.2293   3.5376   3.5475   3.7892   3.7911   4.8096   4.8128

          k =-0.2357-0.7071 0.0000 ( 12912 PWs)   bands (ev):

    -6.0979  -6.0978  -5.7343  -5.7343  -4.3811  -4.3811  -3.5030  -3.5030
    -1.7962  -1.7962  -1.0084  -1.0083   0.7090   0.7091   1.2632   1.2635
     1.3303   1.3305   1.5722   1.5722   2.5077   2.5091   2.5180   2.5195
     3.3493   3.3494   3.6101   3.6101   4.1069   4.1070   4.4931   4.4931

          k =-0.1179 0.1179 0.1179 ( 12939 PWs)   bands (ev):

    -7.3206  -5.2011  -4.7866  -4.7861  -4.7792  -3.4742  -3.4736  -3.4663
    -2.0593  -2.0584  -2.0512  -1.7464  -1.7417  -1.7373  -1.2850   2.3890
     2.3891   2.3933   2.8057   2.8088   2.8101   3.9452   3.9471   3.9536
     4.3540   4.3594   4.3600   4.6028   4.6101   4.9719   5.7108   5.7194

          k =-0.2357 0.2357 0.2357 ( 12885 PWs)   bands (ev):

    -7.0211  -5.8927  -4.6512  -4.6511  -4.6439  -4.0089  -4.0085  -4.0012
    -1.4524  -1.4476  -1.4427  -1.4028  -1.4018  -1.3945  -0.0126   1.9029
     1.9034   1.9074   2.8630   2.8637   2.8701   3.0550   3.0583   3.0596
     3.3025   3.9191   3.9235   3.9245   4.7720   4.7794   5.3846   5.3924

          k = 0.3536-0.3536-0.3536 ( 12938 PWs)   bands (ev):

    -6.5370  -6.5317  -4.4034  -4.4012  -4.3975  -4.3959  -4.3935  -4.3855
    -1.2060  -1.2004  -1.1944  -1.1939  -1.1928  -1.1858   1.5688   1.5730
     2.0175   2.0176   2.0192   2.0202   2.0230   2.0316   3.4390   3.4475
     3.4479   3.4499   3.4510   3.4518   5.0367   5.0498   5.0502   5.0522

          k = 0.2357 0.0000 0.0000 ( 12951 PWs)   bands (ev):

    -7.2868  -4.9246  -4.9218  -4.9178  -4.9151  -4.1577  -2.7649  -2.7604
    -2.7603  -2.7558  -1.5457  -1.5416  -1.5392  -1.5351  -1.2838   2.4060
     2.4071   2.4071   2.4082   2.8452   2.8502   3.8386   3.8404   3.8426
     3.8445   4.5054   4.5142   4.5165   4.5252   5.1423   5.4149   5.4258

          k = 0.3536-0.1179 0.1179 ( 12894 PWs)   bands (ev):

    -7.0528  -5.5691  -4.9397  -4.9334  -4.7096  -4.5192  -3.3698  -3.3644
    -2.0466  -2.0431  -1.6294  -1.1685  -1.1652  -0.5363  -0.4480   1.7666
     1.7677   2.6170   2.6176   2.6229   2.6915   3.0557   3.0976   3.0988
     3.7979   3.8735   4.1289   4.1650   4.1744   4.7846   5.0313   5.2349

          k =-0.3536 0.1179 0.1179 ( 12894 PWs)   bands (ev):

    -7.0529  -5.5706  -4.9372  -4.9311  -4.7097  -4.5226  -3.3687  -3.3634
    -2.0482  -2.0450  -1.6222  -1.1751  -1.1720  -0.5360  -0.4422   1.7683
     1.7694   2.6162   2.6166   2.6257   2.6967   3.0505   3.0957   3.0973
     3.8009   3.8768   4.1214   4.1720   4.1816   4.7752   5.0220   5.2413

          k =-0.1179-0.3536-0.1179 ( 12894 PWs)   bands (ev):

    -7.0529  -5.5704  -4.9374  -4.9332  -4.7094  -4.5196  -3.3688  -3.3640
    -2.0490  -2.0432  -1.6290  -1.1740  -1.1668  -0.5374  -0.4427   1.7676
     1.7711   2.6136   2.6178   2.6266   2.6953   3.0533   3.0962   3.1018
     3.8028   3.8728   4.1247   4.1700   4.1730   4.7808   5.0267   5.2339

          k =-0.2357 0.4714-0.4714 ( 12908 PWs)   bands (ev):

    -6.6266  -6.2465  -5.0938  -4.8106  -4.8049  -4.0313  -3.8639  -3.8577
    -1.6642  -1.5894  -1.5891  -0.7902  -0.7884  -0.1540   1.0312   1.5503
     1.5541   1.6120   2.1244   2.3646   2.3654   2.6229   3.0072   3.0075
     3.4114   3.5470   3.5544   3.6513   4.0559   4.6815   4.8902   5.1283

          k = 0.2357-0.4714-0.4714 ( 12908 PWs)   bands (ev):

    -6.6268  -6.2473  -5.0943  -4.8086  -4.8028  -4.0354  -3.8621  -3.8558
    -1.6568  -1.5941  -1.5937  -0.7972  -0.7955  -0.1525   1.0374   1.5551
     1.5586   1.6146   2.1277   2.3657   2.3665   2.6278   3.0051   3.0054
     3.4056   3.5521   3.5596   3.6449   4.0584   4.6731   4.8958   5.1178

          k = 0.4714 0.2357 0.4714 ( 12908 PWs)   bands (ev):

    -6.6269  -6.2471  -5.0936  -4.8090  -4.8044  -4.0321  -3.8619  -3.8576
    -1.6637  -1.5953  -1.5887  -0.7971  -0.7895  -0.1559   1.0363   1.5546
     1.5571   1.6152   2.1289   2.3656   2.3702   2.6280   3.0032   3.0075
     3.4085   3.5497   3.5528   3.6478   4.0550   4.6778   4.8892   5.1236

          k =-0.1179 0.3536-0.3536 ( 12892 PWs)   bands (ev):

    -6.7899  -6.0305  -5.3010  -4.5232  -4.5178  -4.2553  -4.2483  -3.4782
    -1.9539  -1.5860  -1.5830  -0.7860  -0.7855  -0.3959   0.5102   1.2586
     2.0844   2.0915   2.1312   2.1323   2.6663   2.9923   2.9982   3.2325
     3.2462   3.5330   3.5340   3.8719   4.3973   4.4419   4.5023   5.4890

          k = 0.1179-0.3536-0.3536 ( 12892 PWs)   bands (ev):

    -6.7902  -6.0310  -5.3019  -4.5214  -4.5160  -4.2526  -4.2457  -3.4829
    -1.9473  -1.5924  -1.5894  -0.7921  -0.7915  -0.3925   0.5139   1.2623
     2.0914   2.0983   2.1331   2.1341   2.6741   2.9959   3.0018   3.2269
     3.2505   3.5295   3.5305   3.8652   4.3982   4.4339   4.5075   5.4771

          k = 0.3536 0.1179 0.3536 ( 12892 PWs)   bands (ev):

    -6.7901  -6.0311  -5.3008  -4.5220  -4.5172  -4.2522  -4.2485  -3.4794
    -1.9527  -1.5914  -1.5844  -0.7928  -0.7856  -0.3972   0.5147   1.2615
     2.0914   2.0927   2.1334   2.1365   2.6719   2.9937   2.9970   3.2296
     3.2513   3.5287   3.5334   3.8682   4.3954   4.4387   4.5019   5.4834

          k =-0.0000 0.2357-0.2357 ( 12901 PWs)   bands (ev):

    -7.1531  -5.3371  -5.3283  -4.5616  -4.5543  -4.0740  -4.0688  -2.9558
    -2.5134  -1.7303  -1.7260  -1.3239  -1.3215  -0.8790  -0.8722   1.6609
     2.4505   2.4524   2.6579   2.6638   2.9426   3.0494   3.0586   4.0717
     4.0731   4.1641   4.1717   4.1735   4.3294   4.3409   4.9679   5.7427

          k = 0.0000-0.2357-0.2357 ( 12901 PWs)   bands (ev):

    -7.1533  -5.3385  -5.3297  -4.5587  -4.5514  -4.0726  -4.0675  -2.9639
    -2.5047  -1.7371  -1.7326  -1.3274  -1.3249  -0.8744  -0.8676   1.6656
     2.4506   2.4526   2.6605   2.6665   2.9374   3.0573   3.0664   4.0669
     4.0682   4.1739   4.1778   4.1783   4.3215   4.3329   4.9668   5.7296

          k = 0.4714 0.0000 0.0000 ( 12907 PWs)   bands (ev):

    -6.8848  -5.3061  -5.0833  -5.0812  -5.0775  -5.0752  -2.6724  -2.6676
    -2.6675  -2.6627  -0.7763  -0.7739  -0.7692  -0.7667   0.3481   1.8876
     1.8877   1.8877   1.8879   2.5598   2.5615   2.5628   2.5647   3.2125
     3.2179   3.6784   4.4404   4.4492   4.4514   4.4593   4.5863   4.5942

          k =-0.1179 0.5893-0.5893 ( 12907 PWs)   bands (ev):

    -6.5215  -5.7754  -5.7349  -5.0661  -5.0605  -4.4523  -3.2479  -3.2418
    -2.0543  -2.0514  -1.1093  -0.3875  -0.3861   0.5140   1.0034   1.4007
     1.4021   1.4796   2.0419   2.0457   2.2676   2.2689   2.4634   2.7268
     3.3072   3.5347   3.9894   4.0644   4.0747   4.2173   4.2195   4.8602

          k = 0.1179-0.5893-0.5893 ( 12907 PWs)   bands (ev):

    -6.5215  -5.7767  -5.7350  -5.0640  -5.0584  -4.4556  -3.2465  -3.2405
    -2.0565  -2.0537  -1.1009  -0.3956  -0.3942   0.5219   1.0038   1.4032
     1.4046   1.4806   2.0417   2.0455   2.2660   2.2672   2.4646   2.7269
     3.3128   3.5288   3.9822   4.0726   4.0824   4.2124   4.2234   4.8506

          k = 0.5893 0.1179 0.5893 ( 12907 PWs)   bands (ev):

    -6.5216  -5.7762  -5.7348  -5.0647  -5.0599  -4.4534  -3.2462  -3.2419
    -2.0571  -2.0513  -1.1068  -0.3949  -0.3872   0.5194   1.0017   1.4022
     1.4043   1.4814   2.0424   2.0461   2.2650   2.2688   2.4668   2.7255
     3.3124   3.5318   3.9857   4.0715   4.0749   4.2147   4.2181   4.8556

          k = 0.0000 0.4714-0.4714 ( 12878 PWs)   bands (ev):

    -6.3675  -5.9833  -5.9739  -4.8792  -4.8737  -3.7835  -3.7773  -3.7715
    -1.7091  -1.7085  -1.6339  -0.3604  -0.3601   0.9904   0.9958   1.0340
     1.4812   1.4862   1.7944   1.9767   1.9807   2.8662   2.8681   3.2771
     3.3712   3.3805   3.5542   3.7290   3.7335   3.9648   3.9765   5.2580

          k = 0.0000-0.4714-0.4714 ( 12878 PWs)   bands (ev):

    -6.3682  -5.9835  -5.9743  -4.8773  -4.8718  -3.7877  -3.7761  -3.7690
    -1.7143  -1.7135  -1.6251  -0.3685  -0.3682   0.9926   0.9980   1.0359
     1.4870   1.4917   1.8039   1.9773   1.9812   2.8632   2.8650   3.2755
     3.3784   3.3875   3.5480   3.7339   3.7387   3.9581   3.9697   5.2470

          k =-0.7071 0.0000 0.0000 ( 12896 PWs)   bands (ev):

    -6.2256  -6.2161  -5.1527  -5.1507  -5.1472  -5.1451  -2.6227  -2.6177
    -2.6176  -2.6126  -0.1859  -0.1851  -0.1769  -0.1760   1.6599   1.6605
     1.6606   1.6613   1.7758   1.7765   1.7803   1.7809   2.0255   2.0287
     3.8014   3.8078   3.8132   3.8193   4.4099   4.4180   4.4201   4.4285

          k =-0.2357 0.4714-0.7071 ( 12905 PWs)   bands (ev):

    -6.7547  -5.6301  -5.6287  -5.1957  -4.4041  -4.4007  -3.8305  -3.1917
    -2.1732  -1.4860  -1.3808  -1.3731   0.0533   0.0599   0.1502   1.2161
     1.7532   1.9586   1.9602   2.4362   2.7742   2.8372   2.9077   3.2332
     3.2392   3.2411   3.7196   3.7265   4.1269   4.4449   4.4536   5.1134

          k = 0.7071 0.2357 0.4714 ( 12905 PWs)   bands (ev):

    -6.7548  -5.6343  -5.6252  -5.1952  -4.4054  -4.3976  -3.8290  -3.1951
    -2.1688  -1.4892  -1.3819  -1.3775   0.0551   0.0613   0.1475   1.2179
     1.7529   1.9587   1.9656   2.4386   2.7748   2.8343   2.9125   3.2332
     3.2397   3.2419   3.7202   3.7236   4.1263   4.4462   4.4511   5.1079

          k =-0.7071 0.2357-0.4714 ( 12905 PWs)   bands (ev):

    -6.7545  -5.6337  -5.6245  -5.1961  -4.4073  -4.3994  -3.8320  -3.1882
    -2.1774  -1.4828  -1.3764  -1.3722   0.0516   0.0581   0.1529   1.2142
     1.7535   1.9531   1.9600   2.4338   2.7739   2.8398   2.9029   3.2311
     3.2376   3.2438   3.7228   3.7261   4.1277   4.4473   4.4521   5.1189

          k =-0.1179 0.3536-0.5893 ( 12886 PWs)   bands (ev):

    -6.2723  -6.2670  -5.5078  -5.5023  -4.1803  -4.1775  -3.7812  -3.7760
    -1.6759  -1.6695  -1.2299  -1.2226   0.3913   0.3966   1.2279   1.2327
     1.5140   1.5192   1.5891   1.5913   2.7586   2.7601   3.0058   3.0105
     3.2275   3.2309   3.5401   3.5412   3.7846   3.7910   4.8098   4.8188

          k = 0.1179-0.3536-0.5893 ( 12886 PWs)   bands (ev):

    -6.2727  -6.2674  -5.5074  -5.5018  -4.1783  -4.1754  -3.7828  -3.7776
    -1.6737  -1.6671  -1.2354  -1.2281   0.3884   0.3936   1.2306   1.2352
     1.5191   1.5240   1.5908   1.5934   2.7595   2.7610   3.0077   3.0124
     3.2238   3.2274   3.5392   3.5404   3.7871   3.7936   4.8048   4.8136

          k = 0.3536 0.5893 0.1179 ( 12886 PWs)   bands (ev):

    -6.2725  -6.2674  -5.5070  -5.5023  -4.1828  -4.1741  -3.7814  -3.7754
    -1.6759  -1.6712  -1.2305  -1.2248   0.3868   0.3946   1.2309   1.2338
     1.5183   1.5233   1.5884   1.5946   2.7605   2.7644   3.0045   3.0115
     3.2257   3.2300   3.5332   3.5429   3.7869   3.7889   4.8107   4.8140

          k =-0.7071-0.2357 0.0000 ( 12912 PWs)   bands (ev):

    -6.1025  -6.0932  -5.7349  -5.7337  -4.3827  -4.3795  -3.5066  -3.4995
    -1.7976  -1.7949  -1.0127  -1.0040   0.7045   0.7136   1.2630   1.2642
     1.3300   1.3304   1.5709   1.5734   2.5088   2.5099   2.5166   2.5192
     3.3475   3.3509   3.6066   3.6135   4.1052   4.1086   4.4885   4.4977

          k = 0.0000 0.7071-0.2357 ( 12912 PWs)   bands (ev):

    -6.0981  -6.0976  -5.7389  -5.7297  -4.3853  -4.3770  -3.5055  -3.5006
    -1.8003  -1.7922  -1.0088  -1.0080   0.7083   0.7099   1.2625   1.2645
     1.3291   1.3313   1.5684   1.5761   2.5059   2.5100   2.5163   2.5220
     3.3487   3.3500   3.6080   3.6122   4.1028   4.1110   4.4911   4.4951

     highest occupied level (ev):     5.8720

!    total energy              =    -126.14950672 Ry
     estimated scf accuracy    <          2.6E-09 Ry

     convergence has been achieved in   3 iterations

     Using ACE for calculation of exact exchange
     ACE projected onto    32 (nbndproj) and applied to    32 (nbnd) bands

     total energy              =    -126.14951323 Ry
     Harris-Foulkes estimate   =    -126.14951323 Ry
     est. exchange err (dexx)  =       0.00000650 Ry
     - averaged Fock potential =      13.37917016 Ry
     + Fock energy (ACE)       =      -6.69050906 Ry

     EXX: now go back to refine exchange calculation

     total cpu time spent up to now is    63228.6 secs

     per-process dynamical memory:  4154.9 Mb

     Self-consistent Calculation

     iteration #  1     ecut=    50.00 Ry     beta= 0.70
     Davidson diagonalization with overlap
     ethr =  1.60E-10,  avg # of iterations =  5.3

     total cpu time spent up to now is    63232.5 secs

     total energy              =    -126.14951486 Ry
     estimated scf accuracy    <       0.00000031 Ry

     iteration #  2     ecut=    50.00 Ry     beta= 0.70
     Davidson diagonalization with overlap
     ethr =  4.77E-10,  avg # of iterations =  1.7

     total cpu time spent up to now is    63234.7 secs

     End of self-consistent calculation

          k = 0.0000 0.0000 0.0000 ( 12939 PWs)   bands (ev):

    -7.4211  -4.8310  -4.8278  -4.8235  -4.8204  -2.8122  -2.8077  -2.8033
    -2.8033  -2.7989  -2.7945  -1.8630  -1.8581  -1.8564  -1.8514   2.7191
     2.7229   2.7233   2.7233   2.7236   2.7274   4.5372   4.5459   4.5480
     4.5487   4.5496   4.5503   4.5525   4.5610   5.8572   5.8639   5.8708

          k =-0.1179 0.1179-0.1179 ( 12939 PWs)   bands (ev):

    -7.3202  -5.1987  -4.7895  -4.7825  -4.7821  -3.4765  -3.4692  -3.4686
    -2.0606  -2.0532  -2.0524  -1.7437  -1.7394  -1.7345  -1.2903   2.3853
     2.3895   2.3897   2.8077   2.8090   2.8120   3.9383   3.9450   3.9468
     4.3589   4.3594   4.3645   4.6038   4.6111   4.9643   5.7137   5.7224

          k =-0.2357 0.2357-0.2357 ( 12885 PWs)   bands (ev):

    -7.0206  -5.8913  -4.6543  -4.6470  -4.6469  -4.0116  -4.0043  -4.0038
    -1.4496  -1.4442  -1.4405  -1.4028  -1.3960  -1.3940  -0.0171   1.8983
     1.9024   1.9028   2.8565   2.8629   2.8635   3.0573   3.0584   3.0617
     3.2970   3.9228   3.9236   3.9280   4.7733   4.7806   5.3867   5.3947

          k = 0.3536-0.3536 0.3536 ( 12938 PWs)   bands (ev):

    -6.5362  -6.5310  -4.4074  -4.3993  -4.3970  -4.3953  -4.3916  -4.3894
    -1.2024  -1.1953  -1.1942  -1.1937  -1.1878  -1.1820   1.5641   1.5685
     2.0072   2.0155   2.0183   2.0193   2.0209   2.0210   3.4458   3.4466
     3.4477   3.4498   3.4500   3.4585   5.0440   5.0457   5.0462   5.0595

          k = 0.0000 0.2357 0.0000 ( 12951 PWs)   bands (ev):

    -7.2864  -4.9255  -4.9216  -4.9175  -4.9136  -4.1575  -2.7670  -2.7601
    -2.7601  -2.7531  -1.5465  -1.5407  -1.5396  -1.5338  -1.2836   2.4035
     2.4058   2.4081   2.4103   2.8474   2.8475   3.8341   3.8400   3.8423
     3.8480   4.5115   4.5140   4.5154   4.5179   5.1416   5.4194   5.4196

          k =-0.1179 0.3536-0.1179 ( 12894 PWs)   bands (ev):

    -7.0524  -5.5690  -4.9372  -4.9329  -4.7096  -4.5220  -3.3689  -3.3641
    -2.0480  -2.0422  -1.6224  -1.1734  -1.1662  -0.5350  -0.4471   1.7649
     1.7684   2.6157   2.6191   2.6227   2.6927   3.0531   3.0926   3.0982
     3.7958   3.8770   4.1252   4.1730   4.1760   4.7785   5.0255   5.2418

          k = 0.4714-0.2357 0.4714 ( 12908 PWs)   bands (ev):

    -6.6262  -6.2463  -5.0942  -4.8088  -4.8042  -4.0345  -3.8618  -3.8576
    -1.6574  -1.5943  -1.5874  -0.7960  -0.7885  -0.1505   1.0325   1.5519
     1.5546   1.6114   2.1232   2.3611   2.3655   2.6225   3.0048   3.0090
     3.4085   3.5532   3.5565   3.6479   4.0590   4.6763   4.8962   5.1216

          k = 0.3536-0.1179 0.3536 ( 12892 PWs)   bands (ev):

    -6.7896  -6.0300  -5.3018  -4.5218  -4.5169  -4.2520  -4.2484  -3.4815
    -1.9484  -1.5907  -1.5837  -0.7919  -0.7847  -0.3911   0.5096   1.2597
     2.0892   2.0914   2.1297   2.1322   2.6682   2.9967   3.0001   3.2293
     3.2453   3.5298   3.5343   3.8686   4.3990   4.4369   4.5079   5.4818

          k = 0.2357-0.0000 0.2357 ( 12901 PWs)   bands (ev):

    -7.1528  -5.3340  -5.3322  -4.5579  -4.5546  -4.0729  -4.0679  -2.9597
    -2.5089  -1.7346  -1.7278  -1.3275  -1.3211  -0.8758  -0.8702   1.6634
     2.4509   2.4518   2.6602   2.6637   2.9397   3.0574   3.0583   4.0666
     4.0717   4.1669   4.1731   4.1785   4.3300   4.3314   4.9668   5.7350

          k = 0.0000 0.4714 0.0000 ( 12907 PWs)   bands (ev):

    -6.8844  -5.3057  -5.0857  -5.0811  -5.0770  -5.0724  -2.6741  -2.6674
    -2.6673  -2.6605  -0.7781  -0.7721  -0.7706  -0.7646   0.3481   1.8843
     1.8868   1.8888   1.8911   2.5561   2.5613   2.5631   2.5683   3.2149
     3.2149   3.6780   4.4458   4.4491   4.4502   4.4535   4.5892   4.5893

          k = 0.5893-0.1179 0.5893 ( 12907 PWs)   bands (ev):

    -6.5210  -5.7755  -5.7349  -5.0644  -5.0596  -4.4542  -3.2462  -3.2420
    -2.0564  -2.0506  -1.1033  -0.3944  -0.3867   0.5166   1.0055   1.4009
     1.4033   1.4791   2.0413   2.0450   2.2659   2.2698   2.4611   2.7283
     3.3075   3.5316   3.9855   4.0720   4.0753   4.2149   4.2236   4.8542

          k = 0.4714-0.0000 0.4714 ( 12878 PWs)   bands (ev):

    -6.3675  -5.9787  -5.9781  -4.8776  -4.8728  -3.7859  -3.7748  -3.7711
    -1.7145  -1.7078  -1.6293  -0.3681  -0.3604   0.9912   0.9970   1.0355
     1.4864   1.4872   1.7988   1.9781   1.9801   2.8633   2.8675   3.2760
     3.3776   3.3809   3.5508   3.7300   3.7369   3.9665   3.9672   5.2516

          k = 0.0000-0.7071 0.0000 ( 12896 PWs)   bands (ev):

    -6.2205  -6.2205  -5.1555  -5.1507  -5.1466  -5.1418  -2.6242  -2.6175
    -2.6174  -2.6107  -0.1851  -0.1846  -0.1773  -0.1767   1.6574   1.6598
     1.6615   1.6637   1.7761   1.7783   1.7789   1.7812   2.0270   2.0271
     3.8101   3.8101   3.8102   3.8102   4.4144   4.4179   4.4190   4.4226

          k = 0.4714-0.2357 0.7071 ( 12905 PWs)   bands (ev):

    -6.7543  -5.6295  -5.6287  -5.1954  -4.4032  -4.4012  -3.8302  -3.1915
    -2.1730  -1.4857  -1.3793  -1.3743   0.0543   0.0589   0.1504   1.2163
     1.7532   1.9587   1.9604   2.4361   2.7741   2.8371   2.9074   3.2341
     3.2365   3.2424   3.7220   3.7235   4.1268   4.4472   4.4500   5.1127

          k = 0.3536-0.1179 0.5893 ( 12886 PWs)   bands (ev):

    -6.2719  -6.2668  -5.5071  -5.5024  -4.1814  -4.1727  -3.7831  -3.7771
    -1.6718  -1.6670  -1.2331  -1.2273   0.3904   0.3982   1.2297   1.2326
     1.5148   1.5194   1.5880   1.5944   2.7551   2.7591   3.0066   3.0132
     3.2247   3.2290   3.5375   3.5473   3.7888   3.7907   4.8089   4.8121

          k =-0.2357-0.7071 0.0000 ( 12912 PWs)   bands (ev):

    -6.0975  -6.0975  -5.7340  -5.7340  -4.3809  -4.3808  -3.5028  -3.5027
    -1.7961  -1.7961  -1.0083  -1.0082   0.7090   0.7091   1.2635   1.2637
     1.3305   1.3307   1.5721   1.5721   2.5078   2.5092   2.5179   2.5195
     3.3491   3.3493   3.6097   3.6098   4.1065   4.1065   4.4925   4.4925

          k =-0.1179 0.1179 0.1179 ( 12939 PWs)   bands (ev):

    -7.3202  -5.2008  -4.7863  -4.7859  -4.7789  -3.4739  -3.4733  -3.4660
    -2.0591  -2.0582  -2.0510  -1.7461  -1.7414  -1.7370  -1.2847   2.3889
     2.3890   2.3931   2.8054   2.8085   2.8098   3.9448   3.9467   3.9532
     4.3533   4.3587   4.3594   4.6021   4.6093   4.9713   5.7097   5.7183

          k =-0.2357 0.2357 0.2357 ( 12885 PWs)   bands (ev):

    -7.0208  -5.8923  -4.6509  -4.6508  -4.6436  -4.0087  -4.0082  -4.0009
    -1.4521  -1.4473  -1.4424  -1.4027  -1.4017  -1.3943  -0.0124   1.9030
     1.9034   1.9075   2.8630   2.8637   2.8700   3.0546   3.0579   3.0592
     3.3023   3.9186   3.9230   3.9239   4.7713   4.7787   5.3837   5.3915

          k = 0.3536-0.3536-0.3536 ( 12938 PWs)   bands (ev):

    -6.5367  -6.5314  -4.4032  -4.4009  -4.3972  -4.3956  -4.3932  -4.3852
    -1.2059  -1.2002  -1.1943  -1.1937  -1.1926  -1.1856   1.5689   1.5731
     2.0176   2.0177   2.0193   2.0203   2.0231   2.0317   3.4385   3.4471
     3.4475   3.4495   3.4506   3.4514   5.0359   5.0490   5.0494   5.0514

          k = 0.2357 0.0000 0.0000 ( 12951 PWs)   bands (ev):

    -7.2864  -4.9244  -4.9216  -4.9176  -4.9148  -4.1574  -2.7647  -2.7602
    -2.7601  -2.7556  -1.5454  -1.5413  -1.5389  -1.5348  -1.2837   2.4058
     2.4069   2.4070   2.4081   2.8449   2.8499   3.8383   3.8400   3.8423
     3.8441   4.5047   4.5135   4.5158   4.5245   5.1416   5.4140   5.4249

          k = 0.3536-0.1179 0.1179 ( 12894 PWs)   bands (ev):

    -7.0525  -5.5687  -4.9395  -4.9331  -4.7093  -4.5189  -3.3696  -3.3642
    -2.0464  -2.0430  -1.6291  -1.1682  -1.1650  -0.5362  -0.4478   1.7667
     1.7678   2.6169   2.6174   2.6229   2.6913   3.0554   3.0975   3.0987
     3.7976   3.8731   4.1283   4.1645   4.1739   4.7839   5.0306   5.2342

          k =-0.3536 0.1179 0.1179 ( 12894 PWs)   bands (ev):

    -7.0525  -5.5703  -4.9369  -4.9308  -4.7094  -4.5223  -3.3685  -3.3631
    -2.0481  -2.0448  -1.6219  -1.1748  -1.1717  -0.5359  -0.4419   1.7683
     1.7695   2.6160   2.6164   2.6257   2.6965   3.0502   3.0956   3.0972
     3.8006   3.8765   4.1208   4.1715   4.1810   4.7744   5.0213   5.2406

          k =-0.1179-0.3536-0.1179 ( 12894 PWs)   bands (ev):

    -7.0526  -5.5701  -4.9372  -4.9329  -4.7091  -4.5193  -3.3686  -3.3637
    -2.0489  -2.0430  -1.6287  -1.1738  -1.1665  -0.5373  -0.4425   1.7677
     1.7712   2.6135   2.6176   2.6266   2.6952   3.0530   3.0961   3.1017
     3.8025   3.8725   4.1242   4.1695   4.1725   4.7800   5.0260   5.2331

          k =-0.2357 0.4714-0.4714 ( 12908 PWs)   bands (ev):

    -6.6263  -6.2461  -5.0935  -4.8104  -4.8046  -4.0311  -3.8637  -3.8575
    -1.6640  -1.5893  -1.5890  -0.7900  -0.7882  -0.1540   1.0313   1.5504
     1.5542   1.6121   2.1244   2.3647   2.3654   2.6229   3.0069   3.0073
     3.4110   3.5466   3.5540   3.6508   4.0556   4.6808   4.8896   5.1274

          k = 0.2357-0.4714-0.4714 ( 12908 PWs)   bands (ev):

    -6.6265  -6.2469  -5.0940  -4.8083  -4.8025  -4.0351  -3.8618  -3.8555
    -1.6566  -1.5939  -1.5936  -0.7970  -0.7954  -0.1524   1.0375   1.5553
     1.5587   1.6148   2.1277   2.3657   2.3665   2.6278   3.0049   3.0051
     3.4052   3.5517   3.5592   3.6444   4.0581   4.6724   4.8952   5.1169

          k = 0.4714 0.2357 0.4714 ( 12908 PWs)   bands (ev):

    -6.6266  -6.2468  -5.0933  -4.8088  -4.8041  -4.0318  -3.8616  -3.8574
    -1.6635  -1.5951  -1.5885  -0.7969  -0.7894  -0.1558   1.0364   1.5548
     1.5573   1.6153   2.1289   2.3656   2.3702   2.6280   3.0029   3.0072
     3.4081   3.5494   3.5525   3.6474   4.0546   4.6771   4.8886   5.1227

          k =-0.1179 0.3536-0.3536 ( 12892 PWs)   bands (ev):

    -6.7895  -6.0301  -5.3007  -4.5229  -4.5175  -4.2550  -4.2480  -3.4780
    -1.9538  -1.5857  -1.5828  -0.7859  -0.7854  -0.3958   0.5104   1.2589
     2.0844   2.0916   2.1313   2.1323   2.6662   2.9921   2.9979   3.2321
     3.2460   3.5326   3.5337   3.8714   4.3969   4.4413   4.5018   5.4880

          k = 0.1179-0.3536-0.3536 ( 12892 PWs)   bands (ev):

    -6.7899  -6.0307  -5.3016  -4.5212  -4.5157  -4.2524  -4.2455  -3.4827
    -1.9471  -1.5922  -1.5892  -0.7920  -0.7914  -0.3924   0.5141   1.2625
     2.0915   2.0984   2.1332   2.1341   2.6739   2.9956   3.0015   3.2264
     3.2504   3.5291   3.5301   3.8647   4.3979   4.4333   4.5070   5.4761

          k = 0.3536 0.1179 0.3536 ( 12892 PWs)   bands (ev):

    -6.7898  -6.0308  -5.3005  -4.5218  -4.5169  -4.2519  -4.2483  -3.4792
    -1.9525  -1.5912  -1.5842  -0.7927  -0.7854  -0.3970   0.5148   1.2618
     2.0915   2.0928   2.1334   2.1365   2.6717   2.9934   2.9968   3.2292
     3.2512   3.5284   3.5330   3.8677   4.3950   4.4381   4.5014   5.4824

          k =-0.0000 0.2357-0.2357 ( 12901 PWs)   bands (ev):

    -7.1528  -5.3368  -5.3280  -4.5614  -4.5541  -4.0737  -4.0685  -2.9556
    -2.5132  -1.7300  -1.7257  -1.3237  -1.3214  -0.8788  -0.8720   1.6610
     2.4503   2.4523   2.6577   2.6636   2.9422   3.0493   3.0585   4.0712
     4.0726   4.1637   4.1713   4.1731   4.3288   4.3403   4.9673   5.7416

          k = 0.0000-0.2357-0.2357 ( 12901 PWs)   bands (ev):

    -7.1529  -5.3382  -5.3294  -4.5584  -4.5511  -4.0723  -4.0672  -2.9637
    -2.5045  -1.7368  -1.7323  -1.3272  -1.3247  -0.8742  -0.8673   1.6657
     2.4505   2.4525   2.6603   2.6663   2.9370   3.0572   3.0663   4.0664
     4.0677   4.1734   4.1773   4.1779   4.3208   4.3323   4.9662   5.7285

          k = 0.4714 0.0000 0.0000 ( 12907 PWs)   bands (ev):

    -6.8844  -5.3058  -5.0830  -5.0809  -5.0773  -5.0749  -2.6722  -2.6674
    -2.6673  -2.6625  -0.7761  -0.7737  -0.7690  -0.7665   0.3481   1.8876
     1.8878   1.8878   1.8879   2.5598   2.5615   2.5629   2.5647   3.2121
     3.2175   3.6781   4.4397   4.4485   4.4507   4.4586   4.5857   4.5937

          k =-0.1179 0.5893-0.5893 ( 12907 PWs)   bands (ev):

    -6.5211  -5.7751  -5.7346  -5.0658  -5.0602  -4.4520  -3.2477  -3.2416
    -2.0541  -2.0512  -1.1092  -0.3874  -0.3860   0.5140   1.0034   1.4009
     1.4023   1.4798   2.0420   2.0458   2.2676   2.2689   2.4633   2.7268
     3.3070   3.5343   3.9888   4.0639   4.0742   4.2169   4.2190   4.8594

          k = 0.1179-0.5893-0.5893 ( 12907 PWs)   bands (ev):

    -6.5212  -5.7764  -5.7347  -5.0638  -5.0581  -4.4553  -3.2463  -3.2403
    -2.0563  -2.0535  -1.1008  -0.3954  -0.3941   0.5220   1.0038   1.4034
     1.4048   1.4808   2.0418   2.0456   2.2660   2.2672   2.4645   2.7269
     3.3126   3.5284   3.9817   4.0721   4.0819   4.2119   4.2230   4.8498

          k = 0.5893 0.1179 0.5893 ( 12907 PWs)   bands (ev):

    -6.5212  -5.7759  -5.7345  -5.0644  -5.0596  -4.4532  -3.2459  -3.2417
    -2.0569  -2.0511  -1.1067  -0.3948  -0.3871   0.5195   1.0016   1.4024
     1.4045   1.4816   2.0425   2.0463   2.2650   2.2688   2.4667   2.7255
     3.3122   3.5314   3.9852   4.0710   4.0744   4.2142   4.2176   4.8548

          k = 0.0000 0.4714-0.4714 ( 12878 PWs)   bands (ev):

    -6.3672  -5.9830  -5.9736  -4.8789  -4.8734  -3.7833  -3.7771  -3.7713
    -1.7089  -1.7083  -1.6337  -0.3604  -0.3600   0.9904   0.9959   1.0342
     1.4814   1.4864   1.7943   1.9768   1.9808   2.8661   2.8679   3.2770
     3.3709   3.3802   3.5538   3.7287   3.7332   3.9643   3.9760   5.2571

          k = 0.0000-0.4714-0.4714 ( 12878 PWs)   bands (ev):

    -6.3679  -5.9832  -5.9739  -4.8770  -4.8715  -3.7875  -3.7759  -3.7688
    -1.7141  -1.7134  -1.6249  -0.3684  -0.3681   0.9926   0.9980   1.0362
     1.4871   1.4919   1.8038   1.9774   1.9813   2.8631   2.8648   3.2754
     3.3782   3.3872   3.5476   3.7336   3.7384   3.9576   3.9692   5.2461

          k =-0.7071 0.0000 0.0000 ( 12896 PWs)   bands (ev):

    -6.2252  -6.2158  -5.1524  -5.1504  -5.1469  -5.1448  -2.6225  -2.6175
    -2.6174  -2.6124  -0.1858  -0.1850  -0.1768  -0.1759   1.6601   1.6606
     1.6607   1.6614   1.7760   1.7767   1.7805   1.7811   2.0254   2.0286
     3.8009   3.8074   3.8128   3.8189   4.4093   4.4173   4.4195   4.4279

          k =-0.2357 0.4714-0.7071 ( 12905 PWs)   bands (ev):

    -6.7543  -5.6298  -5.6284  -5.1953  -4.4038  -4.4004  -3.8303  -3.1915
    -2.1730  -1.4858  -1.3806  -1.3729   0.0534   0.0600   0.1502   1.2163
     1.7533   1.9587   1.9603   2.4362   2.7740   2.8369   2.9075   3.2330
     3.2391   3.2409   3.7192   3.7261   4.1266   4.4443   4.4530   5.1127

          k = 0.7071 0.2357 0.4714 ( 12905 PWs)   bands (ev):

    -6.7545  -5.6340  -5.6249  -5.1949  -4.4051  -4.3973  -3.8288  -3.1948
    -2.1686  -1.4890  -1.3816  -1.3773   0.0552   0.0614   0.1476   1.2181
     1.7530   1.9589   1.9657   2.4385   2.7746   2.8340   2.9123   3.2330
     3.2395   3.2418   3.7198   3.7232   4.1260   4.4456   4.4505   5.1072

          k =-0.7071 0.2357-0.4714 ( 12905 PWs)   bands (ev):

    -6.7541  -5.6333  -5.6242  -5.1958  -4.4070  -4.3992  -3.8317  -3.1880
    -2.1773  -1.4826  -1.3762  -1.3720   0.0518   0.0582   0.1530   1.2144
     1.7536   1.9532   1.9601   2.4337   2.7738   2.8396   2.9027   3.2308
     3.2374   3.2437   3.7224   3.7257   4.1274   4.4467   4.4516   5.1182

          k =-0.1179 0.3536-0.5893 ( 12886 PWs)   bands (ev):

    -6.2719  -6.2666  -5.5075  -5.5019  -4.1801  -4.1772  -3.7810  -3.7758
    -1.6758  -1.6693  -1.2298  -1.2224   0.3914   0.3966   1.2281   1.2330
     1.5140   1.5192   1.5893   1.5915   2.7585   2.7601   3.0056   3.0103
     3.2273   3.2306   3.5399   3.5410   3.7842   3.7906   4.8092   4.8181

          k = 0.1179-0.3536-0.5893 ( 12886 PWs)   bands (ev):

    -6.2724  -6.2670  -5.5071  -5.5015  -4.1780  -4.1751  -3.7825  -3.7773
    -1.6735  -1.6669  -1.2353  -1.2280   0.3884   0.3937   1.2308   1.2355
     1.5191   1.5240   1.5910   1.5936   2.7595   2.7610   3.0075   3.0122
     3.2235   3.2271   3.5390   3.5403   3.7867   3.7932   4.8041   4.8129

          k = 0.3536 0.5893 0.1179 ( 12886 PWs)   bands (ev):

    -6.2722  -6.2670  -5.5067  -5.5020  -4.1825  -4.1738  -3.7812  -3.7751
    -1.6757  -1.6710  -1.2304  -1.2247   0.3868   0.3947   1.2312   1.2341
     1.5183   1.5233   1.5886   1.5947   2.7605   2.7644   3.0043   3.0113
     3.2254   3.2298   3.5330   3.5428   3.7865   3.7885   4.8100   4.8133

          k =-0.7071-0.2357 0.0000 ( 12912 PWs)   bands (ev):

    -6.1022  -6.0928  -5.7346  -5.7334  -4.3825  -4.3792  -3.5063  -3.4993
    -1.7974  -1.7948  -1.0126  -1.0038   0.7046   0.7136   1.2633   1.2644
     1.3303   1.3307   1.5709   1.5733   2.5088   2.5100   2.5165   2.5191
     3.3473   3.3508   3.6062   3.6132   4.1047   4.1081   4.4880   4.4971

          k = 0.0000 0.7071-0.2357 ( 12912 PWs)   bands (ev):

    -6.0978  -6.0972  -5.7386  -5.7294  -4.3850  -4.3767  -3.5052  -3.5004
    -1.8001  -1.7920  -1.0086  -1.0079   0.7083   0.7099   1.2627   1.2648
     1.3294   1.3316   1.5683   1.5760   2.5060   2.5101   2.5163   2.5220
     3.3486   3.3498   3.6076   3.6118   4.1023   4.1105   4.4905   4.4945

     highest occupied level (ev):     5.8708

!    total energy              =    -126.14951488 Ry
     estimated scf accuracy    <          8.8E-09 Ry

     convergence has been achieved in   2 iterations

     Using ACE for calculation of exact exchange
     ACE projected onto    32 (nbndproj) and applied to    32 (nbnd) bands

     total energy              =    -126.14951534 Ry
     Harris-Foulkes estimate   =    -126.14951534 Ry
     est. exchange err (dexx)  =       0.00000045 Ry
     - averaged Fock potential =      13.38150940 Ry
     + Fock energy (ACE)       =      -6.69100079 Ry

     EXX: now go back to refine exchange calculation

     total cpu time spent up to now is    77581.9 secs

     per-process dynamical memory:  4154.9 Mb

     Self-consistent Calculation

     iteration #  1     ecut=    50.00 Ry     beta= 0.70
     Davidson diagonalization with overlap
     ethr =  4.77E-10,  avg # of iterations =  2.8

     Threshold (ethr) on eigenvalues was too large:
     Diagonalizing with lowered threshold

     Davidson diagonalization with overlap
     ethr =  3.20E-11,  avg # of iterations =  2.1

     total cpu time spent up to now is    77586.9 secs

     total energy              =    -126.14951544 Ry
     estimated scf accuracy    <       0.00000002 Ry

     iteration #  2     ecut=    50.00 Ry     beta= 0.70
     Davidson diagonalization with overlap
     ethr =  3.51E-11,  avg # of iterations =  2.0

     total cpu time spent up to now is    77589.6 secs

     End of self-consistent calculation

          k = 0.0000 0.0000 0.0000 ( 12939 PWs)   bands (ev):

    -7.4210  -4.8309  -4.8277  -4.8234  -4.8203  -2.8121  -2.8076  -2.8032
    -2.8032  -2.7988  -2.7944  -1.8628  -1.8580  -1.8563  -1.8513   2.7190
     2.7229   2.7232   2.7233   2.7236   2.7274   4.5370   4.5458   4.5478
     4.5486   4.5495   4.5502   4.5524   4.5609   5.8569   5.8637   5.8706

          k =-0.1179 0.1179-0.1179 ( 12939 PWs)   bands (ev):

    -7.3200  -5.1986  -4.7894  -4.7824  -4.7820  -3.4764  -3.4691  -3.4685
    -2.0605  -2.0531  -2.0523  -1.7436  -1.7393  -1.7344  -1.2902   2.3853
     2.3896   2.3897   2.8077   2.8089   2.8120   3.9383   3.9449   3.9468
     4.3588   4.3593   4.3644   4.6037   4.6110   4.9642   5.7135   5.7222

          k =-0.2357 0.2357-0.2357 ( 12885 PWs)   bands (ev):

    -7.0205  -5.8912  -4.6542  -4.6469  -4.6467  -4.0115  -4.0042  -4.0037
    -1.4495  -1.4441  -1.4404  -1.4027  -1.3960  -1.3939  -0.0170   1.8983
     1.9024   1.9028   2.8565   2.8629   2.8636   3.0573   3.0584   3.0617
     3.2970   3.9227   3.9235   3.9279   4.7732   4.7805   5.3866   5.3946

          k = 0.3536-0.3536 0.3536 ( 12938 PWs)   bands (ev):

    -6.5361  -6.5308  -4.4073  -4.3992  -4.3969  -4.3952  -4.3915  -4.3893
    -1.2023  -1.1952  -1.1942  -1.1936  -1.1877  -1.1819   1.5642   1.5685
     2.0073   2.0156   2.0184   2.0193   2.0210   2.0211   3.4458   3.4465
     3.4476   3.4498   3.4500   3.4585   5.0438   5.0456   5.0461   5.0593

          k = 0.0000 0.2357 0.0000 ( 12951 PWs)   bands (ev):

    -7.2863  -4.9254  -4.9215  -4.9174  -4.9135  -4.1573  -2.7669  -2.7600
    -2.7600  -2.7530  -1.5464  -1.5406  -1.5395  -1.5337  -1.2835   2.4035
     2.4058   2.4081   2.4103   2.8474   2.8474   3.8341   3.8400   3.8423
     3.8480   4.5113   4.5138   4.5152   4.5178   5.1414   5.4193   5.4194

          k =-0.1179 0.3536-0.1179 ( 12894 PWs)   bands (ev):

    -7.0523  -5.5688  -4.9371  -4.9328  -4.7095  -4.5219  -3.3688  -3.3640
    -2.0479  -2.0421  -1.6223  -1.1733  -1.1660  -0.5349  -0.4470   1.7650
     1.7685   2.6157   2.6191   2.6227   2.6927   3.0531   3.0926   3.0982
     3.7957   3.8769   4.1251   4.1729   4.1759   4.7784   5.0254   5.2416

          k = 0.4714-0.2357 0.4714 ( 12908 PWs)   bands (ev):

    -6.6261  -6.2462  -5.0941  -4.8087  -4.8041  -4.0344  -3.8617  -3.8575
    -1.6573  -1.5942  -1.5873  -0.7959  -0.7884  -0.1505   1.0325   1.5520
     1.5547   1.6115   2.1233   2.3612   2.3656   2.6226   3.0048   3.0089
     3.4084   3.5532   3.5564   3.6478   4.0590   4.6762   4.8961   5.1214

          k = 0.3536-0.1179 0.3536 ( 12892 PWs)   bands (ev):

    -6.7895  -6.0299  -5.3017  -4.5217  -4.5168  -4.2519  -4.2483  -3.4814
    -1.9483  -1.5906  -1.5835  -0.7918  -0.7847  -0.3910   0.5097   1.2598
     2.0892   2.0915   2.1298   2.1322   2.6682   2.9967   3.0001   3.2293
     3.2453   3.5297   3.5343   3.8685   4.3989   4.4368   4.5078   5.4816

          k = 0.2357-0.0000 0.2357 ( 12901 PWs)   bands (ev):

    -7.1527  -5.3338  -5.3321  -4.5578  -4.5545  -4.0728  -4.0678  -2.9596
    -2.5088  -1.7345  -1.7277  -1.3274  -1.3210  -0.8757  -0.8701   1.6635
     2.4509   2.4518   2.6602   2.6637   2.9397   3.0574   3.0583   4.0666
     4.0716   4.1668   4.1731   4.1784   4.3299   4.3313   4.9667   5.7348

          k = 0.0000 0.4714 0.0000 ( 12907 PWs)   bands (ev):

    -6.8842  -5.3056  -5.0856  -5.0810  -5.0769  -5.0723  -2.6740  -2.6673
    -2.6672  -2.6604  -0.7780  -0.7720  -0.7705  -0.7645   0.3481   1.8844
     1.8868   1.8888   1.8912   2.5562   2.5613   2.5632   2.5683   3.2148
     3.2149   3.6780   4.4457   4.4490   4.4501   4.4533   4.5891   4.5893

          k = 0.5893-0.1179 0.5893 ( 12907 PWs)   bands (ev):

    -6.5209  -5.7754  -5.7347  -5.0643  -5.0595  -4.4541  -3.2461  -3.2419
    -2.0563  -2.0505  -1.1033  -0.3944  -0.3866   0.5167   1.0055   1.4010
     1.4034   1.4792   2.0414   2.0451   2.2660   2.2698   2.4611   2.7283
     3.3075   3.5316   3.9854   4.0719   4.0753   4.2148   4.2235   4.8541

          k = 0.4714-0.0000 0.4714 ( 12878 PWs)   bands (ev):

    -6.3674  -5.9786  -5.9780  -4.8775  -4.8726  -3.7858  -3.7747  -3.7710
    -1.7145  -1.7077  -1.6292  -0.3680  -0.3604   0.9912   0.9970   1.0356
     1.4865   1.4873   1.7989   1.9782   1.9802   2.8633   2.8675   3.2760
     3.3776   3.3809   3.5508   3.7300   3.7369   3.9664   3.9671   5.2514

          k = 0.0000-0.7071 0.0000 ( 12896 PWs)   bands (ev):

    -6.2204  -6.2203  -5.1554  -5.1506  -5.1465  -5.1417  -2.6241  -2.6174
    -2.6173  -2.6106  -0.1851  -0.1845  -0.1772  -0.1766   1.6574   1.6599
     1.6616   1.6638   1.7763   1.7784   1.7790   1.7813   2.0270   2.0271
     3.8100   3.8100   3.8101   3.8102   4.4143   4.4178   4.4189   4.4224

          k = 0.4714-0.2357 0.7071 ( 12905 PWs)   bands (ev):

    -6.7542  -5.6294  -5.6286  -5.1952  -4.4031  -4.4010  -3.8301  -3.1914
    -2.1729  -1.4857  -1.3792  -1.3742   0.0544   0.0590   0.1505   1.2164
     1.7532   1.9588   1.9604   2.4361   2.7741   2.8371   2.9074   3.2341
     3.2365   3.2424   3.7219   3.7235   4.1267   4.4472   4.4499   5.1125

          k = 0.3536-0.1179 0.5893 ( 12886 PWs)   bands (ev):

    -6.2718  -6.2666  -5.5070  -5.5023  -4.1813  -4.1726  -3.7830  -3.7770
    -1.6717  -1.6669  -1.2330  -1.2272   0.3904   0.3982   1.2298   1.2327
     1.5148   1.5195   1.5881   1.5944   2.7552   2.7591   3.0066   3.0132
     3.2246   3.2290   3.5375   3.5473   3.7888   3.7907   4.8088   4.8120

          k =-0.2357-0.7071 0.0000 ( 12912 PWs)   bands (ev):

    -6.0974  -6.0973  -5.7339  -5.7339  -4.3808  -4.3807  -3.5027  -3.5026
    -1.7960  -1.7960  -1.0082  -1.0081   0.7091   0.7091   1.2636   1.2638
     1.3306   1.3308   1.5721   1.5722   2.5078   2.5092   2.5180   2.5195
     3.3491   3.3493   3.6097   3.6097   4.1064   4.1064   4.4924   4.4924

          k =-0.1179 0.1179 0.1179 ( 12939 PWs)   bands (ev):

    -7.3201  -5.2007  -4.7862  -4.7858  -4.7788  -3.4738  -3.4732  -3.4659
    -2.0590  -2.0582  -2.0509  -1.7460  -1.7413  -1.7368  -1.2846   2.3889
     2.3890   2.3932   2.8053   2.8085   2.8098   3.9448   3.9467   3.9532
     4.3532   4.3586   4.3593   4.6020   4.6092   4.9712   5.7095   5.7181

          k =-0.2357 0.2357 0.2357 ( 12885 PWs)   bands (ev):

    -7.0206  -5.8922  -4.6508  -4.6507  -4.6435  -4.0086  -4.0081  -4.0008
    -1.4520  -1.4472  -1.4423  -1.4026  -1.4016  -1.3942  -0.0123   1.9030
     1.9035   1.9075   2.8630   2.8637   2.8701   3.0545   3.0579   3.0592
     3.3023   3.9185   3.9229   3.9239   4.7711   4.7785   5.3835   5.3914

          k = 0.3536-0.3536-0.3536 ( 12938 PWs)   bands (ev):

    -6.5366  -6.5312  -4.4031  -4.4008  -4.3971  -4.3955  -4.3931  -4.3850
    -1.2058  -1.2001  -1.1942  -1.1936  -1.1925  -1.1855   1.5689   1.5732
     2.0177   2.0178   2.0194   2.0203   2.0231   2.0318   3.4384   3.4471
     3.4474   3.4494   3.4505   3.4513   5.0357   5.0488   5.0493   5.0512

          k = 0.2357 0.0000 0.0000 ( 12951 PWs)   bands (ev):

    -7.2863  -4.9243  -4.9215  -4.9174  -4.9147  -4.1573  -2.7646  -2.7601
    -2.7600  -2.7555  -1.5453  -1.5412  -1.5388  -1.5347  -1.2836   2.4058
     2.4070   2.4070   2.4081   2.8448   2.8498   3.8382   3.8400   3.8422
     3.8441   4.5045   4.5133   4.5157   4.5243   5.1415   5.4139   5.4248

          k = 0.3536-0.1179 0.1179 ( 12894 PWs)   bands (ev):

    -7.0523  -5.5686  -4.9393  -4.9330  -4.7091  -4.5188  -3.3695  -3.3641
    -2.0463  -2.0429  -1.6290  -1.1681  -1.1649  -0.5361  -0.4477   1.7668
     1.7679   2.6169   2.6174   2.6229   2.6913   3.0553   3.0975   3.0987
     3.7975   3.8731   4.1282   4.1644   4.1738   4.7837   5.0305   5.2341

          k =-0.3536 0.1179 0.1179 ( 12894 PWs)   bands (ev):

    -7.0524  -5.5701  -4.9368  -4.9307  -4.7093  -4.5222  -3.3684  -3.3630
    -2.0480  -2.0447  -1.6218  -1.1747  -1.1716  -0.5358  -0.4418   1.7684
     1.7695   2.6160   2.6164   2.6257   2.6965   3.0501   3.0956   3.0972
     3.8005   3.8765   4.1207   4.1714   4.1810   4.7743   5.0211   5.2404

          k =-0.1179-0.3536-0.1179 ( 12894 PWs)   bands (ev):

    -7.0524  -5.5700  -4.9370  -4.9328  -4.7090  -4.5192  -3.3685  -3.3636
    -2.0488  -2.0429  -1.6286  -1.1737  -1.1664  -0.5372  -0.4424   1.7678
     1.7712   2.6135   2.6176   2.6267   2.6952   3.0529   3.0961   3.1017
     3.8024   3.8725   4.1241   4.1694   4.1724   4.7799   5.0259   5.2330

          k =-0.2357 0.4714-0.4714 ( 12908 PWs)   bands (ev):

    -6.6261  -6.2460  -5.0934  -4.8102  -4.8045  -4.0310  -3.8636  -3.8574
    -1.6639  -1.5892  -1.5889  -0.7899  -0.7881  -0.1539   1.0314   1.5505
     1.5543   1.6122   2.1244   2.3647   2.3655   2.6229   3.0069   3.0073
     3.4110   3.5466   3.5540   3.6507   4.0556   4.6807   4.8895   5.1273

          k = 0.2357-0.4714-0.4714 ( 12908 PWs)   bands (ev):

    -6.6264  -6.2468  -5.0939  -4.8082  -4.8024  -4.0350  -3.8617  -3.8554
    -1.6565  -1.5938  -1.5935  -0.7969  -0.7953  -0.1523   1.0375   1.5554
     1.5588   1.6149   2.1277   2.3657   2.3666   2.6278   3.0049   3.0051
     3.4052   3.5517   3.5592   3.6443   4.0580   4.6723   4.8951   5.1167

          k = 0.4714 0.2357 0.4714 ( 12908 PWs)   bands (ev):

    -6.6264  -6.2466  -5.0931  -4.8086  -4.8040  -4.0317  -3.8615  -3.8572
    -1.6634  -1.5950  -1.5885  -0.7968  -0.7893  -0.1557   1.0365   1.5549
     1.5574   1.6154   2.1289   2.3657   2.3703   2.6280   3.0029   3.0072
     3.4080   3.5493   3.5524   3.6473   4.0546   4.6770   4.8885   5.1226

          k =-0.1179 0.3536-0.3536 ( 12892 PWs)   bands (ev):

    -6.7894  -6.0300  -5.3005  -4.5228  -4.5174  -4.2549  -4.2479  -3.4779
    -1.9537  -1.5856  -1.5827  -0.7858  -0.7853  -0.3957   0.5105   1.2590
     2.0845   2.0917   2.1313   2.1324   2.6662   2.9920   2.9979   3.2320
     3.2460   3.5326   3.5336   3.8713   4.3969   4.4412   4.5017   5.4878

          k = 0.1179-0.3536-0.3536 ( 12892 PWs)   bands (ev):

    -6.7897  -6.0306  -5.3015  -4.5210  -4.5156  -4.2523  -4.2454  -3.4826
    -1.9470  -1.5921  -1.5891  -0.7919  -0.7913  -0.3923   0.5141   1.2626
     2.0915   2.0984   2.1332   2.1342   2.6739   2.9956   3.0015   3.2264
     3.2504   3.5291   3.5301   3.8646   4.3978   4.4332   4.5069   5.4759

          k = 0.3536 0.1179 0.3536 ( 12892 PWs)   bands (ev):

    -6.7896  -6.0307  -5.3004  -4.5217  -4.5168  -4.2518  -4.2482  -3.4791
    -1.9525  -1.5911  -1.5841  -0.7926  -0.7854  -0.3969   0.5149   1.2619
     2.0916   2.0929   2.1335   2.1366   2.6718   2.9934   2.9968   3.2291
     3.2512   3.5283   3.5330   3.8676   4.3949   4.4380   4.5014   5.4822

          k =-0.0000 0.2357-0.2357 ( 12901 PWs)   bands (ev):

    -7.1526  -5.3366  -5.3278  -4.5613  -4.5540  -4.0736  -4.0684  -2.9555
    -2.5131  -1.7299  -1.7256  -1.3237  -1.3213  -0.8786  -0.8719   1.6611
     2.4504   2.4523   2.6577   2.6636   2.9421   3.0493   3.0585   4.0711
     4.0725   4.1636   4.1712   4.1730   4.3287   4.3402   4.9673   5.7413

          k = 0.0000-0.2357-0.2357 ( 12901 PWs)   bands (ev):

    -7.1528  -5.3381  -5.3293  -4.5583  -4.5510  -4.0722  -4.0671  -2.9636
    -2.5044  -1.7367  -1.7322  -1.3271  -1.3247  -0.8740  -0.8672   1.6657
     2.4505   2.4525   2.6603   2.6663   2.9370   3.0572   3.0663   4.0663
     4.0676   4.1734   4.1773   4.1778   4.3207   4.3322   4.9661   5.7283

          k = 0.4714 0.0000 0.0000 ( 12907 PWs)   bands (ev):

    -6.8843  -5.3057  -5.0829  -5.0808  -5.0771  -5.0748  -2.6721  -2.6673
    -2.6672  -2.6624  -0.7760  -0.7736  -0.7689  -0.7664   0.3481   1.8877
     1.8878   1.8878   1.8880   2.5599   2.5616   2.5629   2.5647   3.2121
     3.2175   3.6780   4.4396   4.4484   4.4506   4.4585   4.5856   4.5936

          k =-0.1179 0.5893-0.5893 ( 12907 PWs)   bands (ev):

    -6.5210  -5.7750  -5.7344  -5.0657  -5.0601  -4.4519  -3.2476  -3.2415
    -2.0540  -2.0511  -1.1091  -0.3873  -0.3859   0.5141   1.0034   1.4010
     1.4024   1.4799   2.0421   2.0459   2.2676   2.2689   2.4633   2.7269
     3.3070   3.5342   3.9887   4.0639   4.0741   4.2169   4.2189   4.8592

          k = 0.1179-0.5893-0.5893 ( 12907 PWs)   bands (ev):

    -6.5211  -5.7763  -5.7345  -5.0636  -5.0580  -4.4552  -3.2462  -3.2402
    -2.0563  -2.0535  -1.1007  -0.3954  -0.3941   0.5221   1.0039   1.4035
     1.4049   1.4809   2.0419   2.0457   2.2660   2.2672   2.4645   2.7270
     3.3126   3.5283   3.9816   4.0721   4.0818   4.2118   4.2230   4.8496

          k = 0.5893 0.1179 0.5893 ( 12907 PWs)   bands (ev):

    -6.5211  -5.7758  -5.7344  -5.0642  -5.0595  -4.4531  -3.2458  -3.2416
    -2.0568  -2.0510  -1.1066  -0.3947  -0.3870   0.5195   1.0017   1.4025
     1.4046   1.4818   2.0426   2.0463   2.2650   2.2688   2.4667   2.7255
     3.3122   3.5313   3.9851   4.0710   4.0743   4.2142   4.2175   4.8547

          k = 0.0000 0.4714-0.4714 ( 12878 PWs)   bands (ev):

    -6.3670  -5.9828  -5.9735  -4.8788  -4.8733  -3.7832  -3.7769  -3.7712
    -1.7088  -1.7082  -1.6336  -0.3603  -0.3600   0.9904   0.9959   1.0344
     1.4815   1.4865   1.7943   1.9769   1.9809   2.8661   2.8679   3.2770
     3.3709   3.3802   3.5537   3.7287   3.7332   3.9642   3.9759   5.2569

          k = 0.0000-0.4714-0.4714 ( 12878 PWs)   bands (ev):

    -6.3678  -5.9831  -5.9738  -4.8769  -4.8714  -3.7874  -3.7758  -3.7687
    -1.7140  -1.7133  -1.6248  -0.3683  -0.3681   0.9927   0.9981   1.0363
     1.4872   1.4920   1.8039   1.9775   1.9814   2.8631   2.8648   3.2755
     3.3781   3.3872   3.5475   3.7336   3.7384   3.9576   3.9691   5.2459

          k =-0.7071 0.0000 0.0000 ( 12896 PWs)   bands (ev):

    -6.2251  -6.2157  -5.1523  -5.1503  -5.1468  -5.1447  -2.6224  -2.6174
    -2.6174  -2.6123  -0.1858  -0.1849  -0.1768  -0.1758   1.6602   1.6607
     1.6608   1.6615   1.7761   1.7769   1.7806   1.7812   2.0254   2.0286
     3.8009   3.8073   3.8127   3.8188   4.4092   4.4172   4.4194   4.4278

          k =-0.2357 0.4714-0.7071 ( 12905 PWs)   bands (ev):

    -6.7542  -5.6296  -5.6283  -5.1952  -4.4037  -4.4003  -3.8302  -3.1914
    -2.1729  -1.4858  -1.3805  -1.3728   0.0535   0.0601   0.1503   1.2164
     1.7534   1.9588   1.9604   2.4362   2.7741   2.8369   2.9075   3.2329
     3.2391   3.2410   3.7192   3.7261   4.1266   4.4442   4.4529   5.1125

          k = 0.7071 0.2357 0.4714 ( 12905 PWs)   bands (ev):

    -6.7543  -5.6338  -5.6247  -5.1948  -4.4050  -4.3972  -3.8287  -3.1948
    -2.1685  -1.4889  -1.3815  -1.3772   0.0553   0.0615   0.1476   1.2182
     1.7531   1.9589   1.9658   2.4385   2.7746   2.8340   2.9122   3.2330
     3.2395   3.2418   3.7197   3.7231   4.1260   4.4455   4.4504   5.1070

          k =-0.7071 0.2357-0.4714 ( 12905 PWs)   bands (ev):

    -6.7540  -5.6332  -5.6240  -5.1957  -4.4069  -4.3991  -3.8316  -3.1879
    -2.1772  -1.4826  -1.3761  -1.3719   0.0518   0.0583   0.1530   1.2146
     1.7537   1.9533   1.9602   2.4338   2.7738   2.8396   2.9027   3.2308
     3.2374   3.2437   3.7223   3.7257   4.1274   4.4466   4.4515   5.1180

          k =-0.1179 0.3536-0.5893 ( 12886 PWs)   bands (ev):

    -6.2718  -6.2665  -5.5074  -5.5018  -4.1800  -4.1771  -3.7809  -3.7757
    -1.6757  -1.6692  -1.2297  -1.2223   0.3914   0.3967   1.2282   1.2331
     1.5140   1.5193   1.5894   1.5916   2.7586   2.7601   3.0056   3.0103
     3.2272   3.2306   3.5399   3.5410   3.7842   3.7905   4.8090   4.8180

          k = 0.1179-0.3536-0.5893 ( 12886 PWs)   bands (ev):

    -6.2723  -6.2669  -5.5070  -5.5014  -4.1779  -4.1750  -3.7824  -3.7772
    -1.6735  -1.6668  -1.2352  -1.2279   0.3885   0.3938   1.2309   1.2356
     1.5191   1.5241   1.5911   1.5937   2.7596   2.7611   3.0075   3.0122
     3.2235   3.2271   3.5390   3.5403   3.7867   3.7932   4.8040   4.8128

          k = 0.3536 0.5893 0.1179 ( 12886 PWs)   bands (ev):

    -6.2721  -6.2669  -5.5066  -5.5018  -4.1824  -4.1737  -3.7811  -3.7750
    -1.6757  -1.6709  -1.2303  -1.2246   0.3869   0.3947   1.2313   1.2342
     1.5183   1.5234   1.5887   1.5948   2.7605   2.7644   3.0043   3.0113
     3.2254   3.2297   3.5330   3.5428   3.7865   3.7884   4.8099   4.8132

          k =-0.7071-0.2357 0.0000 ( 12912 PWs)   bands (ev):

    -6.1021  -6.0927  -5.7345  -5.7332  -4.3824  -4.3791  -3.5062  -3.4992
    -1.7974  -1.7947  -1.0125  -1.0038   0.7046   0.7136   1.2634   1.2645
     1.3304   1.3308   1.5709   1.5733   2.5089   2.5101   2.5165   2.5191
     3.3473   3.3508   3.6062   3.6131   4.1047   4.1081   4.4879   4.4970

          k = 0.0000 0.7071-0.2357 ( 12912 PWs)   bands (ev):

    -6.0977  -6.0971  -5.7385  -5.7293  -4.3849  -4.3766  -3.5051  -3.5003
    -1.8000  -1.7919  -1.0086  -1.0078   0.7084   0.7099   1.2628   1.2649
     1.3295   1.3317   1.5684   1.5761   2.5060   2.5102   2.5163   2.5220
     3.3486   3.3498   3.6076   3.6118   4.1023   4.1104   4.4904   4.4944

     highest occupied level (ev):     5.8706

!    total energy              =    -126.14951544 Ry
     estimated scf accuracy    <          9.3E-09 Ry

     convergence has been achieved in   2 iterations

     Using ACE for calculation of exact exchange
     ACE projected onto    32 (nbndproj) and applied to    32 (nbnd) bands

     total energy              =    -126.14951546 Ry
     Harris-Foulkes estimate   =    -126.14951547 Ry
     est. exchange err (dexx)  =       0.00000003 Ry
     - averaged Fock potential =      13.38211616 Ry
     + Fock energy (ACE)       =      -6.69111540 Ry

     EXX: now go back to refine exchange calculation

     total cpu time spent up to now is    91952.2 secs

     per-process dynamical memory:  4154.9 Mb

     Self-consistent Calculation

     iteration #  1     ecut=    50.00 Ry     beta= 0.70
     Davidson diagonalization with overlap
     ethr =  3.51E-11,  avg # of iterations =  3.2

     total cpu time spent up to now is    91955.5 secs

     total energy              =    -126.14951545 Ry
     estimated scf accuracy    <       0.00000004 Ry

     iteration #  2     ecut=    50.00 Ry     beta= 0.70
     Davidson diagonalization with overlap
     ethr =  5.87E-11,  avg # of iterations =  3.0

     total cpu time spent up to now is    91958.6 secs

     total energy              =    -126.14951546 Ry
     estimated scf accuracy    <       0.00000006 Ry

     iteration #  3     ecut=    50.00 Ry     beta= 0.70
     Davidson diagonalization with overlap
     ethr =  5.87E-11,  avg # of iterations =  2.0

     total cpu time spent up to now is    91961.2 secs

     End of self-consistent calculation

          k = 0.0000 0.0000 0.0000 ( 12939 PWs)   bands (ev):

    -7.4209  -4.8308  -4.8277  -4.8234  -4.8203  -2.8121  -2.8076  -2.8032
    -2.8032  -2.7988  -2.7943  -1.8628  -1.8579  -1.8563  -1.8513   2.7190
     2.7229   2.7232   2.7232   2.7236   2.7274   4.5370   4.5457   4.5478
     4.5485   4.5495   4.5502   4.5523   4.5609   5.8569   5.8636   5.8705

          k =-0.1179 0.1179-0.1179 ( 12939 PWs)   bands (ev):

    -7.3200  -5.1986  -4.7894  -4.7824  -4.7820  -3.4764  -3.4691  -3.4685
    -2.0605  -2.0531  -2.0523  -1.7436  -1.7392  -1.7343  -1.2902   2.3854
     2.3896   2.3897   2.8077   2.8089   2.8120   3.9383   3.9449   3.9468
     4.3588   4.3593   4.3644   4.6036   4.6110   4.9641   5.7135   5.7221

          k =-0.2357 0.2357-0.2357 ( 12885 PWs)   bands (ev):

    -7.0204  -5.8912  -4.6541  -4.6469  -4.6467  -4.0114  -4.0042  -4.0037
    -1.4494  -1.4441  -1.4403  -1.4027  -1.3959  -1.3939  -0.0170   1.8983
     1.9024   1.9028   2.8565   2.8629   2.8636   3.0572   3.0584   3.0617
     3.2970   3.9227   3.9235   3.9279   4.7732   4.7804   5.3865   5.3945

          k = 0.3536-0.3536 0.3536 ( 12938 PWs)   bands (ev):

    -6.5360  -6.5308  -4.4072  -4.3992  -4.3968  -4.3952  -4.3915  -4.3893
    -1.2022  -1.1952  -1.1941  -1.1936  -1.1876  -1.1819   1.5642   1.5685
     2.0073   2.0156   2.0184   2.0194   2.0210   2.0211   3.4458   3.4466
     3.4476   3.4498   3.4500   3.4585   5.0438   5.0455   5.0460   5.0593

          k = 0.0000 0.2357 0.0000 ( 12951 PWs)   bands (ev):

    -7.2862  -4.9254  -4.9215  -4.9173  -4.9135  -4.1573  -2.7669  -2.7600
    -2.7600  -2.7530  -1.5464  -1.5405  -1.5394  -1.5337  -1.2835   2.4035
     2.4058   2.4081   2.4103   2.8474   2.8474   3.8341   3.8400   3.8423
     3.8480   4.5113   4.5138   4.5152   4.5177   5.1414   5.4192   5.4194

          k =-0.1179 0.3536-0.1179 ( 12894 PWs)   bands (ev):

    -7.0523  -5.5688  -4.9371  -4.9327  -4.7095  -4.5219  -3.3688  -3.3640
    -2.0479  -2.0421  -1.6222  -1.1733  -1.1660  -0.5349  -0.4469   1.7650
     1.7685   2.6157   2.6191   2.6227   2.6927   3.0531   3.0926   3.0982
     3.7957   3.8769   4.1251   4.1729   4.1759   4.7784   5.0254   5.2416

          k = 0.4714-0.2357 0.4714 ( 12908 PWs)   bands (ev):

    -6.6260  -6.2461  -5.0941  -4.8087  -4.8040  -4.0344  -3.8617  -3.8575
    -1.6572  -1.5942  -1.5873  -0.7959  -0.7884  -0.1504   1.0325   1.5520
     1.5547   1.6115   2.1233   2.3612   2.3656   2.6226   3.0048   3.0089
     3.4084   3.5532   3.5564   3.6478   4.0590   4.6761   4.8961   5.1213

          k = 0.3536-0.1179 0.3536 ( 12892 PWs)   bands (ev):

    -6.7895  -6.0298  -5.3017  -4.5217  -4.5168  -4.2519  -4.2483  -3.4814
    -1.9483  -1.5906  -1.5835  -0.7918  -0.7846  -0.3910   0.5097   1.2598
     2.0893   2.0915   2.1298   2.1323   2.6682   2.9967   3.0001   3.2293
     3.2453   3.5297   3.5343   3.8685   4.3989   4.4368   4.5078   5.4815

          k = 0.2357-0.0000 0.2357 ( 12901 PWs)   bands (ev):

    -7.1527  -5.3338  -5.3321  -4.5577  -4.5545  -4.0728  -4.0677  -2.9596
    -2.5088  -1.7344  -1.7276  -1.3274  -1.3210  -0.8757  -0.8701   1.6635
     2.4509   2.4518   2.6602   2.6637   2.9397   3.0574   3.0583   4.0666
     4.0716   4.1668   4.1730   4.1784   4.3298   4.3313   4.9667   5.7347

          k = 0.0000 0.4714 0.0000 ( 12907 PWs)   bands (ev):

    -6.8842  -5.3056  -5.0855  -5.0809  -5.0768  -5.0723  -2.6740  -2.6673
    -2.6672  -2.6604  -0.7779  -0.7720  -0.7704  -0.7645   0.3481   1.8844
     1.8868   1.8888   1.8912   2.5562   2.5613   2.5632   2.5683   3.2148
     3.2149   3.6780   4.4456   4.4489   4.4501   4.4533   4.5891   4.5892

          k = 0.5893-0.1179 0.5893 ( 12907 PWs)   bands (ev):

    -6.5209  -5.7754  -5.7347  -5.0642  -5.0595  -4.4540  -3.2460  -3.2418
    -2.0563  -2.0505  -1.1032  -0.3943  -0.3866   0.5167   1.0055   1.4011
     1.4034   1.4792   2.0414   2.0451   2.2660   2.2698   2.4611   2.7284
     3.3075   3.5316   3.9854   4.0719   4.0752   4.2148   4.2235   4.8541

          k = 0.4714-0.0000 0.4714 ( 12878 PWs)   bands (ev):

    -6.3674  -5.9786  -5.9780  -4.8775  -4.8726  -3.7858  -3.7747  -3.7710
    -1.7144  -1.7077  -1.6292  -0.3680  -0.3604   0.9913   0.9971   1.0356
     1.4865   1.4873   1.7989   1.9782   1.9802   2.8633   2.8675   3.2760
     3.3776   3.3809   3.5508   3.7300   3.7369   3.9664   3.9671   5.2513

          k = 0.0000-0.7071 0.0000 ( 12896 PWs)   bands (ev):

    -6.2204  -6.2203  -5.1554  -5.1505  -5.1464  -5.1416  -2.6240  -2.6174
    -2.6173  -2.6106  -0.1850  -0.1845  -0.1772  -0.1766   1.6575   1.6599
     1.6616   1.6638   1.7763   1.7784   1.7790   1.7813   2.0270   2.0271
     3.8100   3.8100   3.8101   3.8101   4.4143   4.4178   4.4189   4.4224

          k = 0.4714-0.2357 0.7071 ( 12905 PWs)   bands (ev):

    -6.7541  -5.6293  -5.6285  -5.1952  -4.4030  -4.4010  -3.8301  -3.1913
    -2.1729  -1.4856  -1.3792  -1.3742   0.0544   0.0590   0.1505   1.2165
     1.7532   1.9588   1.9605   2.4361   2.7741   2.8371   2.9074   3.2341
     3.2365   3.2425   3.7219   3.7235   4.1267   4.4471   4.4499   5.1125

          k = 0.3536-0.1179 0.5893 ( 12886 PWs)   bands (ev):

    -6.2717  -6.2666  -5.5070  -5.5023  -4.1813  -4.1726  -3.7830  -3.7770
    -1.6717  -1.6669  -1.2330  -1.2272   0.3905   0.3982   1.2298   1.2327
     1.5149   1.5195   1.5881   1.5945   2.7552   2.7591   3.0066   3.0132
     3.2247   3.2289   3.5375   3.5473   3.7888   3.7907   4.8088   4.8120

          k =-0.2357-0.7071 0.0000 ( 12912 PWs)   bands (ev):

    -6.0974  -6.0973  -5.7339  -5.7338  -4.3807  -4.3807  -3.5027  -3.5026
    -1.7960  -1.7959  -1.0082  -1.0081   0.7091   0.7091   1.2636   1.2639
     1.3307   1.3309   1.5721   1.5722   2.5078   2.5093   2.5180   2.5195
     3.3491   3.3493   3.6096   3.6097   4.1064   4.1064   4.4924   4.4924

          k =-0.1179 0.1179 0.1179 ( 12939 PWs)   bands (ev):

    -7.3200  -5.2006  -4.7862  -4.7857  -4.7788  -3.4738  -3.4732  -3.4659
    -2.0590  -2.0581  -2.0509  -1.7459  -1.7412  -1.7368  -1.2846   2.3889
     2.3890   2.3932   2.8053   2.8084   2.8098   3.9448   3.9467   3.9532
     4.3532   4.3586   4.3593   4.6020   4.6092   4.9712   5.7094   5.7181

          k =-0.2357 0.2357 0.2357 ( 12885 PWs)   bands (ev):

    -7.0206  -5.8922  -4.6508  -4.6507  -4.6435  -4.0085  -4.0081  -4.0008
    -1.4520  -1.4472  -1.4423  -1.4026  -1.4016  -1.3942  -0.0123   1.9030
     1.9035   1.9075   2.8630   2.8637   2.8701   3.0545   3.0579   3.0592
     3.3023   3.9185   3.9229   3.9238   4.7711   4.7785   5.3834   5.3913

          k = 0.3536-0.3536-0.3536 ( 12938 PWs)   bands (ev):

    -6.5365  -6.5312  -4.4030  -4.4008  -4.3971  -4.3955  -4.3931  -4.3851
    -1.2058  -1.2001  -1.1942  -1.1936  -1.1925  -1.1855   1.5690   1.5732
     2.0177   2.0178   2.0194   2.0204   2.0232   2.0318   3.4385   3.4470
     3.4474   3.4494   3.4505   3.4513   5.0357   5.0488   5.0493   5.0512

          k = 0.2357 0.0000 0.0000 ( 12951 PWs)   bands (ev):

    -7.2862  -4.9242  -4.9214  -4.9174  -4.9147  -4.1573  -2.7645  -2.7601
    -2.7600  -2.7555  -1.5452  -1.5412  -1.5388  -1.5346  -1.2836   2.4058
     2.4070   2.4070   2.4081   2.8448   2.8498   3.8382   3.8400   3.8422
     3.8441   4.5045   4.5133   4.5156   4.5243   5.1414   5.4138   5.4247

          k = 0.3536-0.1179 0.1179 ( 12894 PWs)   bands (ev):

    -7.0523  -5.5686  -4.9393  -4.9330  -4.7091  -4.5188  -3.3695  -3.3640
    -2.0463  -2.0429  -1.6290  -1.1681  -1.1648  -0.5361  -0.4477   1.7668
     1.7679   2.6169   2.6174   2.6229   2.6914   3.0553   3.0975   3.0987
     3.7975   3.8731   4.1282   4.1644   4.1738   4.7837   5.0304   5.2340

          k =-0.3536 0.1179 0.1179 ( 12894 PWs)   bands (ev):

    -7.0524  -5.5701  -4.9368  -4.9306  -4.7093  -4.5222  -3.3684  -3.3630
    -2.0480  -2.0447  -1.6217  -1.1747  -1.1716  -0.5358  -0.4418   1.7684
     1.7695   2.6160   2.6164   2.6257   2.6965   3.0501   3.0956   3.0972
     3.8005   3.8765   4.1207   4.1714   4.1809   4.7742   5.0211   5.2404

          k =-0.1179-0.3536-0.1179 ( 12894 PWs)   bands (ev):

    -7.0524  -5.5699  -4.9370  -4.9327  -4.7089  -4.5192  -3.3685  -3.3636
    -2.0487  -2.0429  -1.6285  -1.1736  -1.1664  -0.5372  -0.4424   1.7678
     1.7712   2.6135   2.6176   2.6267   2.6952   3.0529   3.0961   3.1017
     3.8024   3.8725   4.1240   4.1694   4.1724   4.7799   5.0258   5.2329

          k =-0.2357 0.4714-0.4714 ( 12908 PWs)   bands (ev):

    -6.6261  -6.2460  -5.0934  -4.8102  -4.8045  -4.0310  -3.8636  -3.8574
    -1.6639  -1.5892  -1.5888  -0.7899  -0.7881  -0.1539   1.0314   1.5506
     1.5544   1.6123   2.1244   2.3647   2.3655   2.6229   3.0069   3.0073
     3.4110   3.5466   3.5540   3.6507   4.0556   4.6807   4.8895   5.1272

          k = 0.2357-0.4714-0.4714 ( 12908 PWs)   bands (ev):

    -6.6263  -6.2468  -5.0939  -4.8082  -4.8023  -4.0350  -3.8617  -3.8554
    -1.6565  -1.5938  -1.5935  -0.7969  -0.7953  -0.1523   1.0376   1.5554
     1.5588   1.6149   2.1277   2.3658   2.3666   2.6278   3.0049   3.0051
     3.4052   3.5517   3.5592   3.6443   4.0580   4.6723   4.8950   5.1167

          k = 0.4714 0.2357 0.4714 ( 12908 PWs)   bands (ev):

    -6.6264  -6.2466  -5.0931  -4.8086  -4.8040  -4.0317  -3.8615  -3.8572
    -1.6634  -1.5950  -1.5884  -0.7968  -0.7893  -0.1557   1.0365   1.5549
     1.5574   1.6155   2.1289   2.3657   2.3703   2.6280   3.0029   3.0072
     3.4080   3.5493   3.5524   3.6473   4.0546   4.6770   4.8885   5.1225

          k =-0.1179 0.3536-0.3536 ( 12892 PWs)   bands (ev):

    -6.7893  -6.0300  -5.3005  -4.5227  -4.5173  -4.2549  -4.2479  -3.4779
    -1.9537  -1.5856  -1.5827  -0.7858  -0.7853  -0.3956   0.5105   1.2590
     2.0845   2.0917   2.1313   2.1324   2.6662   2.9920   2.9979   3.2320
     3.2460   3.5326   3.5336   3.8713   4.3969   4.4412   4.5017   5.4878

          k = 0.1179-0.3536-0.3536 ( 12892 PWs)   bands (ev):

    -6.7897  -6.0306  -5.3014  -4.5210  -4.5156  -4.2523  -4.2454  -3.4826
    -1.9470  -1.5920  -1.5890  -0.7919  -0.7913  -0.3923   0.5142   1.2626
     2.0916   2.0984   2.1332   2.1342   2.6739   2.9956   3.0015   3.2264
     3.2504   3.5290   3.5301   3.8646   4.3978   4.4332   4.5069   5.4759

          k = 0.3536 0.1179 0.3536 ( 12892 PWs)   bands (ev):

    -6.7896  -6.0306  -5.3003  -4.5216  -4.5167  -4.2518  -4.2482  -3.4791
    -1.9524  -1.5910  -1.5840  -0.7926  -0.7854  -0.3969   0.5149   1.2619
     2.0916   2.0929   2.1335   2.1366   2.6718   2.9934   2.9968   3.2291
     3.2512   3.5283   3.5330   3.8676   4.3949   4.4380   4.5013   5.4822

          k =-0.0000 0.2357-0.2357 ( 12901 PWs)   bands (ev):

    -7.1526  -5.3366  -5.3278  -4.5612  -4.5539  -4.0736  -4.0684  -2.9555
    -2.5131  -1.7299  -1.7256  -1.3236  -1.3213  -0.8786  -0.8718   1.6611
     2.4504   2.4523   2.6577   2.6636   2.9421   3.0493   3.0585   4.0711
     4.0725   4.1636   4.1712   4.1730   4.3287   4.3402   4.9672   5.7413

          k = 0.0000-0.2357-0.2357 ( 12901 PWs)   bands (ev):

    -7.1528  -5.3380  -5.3293  -4.5583  -4.5510  -4.0722  -4.0670  -2.9636
    -2.5044  -1.7367  -1.7322  -1.3271  -1.3246  -0.8740  -0.8672   1.6657
     2.4505   2.4525   2.6603   2.6663   2.9370   3.0572   3.0663   4.0663
     4.0676   4.1734   4.1772   4.1778   4.3207   4.3322   4.9661   5.7282

          k = 0.4714 0.0000 0.0000 ( 12907 PWs)   bands (ev):

    -6.8842  -5.3056  -5.0829  -5.0807  -5.0771  -5.0748  -2.6721  -2.6673
    -2.6672  -2.6624  -0.7759  -0.7735  -0.7689  -0.7664   0.3482   1.8877
     1.8878   1.8879   1.8880   2.5599   2.5616   2.5629   2.5647   3.2121
     3.2175   3.6780   4.4395   4.4484   4.4506   4.4585   4.5856   4.5935

          k =-0.1179 0.5893-0.5893 ( 12907 PWs)   bands (ev):

    -6.5210  -5.7749  -5.7344  -5.0657  -5.0601  -4.4519  -3.2476  -3.2415
    -2.0540  -2.0511  -1.1091  -0.3873  -0.3859   0.5141   1.0034   1.4010
     1.4024   1.4800   2.0421   2.0459   2.2676   2.2689   2.4633   2.7269
     3.3070   3.5342   3.9887   4.0639   4.0741   4.2169   4.2189   4.8592

          k = 0.1179-0.5893-0.5893 ( 12907 PWs)   bands (ev):

    -6.5210  -5.7762  -5.7345  -5.0636  -5.0580  -4.4552  -3.2462  -3.2401
    -2.0562  -2.0534  -1.1006  -0.3953  -0.3940   0.5221   1.0039   1.4035
     1.4049   1.4810   2.0419   2.0457   2.2660   2.2673   2.4645   2.7270
     3.3126   3.5283   3.9816   4.0721   4.0818   4.2118   4.2229   4.8496

          k = 0.5893 0.1179 0.5893 ( 12907 PWs)   bands (ev):

    -6.5211  -5.7757  -5.7344  -5.0642  -5.0594  -4.4530  -3.2458  -3.2416
    -2.0568  -2.0510  -1.1066  -0.3947  -0.3870   0.5195   1.0017   1.4025
     1.4046   1.4818   2.0426   2.0464   2.2650   2.2688   2.4667   2.7255
     3.3122   3.5313   3.9850   4.0709   4.0743   4.2142   4.2175   4.8546

          k = 0.0000 0.4714-0.4714 ( 12878 PWs)   bands (ev):

    -6.3670  -5.9828  -5.9734  -4.8787  -4.8733  -3.7831  -3.7769  -3.7712
    -1.7088  -1.7082  -1.6336  -0.3603  -0.3600   0.9905   0.9959   1.0344
     1.4815   1.4865   1.7944   1.9769   1.9809   2.8661   2.8679   3.2771
     3.3709   3.3802   3.5537   3.7287   3.7332   3.9642   3.9759   5.2569

          k = 0.0000-0.4714-0.4714 ( 12878 PWs)   bands (ev):

    -6.3677  -5.9830  -5.9738  -4.8768  -4.8713  -3.7873  -3.7758  -3.7687
    -1.7140  -1.7132  -1.6248  -0.3683  -0.3681   0.9927   0.9981   1.0363
     1.4873   1.4920   1.8039   1.9775   1.9814   2.8631   2.8648   3.2755
     3.3781   3.3872   3.5475   3.7336   3.7384   3.9576   3.9691   5.2458

          k =-0.7071 0.0000 0.0000 ( 12896 PWs)   bands (ev):

    -6.2251  -6.2156  -5.1523  -5.1502  -5.1468  -5.1447  -2.6224  -2.6174
    -2.6173  -2.6123  -0.1858  -0.1849  -0.1768  -0.1758   1.6602   1.6607
     1.6608   1.6615   1.7761   1.7769   1.7807   1.7813   2.0254   2.0286
     3.8009   3.8073   3.8127   3.8188   4.4091   4.4172   4.4193   4.4277

          k =-0.2357 0.4714-0.7071 ( 12905 PWs)   bands (ev):

    -6.7542  -5.6296  -5.6283  -5.1952  -4.4037  -4.4003  -3.8302  -3.1913
    -2.1729  -1.4857  -1.3805  -1.3728   0.0535   0.0601   0.1503   1.2165
     1.7534   1.9588   1.9604   2.4362   2.7741   2.8369   2.9075   3.2330
     3.2391   3.2410   3.7192   3.7261   4.1266   4.4442   4.4529   5.1125

          k = 0.7071 0.2357 0.4714 ( 12905 PWs)   bands (ev):

    -6.7543  -5.6338  -5.6247  -5.1948  -4.4050  -4.3972  -3.8287  -3.1947
    -2.1685  -1.4889  -1.3815  -1.3772   0.0553   0.0616   0.1476   1.2182
     1.7531   1.9589   1.9658   2.4385   2.7747   2.8340   2.9122   3.2330
     3.2395   3.2418   3.7197   3.7231   4.1260   4.4455   4.4504   5.1070

          k =-0.7071 0.2357-0.4714 ( 12905 PWs)   bands (ev):

    -6.7540  -5.6332  -5.6240  -5.1956  -4.4069  -4.3990  -3.8316  -3.1879
    -2.1771  -1.4825  -1.3760  -1.3718   0.0519   0.0583   0.1530   1.2146
     1.7537   1.9533   1.9602   2.4338   2.7738   2.8396   2.9027   3.2308
     3.2375   3.2437   3.7223   3.7257   4.1274   4.4466   4.4514   5.1180

          k =-0.1179 0.3536-0.5893 ( 12886 PWs)   bands (ev):

    -6.2717  -6.2664  -5.5074  -5.5018  -4.1799  -4.1771  -3.7808  -3.7757
    -1.6757  -1.6692  -1.2297  -1.2223   0.3915   0.3967   1.2283   1.2331
     1.5140   1.5192   1.5894   1.5916   2.7586   2.7601   3.0056   3.0103
     3.2272   3.2306   3.5399   3.5410   3.7842   3.7905   4.8090   4.8179

          k = 0.1179-0.3536-0.5893 ( 12886 PWs)   bands (ev):

    -6.2722  -6.2669  -5.5070  -5.5014  -4.1779  -4.1750  -3.7824  -3.7772
    -1.6734  -1.6668  -1.2352  -1.2279   0.3885   0.3938   1.2310   1.2356
     1.5192   1.5241   1.5911   1.5937   2.7596   2.7611   3.0075   3.0122
     3.2235   3.2271   3.5390   3.5403   3.7867   3.7932   4.8040   4.8128

          k = 0.3536 0.5893 0.1179 ( 12886 PWs)   bands (ev):

    -6.2720  -6.2668  -5.5066  -5.5018  -4.1824  -4.1737  -3.7811  -3.7750
    -1.6756  -1.6709  -1.2303  -1.2246   0.3869   0.3947   1.2313   1.2342
     1.5184   1.5234   1.5887   1.5949   2.7605   2.7645   3.0043   3.0113
     3.2254   3.2297   3.5330   3.5428   3.7865   3.7884   4.8098   4.8131

          k =-0.7071-0.2357 0.0000 ( 12912 PWs)   bands (ev):

    -6.1020  -6.0927  -5.7344  -5.7332  -4.3823  -4.3791  -3.5062  -3.4992
    -1.7973  -1.7947  -1.0125  -1.0037   0.7046   0.7136   1.2634   1.2645
     1.3304   1.3308   1.5709   1.5733   2.5089   2.5101   2.5166   2.5191
     3.3473   3.3508   3.6061   3.6131   4.1047   4.1081   4.4878   4.4970

          k = 0.0000 0.7071-0.2357 ( 12912 PWs)   bands (ev):

    -6.0976  -6.0971  -5.7384  -5.7292  -4.3849  -4.3766  -3.5051  -3.5002
    -1.8000  -1.7919  -1.0085  -1.0078   0.7084   0.7099   1.2628   1.2649
     1.3295   1.3317   1.5684   1.5761   2.5060   2.5102   2.5163   2.5220
     3.3486   3.3498   3.6076   3.6117   4.1023   4.1104   4.4904   4.4944

     highest occupied level (ev):     5.8705

!    total energy              =    -126.14951547 Ry
     estimated scf accuracy    <          2.1E-10 Ry

     convergence has been achieved in   3 iterations

     Using ACE for calculation of exact exchange
     ACE projected onto    32 (nbndproj) and applied to    32 (nbnd) bands

!!   total energy              =    -126.14951548 Ry
     Harris-Foulkes estimate   =    -126.14951548 Ry
     est. exchange err (dexx)  =          2.1E-09 Ry
     - averaged Fock potential =      13.38225853 Ry
     + Fock energy (ACE)       =      -6.69114313 Ry

     EXX self-consistency reached

     Forces acting on atoms (cartesian axes, Ry/au):

     atom    1 type  1   force =    -0.00144985    0.00092043    0.00092043
     atom    2 type  1   force =     0.00567358    0.00000000    0.00000000
     atom    3 type  1   force =    -0.00146013   -0.00094201    0.00094201
     atom    4 type  1   force =    -0.00018730    0.00000093    0.00019550
     atom    5 type  1   force =    -0.00144985   -0.00092043   -0.00092043
     atom    6 type  1   force =     0.00035713    0.00000000   -0.00000000
     atom    7 type  1   force =    -0.00146013    0.00094201   -0.00094201
     atom    8 type  1   force =    -0.00018730    0.00019550    0.00000093
     atom    9 type  1   force =     0.00005405    0.00005589   -0.00005589
     atom   10 type  1   force =    -0.00018730   -0.00019550   -0.00000093
     atom   11 type  1   force =     0.00005528   -0.00005419   -0.00005419
     atom   12 type  1   force =     0.00036053    0.00000000    0.00000000
     atom   13 type  1   force =     0.00005405   -0.00005589    0.00005589
     atom   14 type  1   force =    -0.00018730   -0.00000093   -0.00019550
     atom   15 type  1   force =     0.00005528    0.00005419    0.00005419
     atom   16 type  1   force =    -0.00004074   -0.00000000    0.00000000

     Total force =     0.006942     Total SCF correction =     0.000030

     Writing all to output data dir ./scratch_runs/atom02_x_minus/si_sup.save/ :
     XML data file, charge density, pseudopotentials, collected wavefunctions
 
     init_run     :      7.96s CPU      8.60s WALL (       1 calls)
     electrons    :     91.27s CPU     95.60s WALL (       7 calls)
     forces       :      0.27s CPU      0.28s WALL (       1 calls)

     Called by init_run:
     aceinit0     :      0.00s CPU      0.00s WALL (       1 calls)
     wfcinit      :      7.76s CPU      8.34s WALL (       1 calls)
     potinit      :      0.08s CPU      0.09s WALL (       1 calls)
     hinit0       :      0.01s CPU      0.05s WALL (       1 calls)

     Called by electrons:
     c_bands      :     80.96s CPU     84.61s WALL (      29 calls)
     sum_band     :      9.75s CPU     10.38s WALL (      29 calls)
     v_of_rho     :      0.48s CPU      0.52s WALL (      29 calls)
     mix_rho      :      0.07s CPU      0.07s WALL (      29 calls)

     Called by c_bands:
     init_us_2    :      3.95s CPU      4.00s WALL (    2760 calls)
     cegterg      :     74.84s CPU     78.44s WALL (    1334 calls)

     Called by *egterg:
     cdiaghg      :      5.47s CPU      5.52s WALL (    5198 calls)
     h_psi        :     65.42s CPU     69.37s WALL (    5612 calls)
     g_psi        :      0.20s CPU      0.20s WALL (    4232 calls)

     Called by h_psi:
     h_psi:calbec :      6.78s CPU      6.93s WALL (    5612 calls)
     vloc_psi     :     48.45s CPU     52.16s WALL (    5612 calls)
     add_vuspsi   :      5.16s CPU      5.21s WALL (    5612 calls)

     General routines
     calbec       :     10.57s CPU     10.82s WALL (   11546 calls)
     fft          :      0.14s CPU      0.21s WALL (     285 calls)
     ffts         :      0.01s CPU      0.01s WALL (      29 calls)
     fftw         :     46.92s CPU     50.80s WALL (  350212 calls)
     fftc         :  57702.04s CPU  60564.23s WALL (******** calls)
     fftcw        :      6.78s CPU      9.07s WALL (   30912 calls)
 
     Parallel routines

     EXX routines
     exx_grid     :      0.04s CPU      0.04s WALL (       1 calls)
     exxinit      :    228.41s CPU    231.57s WALL (       7 calls)
     vexx         : 104436.31s CPU 107611.92s WALL (     322 calls)
     matcalc      :      3.66s CPU      3.76s WALL (    5750 calls)
     aceupdate    :      0.10s CPU      0.10s WALL (     322 calls)
     vexxace      :      4.80s CPU      4.87s WALL (    4830 calls)
     aceinit      : 104437.18s CPU 107612.84s WALL (     322 calls)
 
     PWSCF        :   1d 5h 6m CPU   1d 5h59m WALL

 
   This run was terminated on:  11:59:16  13Jun2026            

=------------------------------------------------------------------------------=
   JOB DONE.
=------------------------------------------------------------------------------=

===== TIMING =====
Job:           atom02_x_minus
Start:         2026-06-12T06:00:04+02:00
End:           2026-06-13T11:59:16+02:00
Duration (s):  107952
Duration (H:M:S): 29:59:12
==================
