
     Program PWSCF v.7.4 starts on  1May2026 at 14: 1:39 

     This program is part of the open-source Quantum ESPRESSO suite
     for quantum simulation of materials; please cite
         "P. Giannozzi et al., J. Phys.:Condens. Matter 21 395502 (2009);
         "P. Giannozzi et al., J. Phys.:Condens. Matter 29 465901 (2017);
         "P. Giannozzi et al., J. Chem. Phys. 152 154105 (2020);
          URL http://www.quantum-espresso.org", 
     in publications or presentations arising from this work. More details at
     http://www.quantum-espresso.org/quote

     Parallel version (MPI), running on    12 processors

     MPI processes distributed on     1 nodes
     31301 MiB available memory on the printing compute node when the environment starts
 
     Reading input from si_sup.scf.in

     Current dimensions of program PWSCF are:
     Max number of different atomic species (ntypx) = 10
     Max number of k-points (npk) =  40000
     Max angular momentum in pseudopotentials (lmaxx) =  4
     Found identity + (  0.0000  0.0000  0.1667) symmetry
     This is a supercell, fractional translations are disabled
     Message from routine setup:
     using ibrav=0 with symmetry is DISCOURAGED, use correct ibrav instead
 
     R & G space division:  proc/nbgrp/npool/nimage =      12
     Subspace diagonalization in iterative solution of the eigenvalue problem:
     one sub-group per band group will be used
     custom distributed-memory algorithm (size of sub-group:  3*  3 procs)

 
     Parallelization info
     --------------------
     sticks:   dense  smooth     PW     G-vecs:    dense   smooth      PW
     Min        1504    1504    389               133320   133320   17566
     Max        1505    1505    390               133323   133323   17571
     Sum       18049   18049   4675              1599847  1599847  210823
 
     Using Slab Decomposition
 


     bravais-lattice index     =            0
     lattice parameter (alat)  =      43.2443  a.u.
     unit-cell volume          =   57183.5368 (a.u.)^3
     number of atoms/cell      =          432
     number of atomic types    =            1
     number of electrons       =      1728.00
     number of Kohn-Sham states=          864
     kinetic-energy cutoff     =      35.0000  Ry
     charge density cutoff     =     140.0000  Ry
     scf convergence threshold =      1.0E-12
     mixing beta               =       0.7000
     number of iterations used =            8  plain     mixing
     Exchange-correlation= SLA  PW   NOGX NOGC
                           (   1   4   0   0   0   0   0)

     celldm(1)=  43.244280  celldm(2)=   0.000000  celldm(3)=   0.000000
     celldm(4)=   0.000000  celldm(5)=   0.000000  celldm(6)=   0.000000

     crystal axes: (cart. coord. in units of alat)
               a(1) = (  -0.707107   0.000000   0.707107 )  
               a(2) = (   0.000000   0.707107   0.707107 )  
               a(3) = (  -0.707107   0.707107   0.000000 )  

     reciprocal axes: (cart. coord. in units 2 pi/alat)
               b(1) = ( -0.707107 -0.707107  0.707107 )  
               b(2) = (  0.707107  0.707107  0.707107 )  
               b(3) = ( -0.707107  0.707107 -0.707107 )  


     PseudoPot. # 1 for Si read from file:
     ./Si.upf
     MD5 check sum: 9e2d726316af3d4752eea8ab0afbb951
     Pseudo is Norm-conserving + core correction, Zval =  4.0
     Generated using ONCVPSP code by D. R. Hamann
     Using radial grid of 1510 points,  6 beta functions with: 
                l(1) =   0
                l(2) =   0
                l(3) =   1
                l(4) =   1
                l(5) =   2
                l(6) =   2

     atomic species   valence    mass     pseudopotential
     Si                4.00    28.08600     Si( 1.00)

     24 Sym. Ops. (no inversion) found



   Cartesian axes

     site n.     atom                  positions (alat units)
         1        Si     tau(   1) = (   0.0000000   0.0000000   0.0000000  )
         2        Si     tau(   2) = (  -0.0589260   0.0589260   0.0589260  )
         3        Si     tau(   3) = (  -0.1178514   0.1178514   0.0000000  )
         4        Si     tau(   4) = (  -0.1767767   0.1767767   0.0589260  )
         5        Si     tau(   5) = (  -0.2357020   0.2357020   0.0000000  )
         6        Si     tau(   6) = (  -0.2946281   0.2946281   0.0589260  )
         7        Si     tau(   7) = (  -0.3535534   0.3535534   0.0000000  )
         8        Si     tau(   8) = (  -0.4124794   0.4124794   0.0589260  )
         9        Si     tau(   9) = (  -0.4714048   0.4714048   0.0000000  )
        10        Si     tau(  10) = (  -0.5303301   0.5303301   0.0589260  )
        11        Si     tau(  11) = (  -0.5892554   0.5892554   0.0000000  )
        12        Si     tau(  12) = (  -0.6481815   0.6481815   0.0589260  )
        13        Si     tau(  13) = (   0.0000000   0.1178514   0.1178514  )
        14        Si     tau(  14) = (  -0.0589260   0.1767767   0.1767767  )
        15        Si     tau(  15) = (  -0.1178514   0.2357027   0.1178514  )
        16        Si     tau(  16) = (  -0.1767767   0.2946274   0.1767767  )
        17        Si     tau(  17) = (  -0.2357020   0.3535534   0.1178514  )
        18        Si     tau(  18) = (  -0.2946281   0.4124787   0.1767767  )
        19        Si     tau(  19) = (  -0.3535534   0.4714048   0.1178514  )
        20        Si     tau(  20) = (  -0.4124794   0.5303301   0.1767767  )
        21        Si     tau(  21) = (  -0.4714048   0.5892561   0.1178514  )
        22        Si     tau(  22) = (  -0.5303301   0.6481807   0.1767767  )
        23        Si     tau(  23) = (  -0.5892554   0.7071068   0.1178514  )
        24        Si     tau(  24) = (  -0.6481815   0.7660321   0.1767767  )
        25        Si     tau(  25) = (   0.0000000   0.2357020   0.2357020  )
        26        Si     tau(  26) = (  -0.0589260   0.2946281   0.2946281  )
        27        Si     tau(  27) = (  -0.1178514   0.3535534   0.2357020  )
        28        Si     tau(  28) = (  -0.1767767   0.4124787   0.2946281  )
        29        Si     tau(  29) = (  -0.2357020   0.4714040   0.2357020  )
        30        Si     tau(  30) = (  -0.2946281   0.5303301   0.2946281  )
        31        Si     tau(  31) = (  -0.3535534   0.5892554   0.2357020  )
        32        Si     tau(  32) = (  -0.4124794   0.6481815   0.2946281  )
        33        Si     tau(  33) = (  -0.4714048   0.7071068   0.2357020  )
        34        Si     tau(  34) = (  -0.5303301   0.7660321   0.2946281  )
        35        Si     tau(  35) = (  -0.5892554   0.8249574   0.2357020  )
        36        Si     tau(  36) = (  -0.6481815   0.8838835   0.2946281  )
        37        Si     tau(  37) = (   0.0000000   0.3535534   0.3535534  )
        38        Si     tau(  38) = (  -0.0589260   0.4124794   0.4124794  )
        39        Si     tau(  39) = (  -0.1178514   0.4714048   0.3535534  )
        40        Si     tau(  40) = (  -0.1767767   0.5303301   0.4124794  )
        41        Si     tau(  41) = (  -0.2357020   0.5892554   0.3535534  )
        42        Si     tau(  42) = (  -0.2946281   0.6481815   0.4124794  )
        43        Si     tau(  43) = (  -0.3535534   0.7071068   0.3535534  )
        44        Si     tau(  44) = (  -0.4124794   0.7660328   0.4124794  )
        45        Si     tau(  45) = (  -0.4714048   0.8249581   0.3535534  )
        46        Si     tau(  46) = (  -0.5303301   0.8838835   0.4124794  )
        47        Si     tau(  47) = (  -0.5892554   0.9428088   0.3535534  )
        48        Si     tau(  48) = (  -0.6481815   1.0017348   0.4124794  )
        49        Si     tau(  49) = (   0.0000000   0.4714048   0.4714048  )
        50        Si     tau(  50) = (  -0.0589260   0.5303301   0.5303301  )
        51        Si     tau(  51) = (  -0.1178514   0.5892561   0.4714048  )
        52        Si     tau(  52) = (  -0.1767767   0.6481807   0.5303301  )
        53        Si     tau(  53) = (  -0.2357020   0.7071068   0.4714048  )
        54        Si     tau(  54) = (  -0.2946281   0.7660321   0.5303301  )
        55        Si     tau(  55) = (  -0.3535534   0.8249581   0.4714048  )
        56        Si     tau(  56) = (  -0.4124794   0.8838835   0.5303301  )
        57        Si     tau(  57) = (  -0.4714048   0.9428095   0.4714048  )
        58        Si     tau(  58) = (  -0.5303301   1.0017341   0.5303301  )
        59        Si     tau(  59) = (  -0.5892554   1.0606602   0.4714048  )
        60        Si     tau(  60) = (  -0.6481815   1.1195855   0.5303301  )
        61        Si     tau(  61) = (   0.0000000   0.5892554   0.5892554  )
        62        Si     tau(  62) = (  -0.0589260   0.6481815   0.6481815  )
        63        Si     tau(  63) = (  -0.1178514   0.7071068   0.5892554  )
        64        Si     tau(  64) = (  -0.1767767   0.7660321   0.6481815  )
        65        Si     tau(  65) = (  -0.2357020   0.8249574   0.5892554  )
        66        Si     tau(  66) = (  -0.2946281   0.8838835   0.6481815  )
        67        Si     tau(  67) = (  -0.3535534   0.9428088   0.5892554  )
        68        Si     tau(  68) = (  -0.4124794   1.0017348   0.6481815  )
        69        Si     tau(  69) = (  -0.4714048   1.0606602   0.5892554  )
        70        Si     tau(  70) = (  -0.5303301   1.1195855   0.6481815  )
        71        Si     tau(  71) = (  -0.5892554   1.1785108   0.5892554  )
        72        Si     tau(  72) = (  -0.6481815   1.2374369   0.6481815  )
        73        Si     tau(  73) = (  -0.1178514   0.0000000   0.1178514  )
        74        Si     tau(  74) = (  -0.1767767   0.0589260   0.1767767  )
        75        Si     tau(  75) = (  -0.2357027   0.1178514   0.1178514  )
        76        Si     tau(  76) = (  -0.2946274   0.1767767   0.1767767  )
        77        Si     tau(  77) = (  -0.3535534   0.2357020   0.1178514  )
        78        Si     tau(  78) = (  -0.4124787   0.2946281   0.1767767  )
        79        Si     tau(  79) = (  -0.4714048   0.3535534   0.1178514  )
        80        Si     tau(  80) = (  -0.5303301   0.4124794   0.1767767  )
        81        Si     tau(  81) = (  -0.5892561   0.4714048   0.1178514  )
        82        Si     tau(  82) = (  -0.6481807   0.5303301   0.1767767  )
        83        Si     tau(  83) = (  -0.7071068   0.5892554   0.1178514  )
        84        Si     tau(  84) = (  -0.7660321   0.6481815   0.1767767  )
        85        Si     tau(  85) = (  -0.1178514   0.1178514   0.2357027  )
        86        Si     tau(  86) = (  -0.1767767   0.1767767   0.2946274  )
        87        Si     tau(  87) = (  -0.2357027   0.2357027   0.2357027  )
        88        Si     tau(  88) = (  -0.2946274   0.2946274   0.2946274  )
        89        Si     tau(  89) = (  -0.3535534   0.3535534   0.2357027  )
        90        Si     tau(  90) = (  -0.4124787   0.4124787   0.2946274  )
        91        Si     tau(  91) = (  -0.4714048   0.4714048   0.2357027  )
        92        Si     tau(  92) = (  -0.5303301   0.5303301   0.2946274  )
        93        Si     tau(  93) = (  -0.5892561   0.5892561   0.2357027  )
        94        Si     tau(  94) = (  -0.6481807   0.6481807   0.2946274  )
        95        Si     tau(  95) = (  -0.7071068   0.7071068   0.2357027  )
        96        Si     tau(  96) = (  -0.7660321   0.7660321   0.2946274  )
        97        Si     tau(  97) = (  -0.1178514   0.2357020   0.3535534  )
        98        Si     tau(  98) = (  -0.1767767   0.2946281   0.4124787  )
        99        Si     tau(  99) = (  -0.2357027   0.3535534   0.3535534  )
       100        Si     tau( 100) = (  -0.2946274   0.4124787   0.4124787  )
       101        Si     tau( 101) = (  -0.3535534   0.4714040   0.3535534  )
       102        Si     tau( 102) = (  -0.4124787   0.5303301   0.4124787  )
       103        Si     tau( 103) = (  -0.4714048   0.5892554   0.3535534  )
       104        Si     tau( 104) = (  -0.5303301   0.6481815   0.4124787  )
       105        Si     tau( 105) = (  -0.5892561   0.7071068   0.3535534  )
       106        Si     tau( 106) = (  -0.6481807   0.7660321   0.4124787  )
       107        Si     tau( 107) = (  -0.7071068   0.8249574   0.3535534  )
       108        Si     tau( 108) = (  -0.7660321   0.8838835   0.4124787  )
       109        Si     tau( 109) = (  -0.1178514   0.3535534   0.4714048  )
       110        Si     tau( 110) = (  -0.1767767   0.4124794   0.5303301  )
       111        Si     tau( 111) = (  -0.2357027   0.4714048   0.4714048  )
       112        Si     tau( 112) = (  -0.2946274   0.5303301   0.5303301  )
       113        Si     tau( 113) = (  -0.3535534   0.5892554   0.4714048  )
       114        Si     tau( 114) = (  -0.4124787   0.6481815   0.5303301  )
       115        Si     tau( 115) = (  -0.4714048   0.7071068   0.4714048  )
       116        Si     tau( 116) = (  -0.5303301   0.7660328   0.5303301  )
       117        Si     tau( 117) = (  -0.5892561   0.8249581   0.4714048  )
       118        Si     tau( 118) = (  -0.6481807   0.8838835   0.5303301  )
       119        Si     tau( 119) = (  -0.7071068   0.9428088   0.4714048  )
       120        Si     tau( 120) = (  -0.7660321   1.0017348   0.5303301  )
       121        Si     tau( 121) = (  -0.1178514   0.4714048   0.5892561  )
       122        Si     tau( 122) = (  -0.1767767   0.5303301   0.6481807  )
       123        Si     tau( 123) = (  -0.2357027   0.5892561   0.5892561  )
       124        Si     tau( 124) = (  -0.2946274   0.6481807   0.6481807  )
       125        Si     tau( 125) = (  -0.3535534   0.7071068   0.5892561  )
       126        Si     tau( 126) = (  -0.4124787   0.7660321   0.6481807  )
       127        Si     tau( 127) = (  -0.4714048   0.8249581   0.5892561  )
       128        Si     tau( 128) = (  -0.5303301   0.8838835   0.6481807  )
       129        Si     tau( 129) = (  -0.5892561   0.9428095   0.5892561  )
       130        Si     tau( 130) = (  -0.6481807   1.0017341   0.6481807  )
       131        Si     tau( 131) = (  -0.7071068   1.0606602   0.5892561  )
       132        Si     tau( 132) = (  -0.7660321   1.1195855   0.6481807  )
       133        Si     tau( 133) = (  -0.1178514   0.5892554   0.7071068  )
       134        Si     tau( 134) = (  -0.1767767   0.6481815   0.7660321  )
       135        Si     tau( 135) = (  -0.2357027   0.7071068   0.7071068  )
       136        Si     tau( 136) = (  -0.2946274   0.7660321   0.7660321  )
       137        Si     tau( 137) = (  -0.3535534   0.8249574   0.7071068  )
       138        Si     tau( 138) = (  -0.4124787   0.8838835   0.7660321  )
       139        Si     tau( 139) = (  -0.4714048   0.9428088   0.7071068  )
       140        Si     tau( 140) = (  -0.5303301   1.0017348   0.7660321  )
       141        Si     tau( 141) = (  -0.5892561   1.0606602   0.7071068  )
       142        Si     tau( 142) = (  -0.6481807   1.1195855   0.7660321  )
       143        Si     tau( 143) = (  -0.7071068   1.1785108   0.7071068  )
       144        Si     tau( 144) = (  -0.7660321   1.2374369   0.7660321  )
       145        Si     tau( 145) = (  -0.2357020   0.0000000   0.2357020  )
       146        Si     tau( 146) = (  -0.2946281   0.0589260   0.2946281  )
       147        Si     tau( 147) = (  -0.3535534   0.1178514   0.2357020  )
       148        Si     tau( 148) = (  -0.4124787   0.1767767   0.2946281  )
       149        Si     tau( 149) = (  -0.4714040   0.2357020   0.2357020  )
       150        Si     tau( 150) = (  -0.5303301   0.2946281   0.2946281  )
       151        Si     tau( 151) = (  -0.5892554   0.3535534   0.2357020  )
       152        Si     tau( 152) = (  -0.6481815   0.4124794   0.2946281  )
       153        Si     tau( 153) = (  -0.7071068   0.4714048   0.2357020  )
       154        Si     tau( 154) = (  -0.7660321   0.5303301   0.2946281  )
       155        Si     tau( 155) = (  -0.8249574   0.5892554   0.2357020  )
       156        Si     tau( 156) = (  -0.8838835   0.6481815   0.2946281  )
       157        Si     tau( 157) = (  -0.2357020   0.1178514   0.3535534  )
       158        Si     tau( 158) = (  -0.2946281   0.1767767   0.4124787  )
       159        Si     tau( 159) = (  -0.3535534   0.2357027   0.3535534  )
       160        Si     tau( 160) = (  -0.4124787   0.2946274   0.4124787  )
       161        Si     tau( 161) = (  -0.4714040   0.3535534   0.3535534  )
       162        Si     tau( 162) = (  -0.5303301   0.4124787   0.4124787  )
       163        Si     tau( 163) = (  -0.5892554   0.4714048   0.3535534  )
       164        Si     tau( 164) = (  -0.6481815   0.5303301   0.4124787  )
       165        Si     tau( 165) = (  -0.7071068   0.5892561   0.3535534  )
       166        Si     tau( 166) = (  -0.7660321   0.6481807   0.4124787  )
       167        Si     tau( 167) = (  -0.8249574   0.7071068   0.3535534  )
       168        Si     tau( 168) = (  -0.8838835   0.7660321   0.4124787  )
       169        Si     tau( 169) = (  -0.2357020   0.2357020   0.4714040  )
       170        Si     tau( 170) = (  -0.2946281   0.2946281   0.5303301  )
       171        Si     tau( 171) = (  -0.3535534   0.3535534   0.4714040  )
       172        Si     tau( 172) = (  -0.4124787   0.4124787   0.5303301  )
       173        Si     tau( 173) = (  -0.4714040   0.4714040   0.4714040  )
       174        Si     tau( 174) = (  -0.5303301   0.5303301   0.5303301  )
       175        Si     tau( 175) = (  -0.5892554   0.5892554   0.4714040  )
       176        Si     tau( 176) = (  -0.6481815   0.6481815   0.5303301  )
       177        Si     tau( 177) = (  -0.7071068   0.7071068   0.4714040  )
       178        Si     tau( 178) = (  -0.7660321   0.7660321   0.5303301  )
       179        Si     tau( 179) = (  -0.8249574   0.8249574   0.4714040  )
       180        Si     tau( 180) = (  -0.8838835   0.8838835   0.5303301  )
       181        Si     tau( 181) = (  -0.2357020   0.3535534   0.5892554  )
       182        Si     tau( 182) = (  -0.2946281   0.4124794   0.6481815  )
       183        Si     tau( 183) = (  -0.3535534   0.4714048   0.5892554  )
       184        Si     tau( 184) = (  -0.4124787   0.5303301   0.6481815  )
       185        Si     tau( 185) = (  -0.4714040   0.5892554   0.5892554  )
       186        Si     tau( 186) = (  -0.5303301   0.6481815   0.6481815  )
       187        Si     tau( 187) = (  -0.5892554   0.7071068   0.5892554  )
       188        Si     tau( 188) = (  -0.6481815   0.7660328   0.6481815  )
       189        Si     tau( 189) = (  -0.7071068   0.8249581   0.5892554  )
       190        Si     tau( 190) = (  -0.7660321   0.8838835   0.6481815  )
       191        Si     tau( 191) = (  -0.8249574   0.9428088   0.5892554  )
       192        Si     tau( 192) = (  -0.8838835   1.0017348   0.6481815  )
       193        Si     tau( 193) = (  -0.2357020   0.4714048   0.7071068  )
       194        Si     tau( 194) = (  -0.2946281   0.5303301   0.7660321  )
       195        Si     tau( 195) = (  -0.3535534   0.5892561   0.7071068  )
       196        Si     tau( 196) = (  -0.4124787   0.6481807   0.7660321  )
       197        Si     tau( 197) = (  -0.4714040   0.7071068   0.7071068  )
       198        Si     tau( 198) = (  -0.5303301   0.7660321   0.7660321  )
       199        Si     tau( 199) = (  -0.5892554   0.8249581   0.7071068  )
       200        Si     tau( 200) = (  -0.6481815   0.8838835   0.7660321  )
       201        Si     tau( 201) = (  -0.7071068   0.9428095   0.7071068  )
       202        Si     tau( 202) = (  -0.7660321   1.0017341   0.7660321  )
       203        Si     tau( 203) = (  -0.8249574   1.0606602   0.7071068  )
       204        Si     tau( 204) = (  -0.8838835   1.1195855   0.7660321  )
       205        Si     tau( 205) = (  -0.2357020   0.5892554   0.8249574  )
       206        Si     tau( 206) = (  -0.2946281   0.6481815   0.8838835  )
       207        Si     tau( 207) = (  -0.3535534   0.7071068   0.8249574  )
       208        Si     tau( 208) = (  -0.4124787   0.7660321   0.8838835  )
       209        Si     tau( 209) = (  -0.4714040   0.8249574   0.8249574  )
       210        Si     tau( 210) = (  -0.5303301   0.8838835   0.8838835  )
       211        Si     tau( 211) = (  -0.5892554   0.9428088   0.8249574  )
       212        Si     tau( 212) = (  -0.6481815   1.0017348   0.8838835  )
       213        Si     tau( 213) = (  -0.7071068   1.0606602   0.8249574  )
       214        Si     tau( 214) = (  -0.7660321   1.1195855   0.8838835  )
       215        Si     tau( 215) = (  -0.8249574   1.1785108   0.8249574  )
       216        Si     tau( 216) = (  -0.8838835   1.2374369   0.8838835  )
       217        Si     tau( 217) = (  -0.3535534   0.0000000   0.3535534  )
       218        Si     tau( 218) = (  -0.4124794   0.0589260   0.4124794  )
       219        Si     tau( 219) = (  -0.4714048   0.1178514   0.3535534  )
       220        Si     tau( 220) = (  -0.5303301   0.1767767   0.4124794  )
       221        Si     tau( 221) = (  -0.5892554   0.2357020   0.3535534  )
       222        Si     tau( 222) = (  -0.6481815   0.2946281   0.4124794  )
       223        Si     tau( 223) = (  -0.7071068   0.3535534   0.3535534  )
       224        Si     tau( 224) = (  -0.7660328   0.4124794   0.4124794  )
       225        Si     tau( 225) = (  -0.8249581   0.4714048   0.3535534  )
       226        Si     tau( 226) = (  -0.8838835   0.5303301   0.4124794  )
       227        Si     tau( 227) = (  -0.9428088   0.5892554   0.3535534  )
       228        Si     tau( 228) = (  -1.0017348   0.6481815   0.4124794  )
       229        Si     tau( 229) = (  -0.3535534   0.1178514   0.4714048  )
       230        Si     tau( 230) = (  -0.4124794   0.1767767   0.5303301  )
       231        Si     tau( 231) = (  -0.4714048   0.2357027   0.4714048  )
       232        Si     tau( 232) = (  -0.5303301   0.2946274   0.5303301  )
       233        Si     tau( 233) = (  -0.5892554   0.3535534   0.4714048  )
       234        Si     tau( 234) = (  -0.6481815   0.4124787   0.5303301  )
       235        Si     tau( 235) = (  -0.7071068   0.4714048   0.4714048  )
       236        Si     tau( 236) = (  -0.7660328   0.5303301   0.5303301  )
       237        Si     tau( 237) = (  -0.8249581   0.5892561   0.4714048  )
       238        Si     tau( 238) = (  -0.8838835   0.6481807   0.5303301  )
       239        Si     tau( 239) = (  -0.9428088   0.7071068   0.4714048  )
       240        Si     tau( 240) = (  -1.0017348   0.7660321   0.5303301  )
       241        Si     tau( 241) = (  -0.3535534   0.2357020   0.5892554  )
       242        Si     tau( 242) = (  -0.4124794   0.2946281   0.6481815  )
       243        Si     tau( 243) = (  -0.4714048   0.3535534   0.5892554  )
       244        Si     tau( 244) = (  -0.5303301   0.4124787   0.6481815  )
       245        Si     tau( 245) = (  -0.5892554   0.4714040   0.5892554  )
       246        Si     tau( 246) = (  -0.6481815   0.5303301   0.6481815  )
       247        Si     tau( 247) = (  -0.7071068   0.5892554   0.5892554  )
       248        Si     tau( 248) = (  -0.7660328   0.6481815   0.6481815  )
       249        Si     tau( 249) = (  -0.8249581   0.7071068   0.5892554  )
       250        Si     tau( 250) = (  -0.8838835   0.7660321   0.6481815  )
       251        Si     tau( 251) = (  -0.9428088   0.8249574   0.5892554  )
       252        Si     tau( 252) = (  -1.0017348   0.8838835   0.6481815  )
       253        Si     tau( 253) = (  -0.3535534   0.3535534   0.7071068  )
       254        Si     tau( 254) = (  -0.4124794   0.4124794   0.7660328  )
       255        Si     tau( 255) = (  -0.4714048   0.4714048   0.7071068  )
       256        Si     tau( 256) = (  -0.5303301   0.5303301   0.7660328  )
       257        Si     tau( 257) = (  -0.5892554   0.5892554   0.7071068  )
       258        Si     tau( 258) = (  -0.6481815   0.6481815   0.7660328  )
       259        Si     tau( 259) = (  -0.7071068   0.7071068   0.7071068  )
       260        Si     tau( 260) = (  -0.7660328   0.7660328   0.7660328  )
       261        Si     tau( 261) = (  -0.8249581   0.8249581   0.7071068  )
       262        Si     tau( 262) = (  -0.8838835   0.8838835   0.7660328  )
       263        Si     tau( 263) = (  -0.9428088   0.9428088   0.7071068  )
       264        Si     tau( 264) = (  -1.0017348   1.0017348   0.7660328  )
       265        Si     tau( 265) = (  -0.3535534   0.4714048   0.8249581  )
       266        Si     tau( 266) = (  -0.4124794   0.5303301   0.8838835  )
       267        Si     tau( 267) = (  -0.4714048   0.5892561   0.8249581  )
       268        Si     tau( 268) = (  -0.5303301   0.6481807   0.8838835  )
       269        Si     tau( 269) = (  -0.5892554   0.7071068   0.8249581  )
       270        Si     tau( 270) = (  -0.6481815   0.7660321   0.8838835  )
       271        Si     tau( 271) = (  -0.7071068   0.8249581   0.8249581  )
       272        Si     tau( 272) = (  -0.7660328   0.8838835   0.8838835  )
       273        Si     tau( 273) = (  -0.8249581   0.9428095   0.8249581  )
       274        Si     tau( 274) = (  -0.8838835   1.0017341   0.8838835  )
       275        Si     tau( 275) = (  -0.9428088   1.0606602   0.8249581  )
       276        Si     tau( 276) = (  -1.0017348   1.1195855   0.8838835  )
       277        Si     tau( 277) = (  -0.3535534   0.5892554   0.9428088  )
       278        Si     tau( 278) = (  -0.4124794   0.6481815   1.0017348  )
       279        Si     tau( 279) = (  -0.4714048   0.7071068   0.9428088  )
       280        Si     tau( 280) = (  -0.5303301   0.7660321   1.0017348  )
       281        Si     tau( 281) = (  -0.5892554   0.8249574   0.9428088  )
       282        Si     tau( 282) = (  -0.6481815   0.8838835   1.0017348  )
       283        Si     tau( 283) = (  -0.7071068   0.9428088   0.9428088  )
       284        Si     tau( 284) = (  -0.7660328   1.0017348   1.0017348  )
       285        Si     tau( 285) = (  -0.8249581   1.0606602   0.9428088  )
       286        Si     tau( 286) = (  -0.8838835   1.1195855   1.0017348  )
       287        Si     tau( 287) = (  -0.9428088   1.1785108   0.9428088  )
       288        Si     tau( 288) = (  -1.0017348   1.2374369   1.0017348  )
       289        Si     tau( 289) = (  -0.4714048   0.0000000   0.4714048  )
       290        Si     tau( 290) = (  -0.5303301   0.0589260   0.5303301  )
       291        Si     tau( 291) = (  -0.5892561   0.1178514   0.4714048  )
       292        Si     tau( 292) = (  -0.6481807   0.1767767   0.5303301  )
       293        Si     tau( 293) = (  -0.7071068   0.2357020   0.4714048  )
       294        Si     tau( 294) = (  -0.7660321   0.2946281   0.5303301  )
       295        Si     tau( 295) = (  -0.8249581   0.3535534   0.4714048  )
       296        Si     tau( 296) = (  -0.8838835   0.4124794   0.5303301  )
       297        Si     tau( 297) = (  -0.9428095   0.4714048   0.4714048  )
       298        Si     tau( 298) = (  -1.0017341   0.5303301   0.5303301  )
       299        Si     tau( 299) = (  -1.0606602   0.5892554   0.4714048  )
       300        Si     tau( 300) = (  -1.1195855   0.6481815   0.5303301  )
       301        Si     tau( 301) = (  -0.4714048   0.1178514   0.5892561  )
       302        Si     tau( 302) = (  -0.5303301   0.1767767   0.6481807  )
       303        Si     tau( 303) = (  -0.5892561   0.2357027   0.5892561  )
       304        Si     tau( 304) = (  -0.6481807   0.2946274   0.6481807  )
       305        Si     tau( 305) = (  -0.7071068   0.3535534   0.5892561  )
       306        Si     tau( 306) = (  -0.7660321   0.4124787   0.6481807  )
       307        Si     tau( 307) = (  -0.8249581   0.4714048   0.5892561  )
       308        Si     tau( 308) = (  -0.8838835   0.5303301   0.6481807  )
       309        Si     tau( 309) = (  -0.9428095   0.5892561   0.5892561  )
       310        Si     tau( 310) = (  -1.0017341   0.6481807   0.6481807  )
       311        Si     tau( 311) = (  -1.0606602   0.7071068   0.5892561  )
       312        Si     tau( 312) = (  -1.1195855   0.7660321   0.6481807  )
       313        Si     tau( 313) = (  -0.4714048   0.2357020   0.7071068  )
       314        Si     tau( 314) = (  -0.5303301   0.2946281   0.7660321  )
       315        Si     tau( 315) = (  -0.5892561   0.3535534   0.7071068  )
       316        Si     tau( 316) = (  -0.6481807   0.4124787   0.7660321  )
       317        Si     tau( 317) = (  -0.7071068   0.4714040   0.7071068  )
       318        Si     tau( 318) = (  -0.7660321   0.5303301   0.7660321  )
       319        Si     tau( 319) = (  -0.8249581   0.5892554   0.7071068  )
       320        Si     tau( 320) = (  -0.8838835   0.6481815   0.7660321  )
       321        Si     tau( 321) = (  -0.9428095   0.7071068   0.7071068  )
       322        Si     tau( 322) = (  -1.0017341   0.7660321   0.7660321  )
       323        Si     tau( 323) = (  -1.0606602   0.8249574   0.7071068  )
       324        Si     tau( 324) = (  -1.1195855   0.8838835   0.7660321  )
       325        Si     tau( 325) = (  -0.4714048   0.3535534   0.8249581  )
       326        Si     tau( 326) = (  -0.5303301   0.4124794   0.8838835  )
       327        Si     tau( 327) = (  -0.5892561   0.4714048   0.8249581  )
       328        Si     tau( 328) = (  -0.6481807   0.5303301   0.8838835  )
       329        Si     tau( 329) = (  -0.7071068   0.5892554   0.8249581  )
       330        Si     tau( 330) = (  -0.7660321   0.6481815   0.8838835  )
       331        Si     tau( 331) = (  -0.8249581   0.7071068   0.8249581  )
       332        Si     tau( 332) = (  -0.8838835   0.7660328   0.8838835  )
       333        Si     tau( 333) = (  -0.9428095   0.8249581   0.8249581  )
       334        Si     tau( 334) = (  -1.0017341   0.8838835   0.8838835  )
       335        Si     tau( 335) = (  -1.0606602   0.9428088   0.8249581  )
       336        Si     tau( 336) = (  -1.1195855   1.0017348   0.8838835  )
       337        Si     tau( 337) = (  -0.4714048   0.4714048   0.9428095  )
       338        Si     tau( 338) = (  -0.5303301   0.5303301   1.0017341  )
       339        Si     tau( 339) = (  -0.5892561   0.5892561   0.9428095  )
       340        Si     tau( 340) = (  -0.6481807   0.6481807   1.0017341  )
       341        Si     tau( 341) = (  -0.7071068   0.7071068   0.9428095  )
       342        Si     tau( 342) = (  -0.7660321   0.7660321   1.0017341  )
       343        Si     tau( 343) = (  -0.8249581   0.8249581   0.9428095  )
       344        Si     tau( 344) = (  -0.8838835   0.8838835   1.0017341  )
       345        Si     tau( 345) = (  -0.9428095   0.9428095   0.9428095  )
       346        Si     tau( 346) = (  -1.0017341   1.0017341   1.0017341  )
       347        Si     tau( 347) = (  -1.0606602   1.0606602   0.9428095  )
       348        Si     tau( 348) = (  -1.1195855   1.1195855   1.0017341  )
       349        Si     tau( 349) = (  -0.4714048   0.5892554   1.0606602  )
       350        Si     tau( 350) = (  -0.5303301   0.6481815   1.1195855  )
       351        Si     tau( 351) = (  -0.5892561   0.7071068   1.0606602  )
       352        Si     tau( 352) = (  -0.6481807   0.7660321   1.1195855  )
       353        Si     tau( 353) = (  -0.7071068   0.8249574   1.0606602  )
       354        Si     tau( 354) = (  -0.7660321   0.8838835   1.1195855  )
       355        Si     tau( 355) = (  -0.8249581   0.9428088   1.0606602  )
       356        Si     tau( 356) = (  -0.8838835   1.0017348   1.1195855  )
       357        Si     tau( 357) = (  -0.9428095   1.0606602   1.0606602  )
       358        Si     tau( 358) = (  -1.0017341   1.1195855   1.1195855  )
       359        Si     tau( 359) = (  -1.0606602   1.1785108   1.0606602  )
       360        Si     tau( 360) = (  -1.1195855   1.2374369   1.1195855  )
       361        Si     tau( 361) = (  -0.5892554   0.0000000   0.5892554  )
       362        Si     tau( 362) = (  -0.6481815   0.0589260   0.6481815  )
       363        Si     tau( 363) = (  -0.7071068   0.1178514   0.5892554  )
       364        Si     tau( 364) = (  -0.7660321   0.1767767   0.6481815  )
       365        Si     tau( 365) = (  -0.8249574   0.2357020   0.5892554  )
       366        Si     tau( 366) = (  -0.8838835   0.2946281   0.6481815  )
       367        Si     tau( 367) = (  -0.9428088   0.3535534   0.5892554  )
       368        Si     tau( 368) = (  -1.0017348   0.4124794   0.6481815  )
       369        Si     tau( 369) = (  -1.0606602   0.4714048   0.5892554  )
       370        Si     tau( 370) = (  -1.1195855   0.5303301   0.6481815  )
       371        Si     tau( 371) = (  -1.1785108   0.5892554   0.5892554  )
       372        Si     tau( 372) = (  -1.2374369   0.6481815   0.6481815  )
       373        Si     tau( 373) = (  -0.5892554   0.1178514   0.7071068  )
       374        Si     tau( 374) = (  -0.6481815   0.1767767   0.7660321  )
       375        Si     tau( 375) = (  -0.7071068   0.2357027   0.7071068  )
       376        Si     tau( 376) = (  -0.7660321   0.2946274   0.7660321  )
       377        Si     tau( 377) = (  -0.8249574   0.3535534   0.7071068  )
       378        Si     tau( 378) = (  -0.8838835   0.4124787   0.7660321  )
       379        Si     tau( 379) = (  -0.9428088   0.4714048   0.7071068  )
       380        Si     tau( 380) = (  -1.0017348   0.5303301   0.7660321  )
       381        Si     tau( 381) = (  -1.0606602   0.5892561   0.7071068  )
       382        Si     tau( 382) = (  -1.1195855   0.6481807   0.7660321  )
       383        Si     tau( 383) = (  -1.1785108   0.7071068   0.7071068  )
       384        Si     tau( 384) = (  -1.2374369   0.7660321   0.7660321  )
       385        Si     tau( 385) = (  -0.5892554   0.2357020   0.8249574  )
       386        Si     tau( 386) = (  -0.6481815   0.2946281   0.8838835  )
       387        Si     tau( 387) = (  -0.7071068   0.3535534   0.8249574  )
       388        Si     tau( 388) = (  -0.7660321   0.4124787   0.8838835  )
       389        Si     tau( 389) = (  -0.8249574   0.4714040   0.8249574  )
       390        Si     tau( 390) = (  -0.8838835   0.5303301   0.8838835  )
       391        Si     tau( 391) = (  -0.9428088   0.5892554   0.8249574  )
       392        Si     tau( 392) = (  -1.0017348   0.6481815   0.8838835  )
       393        Si     tau( 393) = (  -1.0606602   0.7071068   0.8249574  )
       394        Si     tau( 394) = (  -1.1195855   0.7660321   0.8838835  )
       395        Si     tau( 395) = (  -1.1785108   0.8249574   0.8249574  )
       396        Si     tau( 396) = (  -1.2374369   0.8838835   0.8838835  )
       397        Si     tau( 397) = (  -0.5892554   0.3535534   0.9428088  )
       398        Si     tau( 398) = (  -0.6481815   0.4124794   1.0017348  )
       399        Si     tau( 399) = (  -0.7071068   0.4714048   0.9428088  )
       400        Si     tau( 400) = (  -0.7660321   0.5303301   1.0017348  )
       401        Si     tau( 401) = (  -0.8249574   0.5892554   0.9428088  )
       402        Si     tau( 402) = (  -0.8838835   0.6481815   1.0017348  )
       403        Si     tau( 403) = (  -0.9428088   0.7071068   0.9428088  )
       404        Si     tau( 404) = (  -1.0017348   0.7660328   1.0017348  )
       405        Si     tau( 405) = (  -1.0606602   0.8249581   0.9428088  )
       406        Si     tau( 406) = (  -1.1195855   0.8838835   1.0017348  )
       407        Si     tau( 407) = (  -1.1785108   0.9428088   0.9428088  )
       408        Si     tau( 408) = (  -1.2374369   1.0017348   1.0017348  )
       409        Si     tau( 409) = (  -0.5892554   0.4714048   1.0606602  )
       410        Si     tau( 410) = (  -0.6481815   0.5303301   1.1195855  )
       411        Si     tau( 411) = (  -0.7071068   0.5892561   1.0606602  )
       412        Si     tau( 412) = (  -0.7660321   0.6481807   1.1195855  )
       413        Si     tau( 413) = (  -0.8249574   0.7071068   1.0606602  )
       414        Si     tau( 414) = (  -0.8838835   0.7660321   1.1195855  )
       415        Si     tau( 415) = (  -0.9428088   0.8249581   1.0606602  )
       416        Si     tau( 416) = (  -1.0017348   0.8838835   1.1195855  )
       417        Si     tau( 417) = (  -1.0606602   0.9428095   1.0606602  )
       418        Si     tau( 418) = (  -1.1195855   1.0017341   1.1195855  )
       419        Si     tau( 419) = (  -1.1785108   1.0606602   1.0606602  )
       420        Si     tau( 420) = (  -1.2374369   1.1195855   1.1195855  )
       421        Si     tau( 421) = (  -0.5892554   0.5892554   1.1785108  )
       422        Si     tau( 422) = (  -0.6481815   0.6481815   1.2374369  )
       423        Si     tau( 423) = (  -0.7071068   0.7071068   1.1785108  )
       424        Si     tau( 424) = (  -0.7660321   0.7660321   1.2374369  )
       425        Si     tau( 425) = (  -0.8249574   0.8249574   1.1785108  )
       426        Si     tau( 426) = (  -0.8838835   0.8838835   1.2374369  )
       427        Si     tau( 427) = (  -0.9428088   0.9428088   1.1785108  )
       428        Si     tau( 428) = (  -1.0017348   1.0017348   1.2374369  )
       429        Si     tau( 429) = (  -1.0606602   1.0606602   1.1785108  )
       430        Si     tau( 430) = (  -1.1195855   1.1195855   1.2374369  )
       431        Si     tau( 431) = (  -1.1785108   1.1785108   1.1785108  )
       432        Si     tau( 432) = (  -1.2374369   1.2374369   1.2374369  )

     number of k points=     3
                       cart. coord. in units 2pi/alat
        k(    1) = (   0.0000000   0.0000000   0.0000000), wk =   0.2500000
        k(    2) = (   0.3535534  -0.3535534   0.3535534), wk =   1.0000000
        k(    3) = (   0.0000000  -0.7071068   0.0000000), wk =   0.7500000

     Dense  grid:  1599847 G-vectors     FFT dimensions: ( 180, 180, 180)

     Estimated max dynamical RAM per process >       3.85 GB

     Estimated total dynamical RAM >      46.19 GB

     Initial potential from superposition of free atoms

     starting charge    1727.7608, renormalised to    1728.0000
     Starting wfcs are 1728 randomized atomic wfcs

     total cpu time spent up to now is      212.5 secs

     per-process dynamical memory:  3058.3 Mb

     Self-consistent Calculation

     iteration #  1     ecut=    35.00 Ry     beta= 0.70
     Davidson diagonalization with overlap
     ethr =  1.00E-02,  avg # of iterations =  2.0

     Threshold (ethr) on eigenvalues was too large:
     Diagonalizing with lowered threshold

     Davidson diagonalization with overlap
     ethr =  6.13E-04,  avg # of iterations =  2.7

     total cpu time spent up to now is      862.5 secs

     total energy              =   -3682.27297575 Ry
     estimated scf accuracy    <      12.53629172 Ry

     iteration #  2     ecut=    35.00 Ry     beta= 0.70
     Davidson diagonalization with overlap
     ethr =  7.25E-04,  avg # of iterations =  1.0

     total cpu time spent up to now is     1095.6 secs

     total energy              =   -3682.78150362 Ry
     estimated scf accuracy    <       0.53326217 Ry

     iteration #  3     ecut=    35.00 Ry     beta= 0.70
     Davidson diagonalization with overlap
     ethr =  3.09E-05,  avg # of iterations =  5.0

     total cpu time spent up to now is     1508.7 secs

     total energy              =   -3682.96498588 Ry
     estimated scf accuracy    <       0.02052255 Ry

     iteration #  4     ecut=    35.00 Ry     beta= 0.70
     Davidson diagonalization with overlap
     ethr =  1.19E-06,  avg # of iterations =  5.3

     total cpu time spent up to now is     1995.9 secs

     total energy              =   -3682.97995620 Ry
     estimated scf accuracy    <       0.00077227 Ry

     iteration #  5     ecut=    35.00 Ry     beta= 0.70
     Davidson diagonalization with overlap
     ethr =  4.47E-08,  avg # of iterations =  6.3

     total cpu time spent up to now is     2514.8 secs

     total energy              =   -3682.98039728 Ry
     estimated scf accuracy    <       0.00146397 Ry

     iteration #  6     ecut=    35.00 Ry     beta= 0.70
     Davidson diagonalization with overlap
     ethr =  4.47E-08,  avg # of iterations =  3.3

     total cpu time spent up to now is     2822.2 secs

     total energy              =   -3682.98051600 Ry
     estimated scf accuracy    <       0.00009840 Ry

     iteration #  7     ecut=    35.00 Ry     beta= 0.70
     Davidson diagonalization with overlap
     ethr =  5.69E-09,  avg # of iterations =  4.0

     total cpu time spent up to now is     3213.6 secs

     total energy              =   -3682.98054416 Ry
     estimated scf accuracy    <       0.00002594 Ry

     iteration #  8     ecut=    35.00 Ry     beta= 0.70
     Davidson diagonalization with overlap
     ethr =  1.50E-09,  avg # of iterations =  4.7

     total cpu time spent up to now is     3530.5 secs

     total energy              =   -3682.98054515 Ry
     estimated scf accuracy    <       0.00003289 Ry

     iteration #  9     ecut=    35.00 Ry     beta= 0.70
     Davidson diagonalization with overlap
     ethr =  1.50E-09,  avg # of iterations =  1.7

     total cpu time spent up to now is     3768.1 secs

     total energy              =   -3682.98054256 Ry
     estimated scf accuracy    <       0.00002764 Ry

     iteration # 10     ecut=    35.00 Ry     beta= 0.70
     Davidson diagonalization with overlap
     ethr =  1.50E-09,  avg # of iterations =  2.0

     total cpu time spent up to now is     4024.5 secs

     total energy              =   -3682.98054235 Ry
     estimated scf accuracy    <       0.00001246 Ry

     iteration # 11     ecut=    35.00 Ry     beta= 0.70
     Davidson diagonalization with overlap
     ethr =  7.21E-10,  avg # of iterations =  2.0

     total cpu time spent up to now is     4275.2 secs

     total energy              =   -3682.98054089 Ry
     estimated scf accuracy    <       0.00000758 Ry

     iteration # 12     ecut=    35.00 Ry     beta= 0.70
     Davidson diagonalization with overlap
     ethr =  4.38E-10,  avg # of iterations =  4.3

     total cpu time spent up to now is     4649.0 secs

     total energy              =   -3682.98054274 Ry
     estimated scf accuracy    <       0.00000220 Ry

     iteration # 13     ecut=    35.00 Ry     beta= 0.70
     Davidson diagonalization with overlap
     ethr =  1.27E-10,  avg # of iterations =  2.0

     total cpu time spent up to now is     4905.2 secs

     total energy              =   -3682.98054258 Ry
     estimated scf accuracy    <       0.00000121 Ry

     iteration # 14     ecut=    35.00 Ry     beta= 0.70
     Davidson diagonalization with overlap
     ethr =  7.00E-11,  avg # of iterations =  4.0

     total cpu time spent up to now is     5202.8 secs

     total energy              =   -3682.98054270 Ry
     estimated scf accuracy    <       0.00000006 Ry

     iteration # 15     ecut=    35.00 Ry     beta= 0.70
     Davidson diagonalization with overlap
     ethr =  3.50E-12,  avg # of iterations =  8.7

     total cpu time spent up to now is     5623.8 secs

     total energy              =   -3682.98054274 Ry
     estimated scf accuracy    <       0.00000004 Ry

     iteration # 16     ecut=    35.00 Ry     beta= 0.70
     Davidson diagonalization with overlap
     ethr =  2.06E-12,  avg # of iterations =  2.0

     total cpu time spent up to now is     5870.1 secs

     total energy              =   -3682.98054273 Ry
     estimated scf accuracy    <       0.00000005 Ry

     iteration # 17     ecut=    35.00 Ry     beta= 0.70
     Davidson diagonalization with overlap
     ethr =  2.06E-12,  avg # of iterations =  1.3

     total cpu time spent up to now is     6103.7 secs

     total energy              =   -3682.98054273 Ry
     estimated scf accuracy    <       0.00000004 Ry

     iteration # 18     ecut=    35.00 Ry     beta= 0.70
     Davidson diagonalization with overlap
     ethr =  2.06E-12,  avg # of iterations =  2.0

     total cpu time spent up to now is     6356.9 secs

     total energy              =   -3682.98054273 Ry
     estimated scf accuracy    <       0.00000002 Ry

     iteration # 19     ecut=    35.00 Ry     beta= 0.70
     Davidson diagonalization with overlap
     ethr =  1.18E-12,  avg # of iterations =  4.0

     total cpu time spent up to now is     6653.0 secs

     total energy              =   -3682.98054273 Ry
     estimated scf accuracy    <          1.6E-09 Ry

     iteration # 20     ecut=    35.00 Ry     beta= 0.70
     Davidson diagonalization with overlap
     ethr =  1.00E-13,  avg # of iterations =  6.0

     total cpu time spent up to now is     7043.4 secs

     total energy              =   -3682.98054273 Ry
     estimated scf accuracy    <          1.8E-10 Ry

     iteration # 21     ecut=    35.00 Ry     beta= 0.70
     Davidson diagonalization with overlap
     ethr =  1.00E-13,  avg # of iterations =  1.0

     total cpu time spent up to now is     7259.4 secs

     total energy              =   -3682.98054273 Ry
     estimated scf accuracy    <          9.5E-11 Ry

     iteration # 22     ecut=    35.00 Ry     beta= 0.70
     Davidson diagonalization with overlap
     ethr =  1.00E-13,  avg # of iterations =  2.0

     total cpu time spent up to now is     7465.2 secs

     total energy              =   -3682.98054273 Ry
     estimated scf accuracy    <          3.2E-11 Ry

     iteration # 23     ecut=    35.00 Ry     beta= 0.70
     Davidson diagonalization with overlap
     ethr =  1.00E-13,  avg # of iterations =  1.0

     total cpu time spent up to now is     7658.8 secs

     total energy              =   -3682.98054273 Ry
     estimated scf accuracy    <          1.0E-11 Ry

     iteration # 24     ecut=    35.00 Ry     beta= 0.70
     Davidson diagonalization with overlap
     ethr =  1.00E-13,  avg # of iterations =  1.0

     total cpu time spent up to now is     7849.0 secs

     End of self-consistent calculation

          k = 0.0000 0.0000 0.0000 (199897 PWs)   bands (ev):

    -5.8518  -5.4845  -5.4845  -5.4845  -5.4845  -5.4844  -5.4844  -5.4844
    -5.4843  -5.3596  -5.3596  -5.3596  -5.3596  -5.3596  -5.3596  -4.8857
    -4.8857  -4.8857  -4.8857  -4.8857  -4.8857  -4.8857  -4.8857  -4.8857
    -4.8857  -4.8857  -4.8857  -4.5297  -4.5297  -4.5297  -4.5297  -4.5297
    -4.5297  -4.5297  -4.5297  -4.5297  -4.5297  -4.5297  -4.5297  -4.5296
    -4.5296  -4.5296  -4.5296  -4.5296  -4.5295  -4.5295  -4.5295  -4.5295
    -4.5295  -4.5295  -4.5295  -4.4491  -4.4490  -4.4490  -4.4490  -4.4490
    -4.4490  -4.4490  -4.4490  -3.9156  -3.9156  -3.9156  -3.9156  -3.9156
    -3.9156  -3.7046  -3.7046  -3.7046  -3.7046  -3.7046  -3.7046  -3.7046
    -3.7046  -3.7046  -3.7046  -3.7046  -3.7046  -3.7046  -3.7046  -3.7046
    -3.7046  -3.7046  -3.7046  -3.7046  -3.7046  -3.7046  -3.7046  -3.7046
    -3.7046  -3.5207  -3.5207  -3.5207  -3.5207  -3.5207  -3.5207  -3.5207
    -3.5207  -3.5207  -3.5207  -3.5207  -3.5207  -3.5207  -3.5207  -3.5207
    -3.5207  -3.5207  -3.5207  -3.5207  -3.5207  -3.5207  -3.5207  -3.5207
    -3.5207  -3.4657  -3.4657  -3.4657  -3.4657  -3.3085  -3.3085  -3.3085
    -3.3085  -3.3085  -3.3085  -3.3085  -3.3085  -3.3085  -3.3085  -3.3085
    -3.3085  -3.3084  -3.3084  -3.3084  -3.3084  -3.3084  -3.3084  -3.3084
    -3.3084  -3.3084  -3.3084  -3.3084  -3.3084  -2.7289  -2.7289  -2.7289
    -2.7289  -2.7289  -2.7289  -2.7289  -2.7289  -2.7289  -2.7289  -2.7289
    -2.7289  -2.7289  -2.7289  -2.7289  -2.7289  -2.7289  -2.7289  -2.7289
    -2.7289  -2.7289  -2.7289  -2.7289  -2.7289  -2.5214  -2.5214  -2.5213
    -2.5213  -2.5213  -2.5213  -2.5213  -2.5212  -2.5212  -2.5212  -2.5212
    -2.5212  -2.5103  -2.5103  -2.5102  -2.5102  -2.5102  -2.5102  -2.5102
    -2.5102  -2.5102  -2.5102  -2.5102  -2.5102  -2.5102  -2.5102  -2.5101
    -2.5101  -2.5101  -2.5101  -2.5101  -2.5101  -2.5101  -2.5101  -2.5101
    -2.5101  -1.6384  -1.6384  -1.6384  -1.6384  -1.6384  -1.6384  -1.5102
    -1.5102  -1.5102  -1.5102  -1.5102  -1.5102  -1.5102  -1.5102  -1.5102
    -1.5102  -1.5102  -1.5102  -1.5102  -1.5102  -1.5102  -1.5102  -1.5102
    -1.5102  -1.5102  -1.5102  -1.5102  -1.5102  -1.5102  -1.5102  -0.8374
    -0.8374  -0.8374  -0.8374  -0.6639  -0.6639  -0.6638  -0.6638  -0.6638
    -0.6638  -0.6638  -0.6638  -0.6638  -0.6638  -0.6638  -0.6638  -0.6638
    -0.6638  -0.6638  -0.6638  -0.6638  -0.6638  -0.6638  -0.6638  -0.6638
    -0.6638  -0.6638  -0.6638  -0.5826  -0.5825  -0.5825  -0.5825  -0.5825
    -0.5825  -0.5825  -0.5824  -0.5824  -0.5824  -0.5824  -0.5824  -0.4507
    -0.4507  -0.4507  -0.4507  -0.4507  -0.4507  -0.4507  -0.4507  -0.4507
    -0.4507  -0.4507  -0.4507  -0.4506  -0.4506  -0.4506  -0.4506  -0.4506
    -0.4506  -0.4506  -0.4506  -0.4506  -0.4506  -0.4506  -0.4506  -0.3677
    -0.3677  -0.3677  -0.3677  -0.3677  -0.3677  -0.3677  -0.3677  -0.3677
    -0.3677  -0.3677  -0.3677  -0.3676  -0.3676  -0.3676  -0.3676  -0.3676
    -0.3676  -0.3676  -0.3676  -0.3676  -0.3676  -0.3676  -0.3676   0.1637
     0.1637   0.1637   0.1637   0.1637   0.1637   0.1637   0.1637   0.1637
     0.1637   0.1637   0.1637   0.1637   0.1637   0.1637   0.1637   0.1637
     0.1637   0.1637   0.1637   0.1637   0.1637   0.1637   0.1637   0.5623
     0.5623   0.5623   0.5623   0.5623   0.5623   0.5623   0.5623   0.5623
     0.5623   0.5623   0.5623   0.5624   0.5624   0.5624   0.5624   0.5624
     0.5624   0.5624   0.5624   0.5624   0.5624   0.5624   0.5624   0.8357
     0.8357   0.8357   0.8357   0.8358   0.8358   0.8358   0.8358   1.2079
     1.2079   1.2079   1.2079   1.2079   1.2079   1.7152   1.7152   1.7152
     1.7153   1.7153   1.7153   1.7153   1.7154   1.7154   1.7154   1.7154
     1.7155   1.7659   1.7659   1.7659   1.7660   1.7660   1.7660   1.7660
     1.7660   1.7660   1.7660   1.7660   1.7660   1.7660   1.7660   1.7660
     1.7660   1.7660   1.7660   1.7660   1.7660   1.7660   1.7661   1.7661
     1.7661   2.1391   2.1391   2.1391   2.1391   2.1391   2.1391   2.1391
     2.1391   2.1391   2.1391   2.1392   2.1392   2.1392   2.1392   2.1392
     2.1392   2.1392   2.1392   2.1392   2.1392   2.1392   2.1392   2.1393
     2.1393   2.4977   2.4977   2.4977   2.4977   2.4977   2.4977   2.4977
     2.4977   2.4977   2.4977   2.4977   2.4977   2.5081   2.5081   2.5081
     2.5081   2.5081   2.5081   2.5081   2.5081   2.5081   2.5081   2.5081
     2.5081   2.5081   2.5081   2.5081   2.5081   2.5081   2.5081   2.5081
     2.5081   2.5081   2.5081   2.5081   2.5081   2.5228   2.5228   2.5228
     2.5228   2.5228   2.5228   2.5228   2.5228   2.5228   2.5228   2.5228
     2.5228   2.5228   2.5228   2.5228   2.5229   2.5229   2.5229   2.5229
     2.5229   2.5229   2.5229   2.5229   2.5229   2.5870   2.5870   2.5870
     2.5870   2.5870   2.5870   2.5870   2.5870   2.5870   2.5870   2.5870
     2.5870   2.5870   2.5870   2.5870   2.5870   2.5870   2.5870   2.5871
     2.5871   2.5871   2.5871   2.5871   2.5871   3.1336   3.1336   3.1336
     3.1336   3.1336   3.1336   3.1336   3.1336   3.1336   3.1336   3.1336
     3.1336   3.1336   3.1336   3.1336   3.1336   3.1336   3.1336   3.1336
     3.1336   3.1336   3.1336   3.1336   3.1336   3.3452   3.3452   3.3452
     3.3452   3.3452   3.3452   3.4146   3.4146   3.4146   3.4146   3.4146
     3.4146   3.4147   3.4147   3.4147   3.4147   3.4147   3.4147   3.4147
     3.4147   3.4147   3.4147   3.4147   3.4147   3.4147   3.4147   3.4147
     3.4147   3.4147   3.4147   3.4170   3.4170   3.4170   3.4170   3.4170
     3.4170   3.4170   3.4170   3.4171   3.4171   3.4171   3.4171   3.4171
     3.4171   3.4171   3.4171   3.4171   3.4171   3.4171   3.4171   3.4171
     3.4171   3.4171   3.4171   3.6485   3.6485   3.6485   3.6485   3.6485
     3.6485   3.6485   3.6485   3.6485   3.6485   3.6485   3.6485   3.6486
     3.6486   3.6486   3.6486   3.6486   3.6486   3.6486   3.6486   3.6486
     3.6486   3.6486   3.6486   3.7706   3.7706   3.7706   3.7706   3.7706
     3.7706   3.7706   3.7706   3.7706   3.7706   3.7706   3.7706   3.7860
     3.7860   3.7860   3.7860   3.7860   3.7860   3.7860   3.7860   3.7860
     3.7860   3.7860   3.7860   3.8346   3.8346   3.8346   3.8346   3.8346
     3.8346   3.8346   3.8346   3.8991   3.8991   3.8991   3.8991   3.8991
     3.8991   3.8991   3.8991   3.8991   3.8991   3.8991   3.8991   3.8993
     3.8993   3.8993   3.8993   3.8993   3.8993   3.8993   3.8993   3.8993
     3.8993   3.8993   3.8993   4.1001   4.1001   4.1001   4.1001   4.1001
     4.1001   4.1001   4.1001   4.1001   4.1001   4.1001   4.1001   4.2057
     4.2057   4.2057   4.2057   4.2057   4.2057   4.2139   4.2139   4.2139
     4.2139   4.2139   4.2139   4.2139   4.2139   4.2139   4.2140   4.2140
     4.2140   4.2140   4.2140   4.2140   4.2141   4.2141   4.2141   4.2141
     4.2141   4.2141   4.2141   4.2141   4.2141   4.4423   4.4423   4.4423
     4.4424   4.4424   4.4424   4.4424   4.4424   4.4424   4.4424   4.4424
     4.4424   4.4424   4.4424   4.4424   4.4424   4.4424   4.4424   4.4424
     4.4424   4.4424   4.4425   4.4425   4.4425   4.4694   4.4694   4.4694
     4.4694   4.4694   4.4694   4.4694   4.4694   4.4694   4.4694   4.4694
     4.4694   4.4694   4.4694   4.4694   4.4694   4.4694   4.4694   4.4694
     4.4694   4.4694   4.4694   4.4694   4.4694   4.9326   4.9326   4.9326
     4.9326   4.9326   4.9326   4.9326   4.9326   4.9326   4.9326   4.9326
     4.9326   4.9326   4.9326   4.9326   4.9326   4.9326   4.9326   4.9326
     4.9326   4.9326   4.9326   4.9326   4.9326   5.0296   5.0296   5.0296
     5.0296   5.0296   5.0296   5.0296   5.0296   5.0296   5.0296   5.0296
     5.0296   5.0360   5.0360   5.0360   5.0360   5.0360   5.0360   5.0360
     5.0360   5.2349   5.2349   5.2349   5.2349   5.2349   5.2350   5.2350
     5.2350   5.2350   5.2350   5.2350   5.2351   5.2351   5.2351   5.2351
     5.2351   5.6794   5.6794   5.6794   5.6794   5.6794   5.6794   5.6794
     5.6794   5.6794   5.6794   5.6794   5.6794   5.7902   5.7902   5.7902
     5.7902   5.7902   5.7902   5.7902   5.7902   5.7902   5.7902   5.7902
     5.7903   5.7903   5.7903   5.7903   5.7903   6.2489   6.2489   6.2489

          k = 0.3536-0.3536 0.3536 (200016 PWs)   bands (ev):

    -5.7592  -5.7592  -5.5137  -5.5137  -5.5137  -5.5137  -5.5137  -5.5137
    -5.2727  -5.2727  -5.2727  -5.2727  -5.2727  -5.2727  -5.0379  -5.0379
    -5.0268  -5.0268  -5.0268  -5.0268  -5.0268  -5.0268  -4.7960  -4.7960
    -4.7960  -4.7960  -4.7960  -4.7960  -4.7960  -4.7960  -4.7960  -4.7960
    -4.7960  -4.7960  -4.5766  -4.5766  -4.5766  -4.5766  -4.5766  -4.5766
    -4.3434  -4.3434  -4.3434  -4.3434  -4.3434  -4.3434  -4.3074  -4.3074
    -4.3074  -4.3074  -4.3074  -4.3074  -4.1535  -4.1535  -4.1535  -4.1535
    -4.1535  -4.1535  -4.0962  -4.0962  -4.0962  -4.0962  -4.0962  -4.0962
    -4.0962  -4.0962  -4.0962  -4.0962  -4.0962  -4.0962  -3.9088  -3.9088
    -3.9088  -3.9088  -3.9088  -3.9088  -3.8122  -3.8122  -3.6904  -3.6904
    -3.6904  -3.6904  -3.6904  -3.6904  -3.6904  -3.6904  -3.6904  -3.6904
    -3.6904  -3.6904  -3.5713  -3.5713  -3.5713  -3.5713  -3.5713  -3.5713
    -3.5713  -3.5713  -3.5713  -3.5713  -3.5713  -3.5713  -3.4291  -3.4291
    -3.4291  -3.4291  -3.4291  -3.4291  -3.3713  -3.3713  -3.3713  -3.3713
    -3.3713  -3.3713  -3.1965  -3.1965  -3.1965  -3.1965  -3.1965  -3.1965
    -3.1965  -3.1965  -3.1965  -3.1965  -3.1965  -3.1965  -3.1894  -3.1894
    -3.1894  -3.1894  -3.1894  -3.1894  -3.1327  -3.1327  -3.1327  -3.1327
    -3.1327  -3.1327  -3.0814  -3.0814  -3.0814  -3.0814  -3.0814  -3.0814
    -2.9438  -2.9438  -2.9438  -2.9438  -2.9438  -2.9438  -2.9438  -2.9438
    -2.9438  -2.9438  -2.9438  -2.9438  -2.8819  -2.8819  -2.8819  -2.8819
    -2.8819  -2.8819  -2.8819  -2.8819  -2.8819  -2.8819  -2.8819  -2.8819
    -2.5158  -2.5158  -2.5158  -2.5158  -2.5158  -2.5158  -2.5158  -2.5158
    -2.5157  -2.5157  -2.5157  -2.5157  -2.2445  -2.2445  -2.2445  -2.2445
    -2.2445  -2.2445  -2.2442  -2.2442  -2.2442  -2.2442  -2.2442  -2.2442
    -2.1459  -2.1459  -2.1459  -2.1459  -2.1459  -2.1459  -2.1459  -2.1459
    -2.1459  -2.1459  -2.1459  -2.1459  -2.0306  -2.0306  -2.0306  -2.0306
    -2.0306  -2.0306  -2.0306  -2.0306  -2.0306  -2.0306  -2.0306  -2.0306
    -0.9601  -0.9601  -0.9601  -0.9601  -0.9601  -0.9601  -0.9573  -0.9573
    -0.9573  -0.9573  -0.9573  -0.9573  -0.9573  -0.9573  -0.9573  -0.9573
    -0.9573  -0.9573  -0.9497  -0.9497  -0.9497  -0.9497  -0.9497  -0.9497
    -0.9497  -0.9497  -0.9497  -0.9497  -0.9497  -0.9497  -0.8714  -0.8714
    -0.8714  -0.8714  -0.8714  -0.8714  -0.7286  -0.7286  -0.7286  -0.7286
    -0.7286  -0.7286  -0.6243  -0.6243  -0.6243  -0.6243  -0.6243  -0.6243
    -0.6243  -0.6243  -0.6242  -0.6242  -0.6242  -0.6242  -0.6160  -0.6160
    -0.6160  -0.6160  -0.6160  -0.6160  -0.5703  -0.5703  -0.5703  -0.5703
    -0.5703  -0.5703  -0.5703  -0.5703  -0.5703  -0.5703  -0.5703  -0.5703
    -0.3173  -0.3173  -0.2217  -0.2217  -0.2217  -0.2217  -0.2217  -0.2217
    -0.2217  -0.2217  -0.2217  -0.2217  -0.2217  -0.2217  -0.2025  -0.2025
    -0.2025  -0.2025  -0.2025  -0.2025  -0.2025  -0.2025  -0.2025  -0.2025
    -0.2025  -0.2025  -0.2006  -0.2006  -0.2006  -0.2006  -0.2006  -0.2006
    -0.1205  -0.1205  -0.1205  -0.1205  -0.1205  -0.1205   0.1820   0.1820
     0.1820   0.1820   0.1820   0.1820   0.1820   0.1820   0.1820   0.1820
     0.1820   0.1820   0.4122   0.4122   0.4122   0.4122   0.4122   0.4122
     0.4497   0.4497   0.4497   0.4497   0.4497   0.4497   0.5068   0.5068
     0.5068   0.5068   0.5068   0.5068   0.5232   0.5232   0.5232   0.5232
     0.5232   0.5232   0.5232   0.5232   0.5232   0.5232   0.5232   0.5232
     1.2352   1.2352   1.2352   1.2352   1.2352   1.2352   1.2352   1.2352
     1.2352   1.2352   1.2352   1.2352   1.3155   1.3155   1.3155   1.3155
     1.3155   1.3155   1.3358   1.3358   1.3358   1.3358   1.3358   1.3358
     1.7949   1.7949   1.7949   1.7949   1.7949   1.7949   1.8996   1.8996
     1.8996   1.8996   1.8997   1.8997   1.8997   1.8997   1.8997   1.8997
     1.8997   1.8997   1.9239   1.9239   1.9239   1.9239   1.9239   1.9239
     2.0541   2.0541   2.0541   2.0541   2.0541   2.0541   2.0541   2.0541
     2.0541   2.0541   2.0541   2.0541   2.1306   2.1306   2.1306   2.1306
     2.1306   2.1306   2.2325   2.2325   2.2325   2.2325   2.2325   2.2325
     2.2325   2.2325   2.2325   2.2325   2.2325   2.2325   2.2383   2.2383
     2.2383   2.2383   2.2383   2.2383   2.2383   2.2383   2.2383   2.2383
     2.2383   2.2383   2.2658   2.2658   2.3984   2.3984   2.3984   2.3984
     2.3984   2.3984   2.3984   2.3984   2.3984   2.3984   2.3984   2.3984
     2.6294   2.6294   2.6294   2.6294   2.6294   2.6294   2.6488   2.6488
     2.6488   2.6488   2.6488   2.6488   2.6488   2.6488   2.6488   2.6488
     2.6488   2.6488   2.7026   2.7026   2.7026   2.7026   2.7026   2.7026
     2.7026   2.7026   2.7026   2.7026   2.7026   2.7026   2.7353   2.7353
     2.7353   2.7353   2.7353   2.7353   2.7353   2.7353   2.7353   2.7353
     2.7353   2.7353   2.8579   2.8579   2.8579   2.8579   2.8579   2.8579
     2.8579   2.8579   2.8579   2.8579   2.8579   2.8579   3.0029   3.0029
     3.0029   3.0029   3.0029   3.0029   3.1008   3.1008   3.1008   3.1008
     3.1008   3.1008   3.1949   3.1949   3.1949   3.1949   3.1949   3.1949
     3.2113   3.2113   3.2113   3.2113   3.2113   3.2113   3.2113   3.2113
     3.2113   3.2113   3.2113   3.2113   3.2707   3.2707   3.2707   3.2707
     3.2707   3.2707   3.2748   3.2748   3.2748   3.2748   3.2748   3.2748
     3.2797   3.2797   3.2797   3.2797   3.2797   3.2797   3.3133   3.3133
     3.3133   3.3133   3.3133   3.3133   3.3133   3.3133   3.3133   3.3133
     3.3133   3.3133   3.4223   3.4223   3.4223   3.4223   3.4223   3.4223
     3.5507   3.5507   3.5507   3.5507   3.5507   3.5507   3.5507   3.5507
     3.5507   3.5507   3.5507   3.5507   3.5609   3.5609   3.5609   3.5609
     3.5609   3.5609   3.5609   3.5609   3.5609   3.5609   3.5609   3.5609
     3.6344   3.6344   3.6344   3.6344   3.6344   3.6344   3.6344   3.6344
     3.6344   3.6344   3.6344   3.6344   3.6416   3.6416   3.6416   3.6416
     3.6416   3.6416   3.7663   3.7663   3.7663   3.7663   3.7663   3.7663
     3.7730   3.7730   3.7730   3.7730   3.7730   3.7730   3.7730   3.7730
     3.7730   3.7730   3.7730   3.7730   3.8057   3.8057   3.8057   3.8057
     3.8057   3.8057   3.8410   3.8410   3.8410   3.8410   3.8410   3.8410
     4.0044   4.0044   4.0044   4.0044   4.0044   4.0044   4.0303   4.0303
     4.0303   4.0303   4.0303   4.0303   4.0303   4.0303   4.0303   4.0303
     4.0303   4.0303   4.0581   4.0581   4.0581   4.0581   4.0581   4.0581
     4.0581   4.0581   4.0581   4.0581   4.0581   4.0581   4.0717   4.0717
     4.0717   4.0717   4.0717   4.0717   4.2935   4.2935   4.2935   4.2935
     4.2935   4.2935   4.2935   4.2935   4.2935   4.2935   4.2935   4.2935
     4.3006   4.3006   4.3006   4.3006   4.3006   4.3006   4.3627   4.3627
     4.3627   4.3627   4.3627   4.3627   4.3859   4.3859   4.3859   4.3859
     4.3859   4.3859   4.4361   4.4361   4.4361   4.4361   4.4361   4.4361
     4.5000   4.5000   4.5000   4.5000   4.5000   4.5000   4.5610   4.5610
     4.5610   4.5610   4.5610   4.5610   4.5610   4.5610   4.5610   4.5610
     4.5610   4.5610   4.6311   4.6311   4.6311   4.6311   4.6311   4.6311
     4.6654   4.6654   4.6654   4.6654   4.6654   4.6654   4.6654   4.6654
     4.6654   4.6654   4.6654   4.6654   4.6766   4.6766   4.6766   4.6766
     4.6766   4.6766   4.6902   4.6902   4.6902   4.6902   4.6902   4.6902
     4.8282   4.8282   4.8282   4.8282   4.8282   4.8282   4.8532   4.8532
     4.8532   4.8532   4.8532   4.8532   4.9085   4.9085   4.9085   4.9085
     4.9085   4.9085   4.9460   4.9460   4.9460   4.9460   4.9460   4.9460
     5.0860   5.0860   5.0860   5.0860   5.2443   5.2443   5.2443   5.2443
     5.2443   5.2443   5.2522   5.2522   5.2522   5.2522   5.2522   5.2522
     5.2522   5.2522   5.2522   5.2522   5.2522   5.2522   5.3083   5.3083
     5.3083   5.3083   5.3083   5.3083   5.3779   5.3779   5.4366   5.4366
     5.4366   5.4366   5.4366   5.4366   5.4775   5.4775   5.4775   5.4775
     5.6346   5.6346   5.6346   5.6346   5.6346   5.6346   5.8933   5.8933
     5.8933   5.8933   5.8933   5.8933   6.1020   6.1020   6.1020   6.1020

          k = 0.0000-0.7071 0.0000 (199962 PWs)   bands (ev):

    -5.7282  -5.7282  -5.6057  -5.6057  -5.6057  -5.6057  -5.2405  -5.2405
    -5.2404  -5.2404  -5.2403  -5.2403  -5.2402  -5.2402  -5.1230  -5.1230
    -5.1230  -5.1230  -5.1230  -5.1230  -5.1230  -5.1230  -4.7747  -4.7747
    -4.7747  -4.7747  -4.7747  -4.7747  -4.7747  -4.7747  -4.7517  -4.7517
    -4.6389  -4.6389  -4.6389  -4.6389  -4.6389  -4.6389  -4.6389  -4.6389
    -4.3058  -4.3058  -4.3058  -4.3058  -4.3058  -4.3058  -4.3058  -4.3058
    -4.2091  -4.2091  -4.2091  -4.2091  -4.2091  -4.2091  -4.2091  -4.2091
    -4.2091  -4.2091  -4.2091  -4.2091  -4.2091  -4.2091  -4.2091  -4.2091
    -3.9362  -3.9362  -3.9362  -3.9362  -3.9362  -3.9362  -3.9362  -3.9362
    -3.8145  -3.8145  -3.8145  -3.8145  -3.8145  -3.8145  -3.8145  -3.8145
    -3.7697  -3.7697  -3.7697  -3.7697  -3.7209  -3.7209  -3.7209  -3.7209
    -3.7209  -3.7209  -3.7209  -3.7209  -3.5546  -3.5546  -3.5546  -3.5546
    -3.5546  -3.5546  -3.5546  -3.5546  -3.4565  -3.4565  -3.4565  -3.4565
    -3.4565  -3.4565  -3.4565  -3.4565  -3.4564  -3.4564  -3.4564  -3.4564
    -3.4564  -3.4564  -3.4564  -3.4564  -3.2208  -3.2208  -3.2208  -3.2208
    -3.2208  -3.2208  -3.2208  -3.2208  -3.0840  -3.0840  -3.0840  -3.0840
    -3.0840  -3.0840  -3.0840  -3.0840  -3.0839  -3.0839  -3.0839  -3.0839
    -3.0839  -3.0839  -3.0839  -3.0839  -3.0673  -3.0673  -3.0673  -3.0673
    -3.0673  -3.0673  -3.0673  -3.0673  -2.8689  -2.8689  -2.7888  -2.7888
    -2.7888  -2.7888  -2.7888  -2.7888  -2.7888  -2.7888  -2.7456  -2.7456
    -2.7456  -2.7456  -2.7456  -2.7456  -2.7456  -2.7456  -2.5914  -2.5914
    -2.5914  -2.5914  -2.5914  -2.5914  -2.5914  -2.5914  -2.5914  -2.5914
    -2.5914  -2.5914  -2.5913  -2.5913  -2.5913  -2.5913  -2.5675  -2.5675
    -2.5674  -2.5674  -2.5674  -2.5674  -2.5674  -2.5674  -2.2659  -2.2659
    -2.2659  -2.2659  -2.2659  -2.2659  -2.2659  -2.2659  -1.9811  -1.9811
    -1.9811  -1.9811  -1.9811  -1.9811  -1.9811  -1.9811  -1.7736  -1.7736
    -1.7736  -1.7736  -1.5977  -1.5977  -1.5977  -1.5977  -1.5977  -1.5977
    -1.5977  -1.5977  -1.4627  -1.4627  -1.4627  -1.4627  -1.3733  -1.3733
    -1.3733  -1.3733  -1.0693  -1.0693  -1.0693  -1.0693  -1.0693  -1.0693
    -1.0693  -1.0693  -0.7253  -0.7253  -0.7253  -0.7253  -0.7253  -0.7253
    -0.7253  -0.7253  -0.7157  -0.7157  -0.7157  -0.7157  -0.7157  -0.7157
    -0.7157  -0.7157  -0.6292  -0.6292  -0.6292  -0.6292  -0.6292  -0.6292
    -0.6292  -0.6292  -0.5494  -0.5494  -0.5494  -0.5494  -0.5494  -0.5494
    -0.5494  -0.5494  -0.5494  -0.5494  -0.5494  -0.5494  -0.5494  -0.5494
    -0.5494  -0.5494  -0.5454  -0.5454  -0.5454  -0.5454  -0.5454  -0.5454
    -0.5454  -0.5454  -0.4423  -0.4423  -0.4423  -0.4423  -0.4423  -0.4423
    -0.4422  -0.4422  -0.3775  -0.3775  -0.3775  -0.3775  -0.3775  -0.3775
    -0.3775  -0.3775  -0.3774  -0.3774  -0.3774  -0.3774  -0.3774  -0.3774
    -0.3774  -0.3774  -0.2979  -0.2979  -0.2979  -0.2979  -0.2979  -0.2979
    -0.2979  -0.2979  -0.2627  -0.2627  -0.0220  -0.0220  -0.0220  -0.0220
    -0.0220  -0.0220  -0.0220  -0.0220   0.0616   0.0616   0.0616   0.0616
     0.0616   0.0616   0.0616   0.0616   0.1568   0.1568   0.1568   0.1568
     0.1568   0.1568   0.1568   0.1568   0.1569   0.1569   0.1569   0.1569
     0.1569   0.1569   0.1569   0.1569   0.7193   0.7193   0.7193   0.7193
     0.7473   0.7473   0.7473   0.7473   0.7473   0.7473   0.7473   0.7473
     0.9115   0.9115   0.9115   0.9115   0.9115   0.9115   0.9115   0.9115
     0.9116   0.9116   0.9116   0.9116   0.9116   0.9116   0.9116   0.9116
     1.0295   1.0295   1.0295   1.0295   1.0295   1.0295   1.0295   1.0295
     1.5210   1.5210   1.5210   1.5210   1.5210   1.5210   1.5210   1.5210
     1.7879   1.7879   1.7879   1.7879   1.7879   1.7879   1.7879   1.7879
     1.8812   1.8812   1.8812   1.8812   1.8812   1.8812   1.8812   1.8812
     1.9252   1.9252   1.9252   1.9252   1.9252   1.9252   1.9252   1.9252
     1.9873   1.9873   1.9873   1.9873   1.9873   1.9873   1.9873   1.9873
     2.1982   2.1982   2.1982   2.1982   2.1982   2.1982   2.1982   2.1982
     2.1982   2.1982   2.1982   2.1982   2.1983   2.1983   2.1983   2.1983
     2.2570   2.2570   2.2570   2.2570   2.2570   2.2570   2.2570   2.2570
     2.2904   2.2904   2.2904   2.2904   2.3021   2.3021   2.3021   2.3021
     2.3030   2.3030   2.3030   2.3030   2.3030   2.3030   2.3030   2.3030
     2.3826   2.3826   2.3827   2.3827   2.3827   2.3827   2.3828   2.3828
     2.3970   2.3970   2.3970   2.3970   2.5792   2.5792   2.5792   2.5792
     2.5792   2.5792   2.5792   2.5792   2.5792   2.5792   2.5792   2.5792
     2.5792   2.5792   2.5792   2.5792   2.7170   2.7170   2.7754   2.7754
     2.7754   2.7754   2.7754   2.7754   2.7754   2.7754   2.9526   2.9526
     2.9526   2.9526   2.9526   2.9526   2.9526   2.9526   2.9526   2.9526
     2.9526   2.9526   2.9527   2.9527   2.9527   2.9527   3.0169   3.0169
     3.0170   3.0170   3.0170   3.0170   3.0171   3.0171   3.0192   3.0192
     3.0192   3.0192   3.0192   3.0192   3.0192   3.0192   3.0547   3.0547
     3.0547   3.0547   3.0547   3.0547   3.0547   3.0547   3.0686   3.0686
     3.0686   3.0686   3.0686   3.0686   3.0686   3.0686   3.0897   3.0897
     3.0897   3.0897   3.0897   3.0897   3.0897   3.0897   3.1894   3.1894
     3.1894   3.1894   3.1894   3.1894   3.1894   3.1894   3.2569   3.2569
     3.2569   3.2569   3.2569   3.2569   3.2569   3.2569   3.3432   3.3432
     3.3432   3.3432   3.3432   3.3432   3.3432   3.3432   3.4132   3.4132
     3.4132   3.4132   3.4132   3.4132   3.4132   3.4132   3.4562   3.4562
     3.4562   3.4562   3.4996   3.4996   3.4996   3.4996   3.4996   3.4996
     3.4996   3.4996   3.5418   3.5418   3.5418   3.5418   3.5693   3.5693
     3.5693   3.5693   3.5693   3.5693   3.5693   3.5693   3.5693   3.5693
     3.5693   3.5693   3.5693   3.5693   3.5693   3.5693   3.5995   3.5995
     3.5995   3.5995   3.5995   3.5995   3.5995   3.5995   3.7605   3.7605
     3.7605   3.7605   3.7605   3.7605   3.7606   3.7606   3.7606   3.7606
     3.7606   3.7606   3.7606   3.7606   3.7607   3.7607   3.7856   3.7856
     3.7856   3.7856   3.7856   3.7856   3.7856   3.7856   3.8620   3.8620
     3.8620   3.8620   3.8620   3.8620   3.8620   3.8620   3.9639   3.9639
     3.9639   3.9639   3.9639   3.9639   3.9639   3.9639   4.0765   4.0765
     4.0766   4.0766   4.0766   4.0766   4.0766   4.0766   4.0766   4.0766
     4.0766   4.0766   4.0766   4.0766   4.0766   4.0766   4.1271   4.1271
     4.1271   4.1271   4.1271   4.1271   4.1271   4.1271   4.1887   4.1887
     4.1887   4.1887   4.1887   4.1887   4.1887   4.1887   4.2355   4.2355
     4.2355   4.2355   4.2355   4.2355   4.2355   4.2355   4.2355   4.2355
     4.2356   4.2356   4.2356   4.2356   4.2356   4.2356   4.3215   4.3215
     4.3215   4.3215   4.3375   4.3375   4.3375   4.3375   4.3375   4.3375
     4.3375   4.3375   4.5221   4.5221   4.5221   4.5221   4.5221   4.5221
     4.5221   4.5221   4.5709   4.5709   4.5710   4.5710   4.5710   4.5710
     4.5710   4.5710   4.5714   4.5714   4.5714   4.5714   4.5714   4.5714
     4.5714   4.5714   4.5912   4.5912   4.5912   4.5912   4.5912   4.5912
     4.5912   4.5912   4.6438   4.6438   4.6438   4.6438   4.6451   4.6451
     4.6451   4.6451   4.6451   4.6451   4.6451   4.6451   4.8197   4.8197
     4.8197   4.8197   4.8197   4.8197   4.8197   4.8197   4.9007   4.9007
     4.9007   4.9007   4.9175   4.9175   4.9175   4.9175   4.9175   4.9175
     4.9175   4.9175   4.9176   4.9176   4.9176   4.9176   4.9176   4.9176
     4.9176   4.9176   4.9533   4.9533   4.9533   4.9533   4.9533   4.9533
     4.9533   4.9533   5.0002   5.0002   5.0002   5.0002   5.0002   5.0002
     5.0002   5.0002   5.1196   5.1196   5.1196   5.1196   5.1196   5.1196
     5.1196   5.1196   5.3049   5.3049   5.3049   5.3049   5.3049   5.3049
     5.3049   5.3049   5.3595   5.3595   5.3595   5.3595   5.5328   5.5328
     5.5329   5.5329   5.5329   5.5329   5.5329   5.5329   5.5548   5.5548
     5.5592   5.5592   5.5592   5.5592   5.5592   5.5592   5.5592   5.5592
     5.8073   5.8073   5.8073   5.8073   6.1315   6.1315   6.1315   6.1315

     highest occupied level (ev):     6.2489

!    total energy              =   -3682.98054273 Ry
     estimated scf accuracy    <          9.5E-13 Ry

     The total energy is the sum of the following terms:
     one-electron contribution =    1080.94960564 Ry
     hartree contribution      =     232.80906685 Ry
     xc contribution           =   -1343.80370179 Ry
     ewald contribution        =   -3652.93551343 Ry

     convergence has been achieved in  24 iterations

     Forces acting on atoms (cartesian axes, Ry/au):

     atom    1 type  1   force =     0.00000000    0.00000000    0.00000000
     atom    2 type  1   force =     0.00000025   -0.00000025   -0.00000025
     atom    3 type  1   force =     0.00000233   -0.00000233    0.00000185
     atom    4 type  1   force =    -0.00000001    0.00000001   -0.00000465
     atom    5 type  1   force =    -0.00000235    0.00000235    0.00000184
     atom    6 type  1   force =    -0.00000026    0.00000026   -0.00000025
     atom    7 type  1   force =     0.00000000    0.00000000   -0.00000002
     atom    8 type  1   force =     0.00000026   -0.00000026   -0.00000025
     atom    9 type  1   force =     0.00000235   -0.00000235    0.00000184
     atom   10 type  1   force =     0.00000001   -0.00000001   -0.00000465
     atom   11 type  1   force =    -0.00000233    0.00000233    0.00000185
     atom   12 type  1   force =    -0.00000025    0.00000025   -0.00000025
     atom   13 type  1   force =    -0.00000185   -0.00000233   -0.00000233
     atom   14 type  1   force =     0.00000465    0.00000001    0.00000001
     atom   15 type  1   force =    -0.00000209   -0.00000207    0.00000209
     atom   16 type  1   force =    -0.00000001    0.00000469    0.00000001
     atom   17 type  1   force =    -0.00000234   -0.00000183   -0.00000233
     atom   18 type  1   force =     0.00000233    0.00000233    0.00000185
     atom   19 type  1   force =    -0.00000183   -0.00000234   -0.00000233
     atom   20 type  1   force =     0.00000469   -0.00000001    0.00000001
     atom   21 type  1   force =    -0.00000207   -0.00000209    0.00000209
     atom   22 type  1   force =     0.00000001    0.00000465    0.00000001
     atom   23 type  1   force =    -0.00000233   -0.00000185   -0.00000233
     atom   24 type  1   force =     0.00000233    0.00000233    0.00000185
     atom   25 type  1   force =    -0.00000184    0.00000235    0.00000235
     atom   26 type  1   force =     0.00000025    0.00000026    0.00000026
     atom   27 type  1   force =     0.00000233   -0.00000183    0.00000234
     atom   28 type  1   force =    -0.00000185    0.00000233   -0.00000233
     atom   29 type  1   force =     0.00000024    0.00000024   -0.00000024
     atom   30 type  1   force =     0.00000233   -0.00000185   -0.00000233
     atom   31 type  1   force =    -0.00000183    0.00000233    0.00000234
     atom   32 type  1   force =     0.00000026    0.00000025    0.00000026
     atom   33 type  1   force =     0.00000235   -0.00000184    0.00000235
     atom   34 type  1   force =    -0.00000182    0.00000234   -0.00000232
     atom   35 type  1   force =     0.00000025    0.00000025   -0.00000023
     atom   36 type  1   force =     0.00000234   -0.00000182   -0.00000232
     atom   37 type  1   force =     0.00000002   -0.00000000    0.00000000
     atom   38 type  1   force =     0.00000025   -0.00000026   -0.00000026
     atom   39 type  1   force =     0.00000233   -0.00000234    0.00000183
     atom   40 type  1   force =    -0.00000001   -0.00000001   -0.00000469
     atom   41 type  1   force =    -0.00000234    0.00000233    0.00000183
     atom   42 type  1   force =    -0.00000026    0.00000025   -0.00000026
     atom   43 type  1   force =     0.00000000    0.00000002    0.00000000
     atom   44 type  1   force =     0.00000026   -0.00000021   -0.00000026
     atom   45 type  1   force =     0.00000236   -0.00000230    0.00000186
     atom   46 type  1   force =     0.00000003    0.00000003   -0.00000466
     atom   47 type  1   force =    -0.00000230    0.00000236    0.00000186
     atom   48 type  1   force =    -0.00000021    0.00000026   -0.00000026
     atom   49 type  1   force =    -0.00000184   -0.00000235   -0.00000235
     atom   50 type  1   force =     0.00000465   -0.00000001   -0.00000001
     atom   51 type  1   force =    -0.00000209   -0.00000209    0.00000207
     atom   52 type  1   force =    -0.00000001    0.00000465   -0.00000001
     atom   53 type  1   force =    -0.00000235   -0.00000184   -0.00000235
     atom   54 type  1   force =     0.00000232    0.00000234    0.00000182
     atom   55 type  1   force =    -0.00000186   -0.00000230   -0.00000236
     atom   56 type  1   force =     0.00000466    0.00000003   -0.00000003
     atom   57 type  1   force =    -0.00000208   -0.00000208    0.00000208
     atom   58 type  1   force =     0.00000003    0.00000466   -0.00000003
     atom   59 type  1   force =    -0.00000230   -0.00000186   -0.00000236
     atom   60 type  1   force =     0.00000234    0.00000232    0.00000182
     atom   61 type  1   force =    -0.00000185    0.00000233    0.00000233
     atom   62 type  1   force =     0.00000025    0.00000025    0.00000025
     atom   63 type  1   force =     0.00000233   -0.00000185    0.00000233
     atom   64 type  1   force =    -0.00000185    0.00000233   -0.00000233
     atom   65 type  1   force =     0.00000023    0.00000025   -0.00000025
     atom   66 type  1   force =     0.00000232   -0.00000182   -0.00000234
     atom   67 type  1   force =    -0.00000186    0.00000236    0.00000230
     atom   68 type  1   force =     0.00000026    0.00000026    0.00000021
     atom   69 type  1   force =     0.00000236   -0.00000186    0.00000230
     atom   70 type  1   force =    -0.00000182    0.00000232   -0.00000234
     atom   71 type  1   force =     0.00000025    0.00000023   -0.00000025
     atom   72 type  1   force =     0.00000233   -0.00000185   -0.00000233
     atom   73 type  1   force =     0.00000233    0.00000185   -0.00000233
     atom   74 type  1   force =    -0.00000001   -0.00000465    0.00000001
     atom   75 type  1   force =     0.00000207    0.00000209    0.00000209
     atom   76 type  1   force =    -0.00000469    0.00000001    0.00000001
     atom   77 type  1   force =     0.00000183    0.00000234   -0.00000233
     atom   78 type  1   force =    -0.00000233   -0.00000233    0.00000185
     atom   79 type  1   force =     0.00000234    0.00000183   -0.00000233
     atom   80 type  1   force =     0.00000001   -0.00000469    0.00000001
     atom   81 type  1   force =     0.00000209    0.00000207    0.00000209
     atom   82 type  1   force =    -0.00000465   -0.00000001    0.00000001
     atom   83 type  1   force =     0.00000185    0.00000233   -0.00000233
     atom   84 type  1   force =    -0.00000233   -0.00000233    0.00000185
     atom   85 type  1   force =    -0.00000209    0.00000209   -0.00000207
     atom   86 type  1   force =    -0.00000001    0.00000001    0.00000469
     atom   87 type  1   force =     0.00000208   -0.00000208   -0.00000208
     atom   88 type  1   force =    -0.00000210    0.00000210    0.00000210
     atom   89 type  1   force =    -0.00000000   -0.00000000   -0.00000465
     atom   90 type  1   force =     0.00000210   -0.00000210    0.00000210
     atom   91 type  1   force =    -0.00000208    0.00000208   -0.00000208
     atom   92 type  1   force =     0.00000001   -0.00000001    0.00000469
     atom   93 type  1   force =     0.00000209   -0.00000209   -0.00000207
     atom   94 type  1   force =    -0.00000208    0.00000208    0.00000210
     atom   95 type  1   force =     0.00000000    0.00000000   -0.00000465
     atom   96 type  1   force =     0.00000208   -0.00000208    0.00000210
     atom   97 type  1   force =     0.00000233    0.00000234   -0.00000183
     atom   98 type  1   force =    -0.00000185   -0.00000233    0.00000233
     atom   99 type  1   force =     0.00000465    0.00000000   -0.00000000
     atom  100 type  1   force =    -0.00000210   -0.00000210   -0.00000210
     atom  101 type  1   force =     0.00000000    0.00000465    0.00000000
     atom  102 type  1   force =    -0.00000233   -0.00000185    0.00000233
     atom  103 type  1   force =     0.00000234    0.00000233   -0.00000183
     atom  104 type  1   force =    -0.00000183   -0.00000234    0.00000234
     atom  105 type  1   force =     0.00000467   -0.00000000    0.00000001
     atom  106 type  1   force =    -0.00000208   -0.00000208   -0.00000208
     atom  107 type  1   force =    -0.00000000    0.00000467    0.00000001
     atom  108 type  1   force =    -0.00000234   -0.00000183    0.00000234
     atom  109 type  1   force =     0.00000233    0.00000183   -0.00000234
     atom  110 type  1   force =    -0.00000001   -0.00000469   -0.00000001
     atom  111 type  1   force =     0.00000208    0.00000208    0.00000208
     atom  112 type  1   force =    -0.00000469   -0.00000001   -0.00000001
     atom  113 type  1   force =     0.00000183    0.00000233   -0.00000234
     atom  114 type  1   force =    -0.00000234   -0.00000234    0.00000183
     atom  115 type  1   force =     0.00000234    0.00000184   -0.00000234
     atom  116 type  1   force =     0.00000001   -0.00000466   -0.00000001
     atom  117 type  1   force =     0.00000210    0.00000210    0.00000208
     atom  118 type  1   force =    -0.00000466    0.00000001   -0.00000001
     atom  119 type  1   force =     0.00000184    0.00000234   -0.00000234
     atom  120 type  1   force =    -0.00000234   -0.00000234    0.00000183
     atom  121 type  1   force =    -0.00000209    0.00000207   -0.00000209
     atom  122 type  1   force =    -0.00000001   -0.00000001    0.00000465
     atom  123 type  1   force =     0.00000207   -0.00000209   -0.00000209
     atom  124 type  1   force =    -0.00000210    0.00000208    0.00000208
     atom  125 type  1   force =    -0.00000001   -0.00000000   -0.00000467
     atom  126 type  1   force =     0.00000208   -0.00000208    0.00000208
     atom  127 type  1   force =    -0.00000208    0.00000210   -0.00000210
     atom  128 type  1   force =     0.00000001    0.00000001    0.00000466
     atom  129 type  1   force =     0.00000210   -0.00000208   -0.00000210
     atom  130 type  1   force =    -0.00000208    0.00000208    0.00000208
     atom  131 type  1   force =    -0.00000000   -0.00000001   -0.00000467
     atom  132 type  1   force =     0.00000208   -0.00000210    0.00000208
     atom  133 type  1   force =     0.00000233    0.00000233   -0.00000185
     atom  134 type  1   force =    -0.00000185   -0.00000233    0.00000233
     atom  135 type  1   force =     0.00000465   -0.00000000    0.00000000
     atom  136 type  1   force =    -0.00000210   -0.00000208   -0.00000208
     atom  137 type  1   force =    -0.00000001    0.00000467    0.00000000
     atom  138 type  1   force =    -0.00000234   -0.00000183    0.00000234
     atom  139 type  1   force =     0.00000234    0.00000234   -0.00000184
     atom  140 type  1   force =    -0.00000183   -0.00000234    0.00000234
     atom  141 type  1   force =     0.00000467   -0.00000001    0.00000000
     atom  142 type  1   force =    -0.00000208   -0.00000210   -0.00000208
     atom  143 type  1   force =    -0.00000000    0.00000465   -0.00000000
     atom  144 type  1   force =    -0.00000233   -0.00000185    0.00000233
     atom  145 type  1   force =    -0.00000235    0.00000184    0.00000235
     atom  146 type  1   force =    -0.00000026   -0.00000025    0.00000026
     atom  147 type  1   force =     0.00000183   -0.00000233    0.00000234
     atom  148 type  1   force =    -0.00000233    0.00000185   -0.00000233
     atom  149 type  1   force =    -0.00000024   -0.00000024   -0.00000024
     atom  150 type  1   force =     0.00000185   -0.00000233   -0.00000233
     atom  151 type  1   force =    -0.00000233    0.00000183    0.00000234
     atom  152 type  1   force =    -0.00000025   -0.00000026    0.00000026
     atom  153 type  1   force =     0.00000184   -0.00000235    0.00000235
     atom  154 type  1   force =    -0.00000234    0.00000182   -0.00000232
     atom  155 type  1   force =    -0.00000025   -0.00000025   -0.00000023
     atom  156 type  1   force =     0.00000182   -0.00000234   -0.00000232
     atom  157 type  1   force =    -0.00000234   -0.00000233   -0.00000183
     atom  158 type  1   force =     0.00000233    0.00000185    0.00000233
     atom  159 type  1   force =     0.00000000   -0.00000465    0.00000000
     atom  160 type  1   force =     0.00000210    0.00000210   -0.00000210
     atom  161 type  1   force =    -0.00000465    0.00000000   -0.00000000
     atom  162 type  1   force =     0.00000185    0.00000233    0.00000233
     atom  163 type  1   force =    -0.00000233   -0.00000234   -0.00000183
     atom  164 type  1   force =     0.00000234    0.00000183    0.00000234
     atom  165 type  1   force =     0.00000000   -0.00000467    0.00000001
     atom  166 type  1   force =     0.00000208    0.00000208   -0.00000208
     atom  167 type  1   force =    -0.00000467    0.00000000    0.00000001
     atom  168 type  1   force =     0.00000183    0.00000234    0.00000234
     atom  169 type  1   force =     0.00000024   -0.00000024    0.00000024
     atom  170 type  1   force =     0.00000233   -0.00000233   -0.00000185
     atom  171 type  1   force =     0.00000000    0.00000000    0.00000465
     atom  172 type  1   force =    -0.00000233    0.00000233   -0.00000185
     atom  173 type  1   force =    -0.00000024    0.00000024    0.00000024
     atom  174 type  1   force =     0.00000001   -0.00000001   -0.00000001
     atom  175 type  1   force =     0.00000026   -0.00000026    0.00000025
     atom  176 type  1   force =     0.00000235   -0.00000235   -0.00000185
     atom  177 type  1   force =     0.00000000    0.00000000    0.00000466
     atom  178 type  1   force =    -0.00000235    0.00000235   -0.00000185
     atom  179 type  1   force =    -0.00000026    0.00000026    0.00000025
     atom  180 type  1   force =    -0.00000001    0.00000001   -0.00000001
     atom  181 type  1   force =    -0.00000234    0.00000183    0.00000233
     atom  182 type  1   force =    -0.00000026   -0.00000026    0.00000025
     atom  183 type  1   force =     0.00000183   -0.00000234    0.00000233
     atom  184 type  1   force =    -0.00000234    0.00000183   -0.00000234
     atom  185 type  1   force =    -0.00000025   -0.00000026   -0.00000026
     atom  186 type  1   force =     0.00000185   -0.00000235   -0.00000235
     atom  187 type  1   force =    -0.00000232    0.00000184    0.00000232
     atom  188 type  1   force =    -0.00000024   -0.00000024    0.00000024
     atom  189 type  1   force =     0.00000184   -0.00000232    0.00000232
     atom  190 type  1   force =    -0.00000235    0.00000185   -0.00000235
     atom  191 type  1   force =    -0.00000026   -0.00000025   -0.00000026
     atom  192 type  1   force =     0.00000183   -0.00000234   -0.00000234
     atom  193 type  1   force =    -0.00000235   -0.00000235   -0.00000184
     atom  194 type  1   force =     0.00000232    0.00000182    0.00000234
     atom  195 type  1   force =    -0.00000001   -0.00000467   -0.00000000
     atom  196 type  1   force =     0.00000208    0.00000208   -0.00000208
     atom  197 type  1   force =    -0.00000466   -0.00000000    0.00000000
     atom  198 type  1   force =     0.00000185    0.00000235    0.00000235
     atom  199 type  1   force =    -0.00000232   -0.00000232   -0.00000184
     atom  200 type  1   force =     0.00000235    0.00000185    0.00000235
     atom  201 type  1   force =    -0.00000000   -0.00000466   -0.00000000
     atom  202 type  1   force =     0.00000208    0.00000208   -0.00000208
     atom  203 type  1   force =    -0.00000467   -0.00000001   -0.00000000
     atom  204 type  1   force =     0.00000182    0.00000232    0.00000234
     atom  205 type  1   force =     0.00000023   -0.00000025    0.00000025
     atom  206 type  1   force =     0.00000232   -0.00000234   -0.00000182
     atom  207 type  1   force =    -0.00000001    0.00000000    0.00000467
     atom  208 type  1   force =    -0.00000234    0.00000234   -0.00000183
     atom  209 type  1   force =    -0.00000025    0.00000026    0.00000026
     atom  210 type  1   force =     0.00000001    0.00000001    0.00000001
     atom  211 type  1   force =     0.00000026   -0.00000025    0.00000026
     atom  212 type  1   force =     0.00000234   -0.00000234   -0.00000183
     atom  213 type  1   force =     0.00000000   -0.00000001    0.00000467
     atom  214 type  1   force =    -0.00000234    0.00000232   -0.00000182
     atom  215 type  1   force =    -0.00000025    0.00000023    0.00000025
     atom  216 type  1   force =    -0.00000000   -0.00000000    0.00000000
     atom  217 type  1   force =     0.00000000   -0.00000002    0.00000000
     atom  218 type  1   force =     0.00000026   -0.00000025   -0.00000026
     atom  219 type  1   force =     0.00000234   -0.00000233    0.00000183
     atom  220 type  1   force =     0.00000001    0.00000001   -0.00000469
     atom  221 type  1   force =    -0.00000233    0.00000234    0.00000183
     atom  222 type  1   force =    -0.00000025    0.00000026   -0.00000026
     atom  223 type  1   force =    -0.00000002    0.00000000    0.00000000
     atom  224 type  1   force =     0.00000021   -0.00000026   -0.00000026
     atom  225 type  1   force =     0.00000230   -0.00000236    0.00000186
     atom  226 type  1   force =    -0.00000003   -0.00000003   -0.00000466
     atom  227 type  1   force =    -0.00000236    0.00000230    0.00000186
     atom  228 type  1   force =    -0.00000026    0.00000021   -0.00000026
     atom  229 type  1   force =    -0.00000183   -0.00000233   -0.00000234
     atom  230 type  1   force =     0.00000469    0.00000001   -0.00000001
     atom  231 type  1   force =    -0.00000208   -0.00000208    0.00000208
     atom  232 type  1   force =     0.00000001    0.00000469   -0.00000001
     atom  233 type  1   force =    -0.00000233   -0.00000183   -0.00000234
     atom  234 type  1   force =     0.00000234    0.00000234    0.00000183
     atom  235 type  1   force =    -0.00000184   -0.00000234   -0.00000234
     atom  236 type  1   force =     0.00000466   -0.00000001   -0.00000001
     atom  237 type  1   force =    -0.00000210   -0.00000210    0.00000208
     atom  238 type  1   force =    -0.00000001    0.00000466   -0.00000001
     atom  239 type  1   force =    -0.00000234   -0.00000184   -0.00000234
     atom  240 type  1   force =     0.00000234    0.00000234    0.00000183
     atom  241 type  1   force =    -0.00000183    0.00000234    0.00000233
     atom  242 type  1   force =     0.00000026    0.00000026    0.00000025
     atom  243 type  1   force =     0.00000234   -0.00000183    0.00000233
     atom  244 type  1   force =    -0.00000183    0.00000234   -0.00000234
     atom  245 type  1   force =     0.00000026    0.00000025   -0.00000026
     atom  246 type  1   force =     0.00000235   -0.00000185   -0.00000235
     atom  247 type  1   force =    -0.00000184    0.00000232    0.00000232
     atom  248 type  1   force =     0.00000024    0.00000024    0.00000024
     atom  249 type  1   force =     0.00000232   -0.00000184    0.00000232
     atom  250 type  1   force =    -0.00000185    0.00000235   -0.00000235
     atom  251 type  1   force =     0.00000025    0.00000026   -0.00000026
     atom  252 type  1   force =     0.00000234   -0.00000183   -0.00000234
     atom  253 type  1   force =     0.00000000    0.00000000    0.00000002
     atom  254 type  1   force =     0.00000026   -0.00000026   -0.00000021
     atom  255 type  1   force =     0.00000234   -0.00000234    0.00000184
     atom  256 type  1   force =     0.00000001   -0.00000001   -0.00000466
     atom  257 type  1   force =    -0.00000232    0.00000232    0.00000184
     atom  258 type  1   force =    -0.00000024    0.00000024   -0.00000024
     atom  259 type  1   force =     0.00000000    0.00000000   -0.00000000
     atom  260 type  1   force =     0.00000024   -0.00000024   -0.00000024
     atom  261 type  1   force =     0.00000232   -0.00000232    0.00000184
     atom  262 type  1   force =    -0.00000001    0.00000001   -0.00000466
     atom  263 type  1   force =    -0.00000234    0.00000234    0.00000184
     atom  264 type  1   force =    -0.00000026    0.00000026   -0.00000021
     atom  265 type  1   force =    -0.00000186   -0.00000236   -0.00000230
     atom  266 type  1   force =     0.00000466   -0.00000003    0.00000003
     atom  267 type  1   force =    -0.00000208   -0.00000210    0.00000210
     atom  268 type  1   force =     0.00000001    0.00000466    0.00000001
     atom  269 type  1   force =    -0.00000232   -0.00000184   -0.00000232
     atom  270 type  1   force =     0.00000235    0.00000235    0.00000185
     atom  271 type  1   force =    -0.00000184   -0.00000232   -0.00000232
     atom  272 type  1   force =     0.00000466    0.00000001    0.00000001
     atom  273 type  1   force =    -0.00000210   -0.00000208    0.00000210
     atom  274 type  1   force =    -0.00000003    0.00000466    0.00000003
     atom  275 type  1   force =    -0.00000236   -0.00000186   -0.00000230
     atom  276 type  1   force =     0.00000230    0.00000230    0.00000186
     atom  277 type  1   force =    -0.00000186    0.00000230    0.00000236
     atom  278 type  1   force =     0.00000026    0.00000021    0.00000026
     atom  279 type  1   force =     0.00000234   -0.00000184    0.00000234
     atom  280 type  1   force =    -0.00000183    0.00000234   -0.00000234
     atom  281 type  1   force =     0.00000026    0.00000026   -0.00000025
     atom  282 type  1   force =     0.00000234   -0.00000183   -0.00000234
     atom  283 type  1   force =    -0.00000184    0.00000234    0.00000234
     atom  284 type  1   force =     0.00000021    0.00000026    0.00000026
     atom  285 type  1   force =     0.00000230   -0.00000186    0.00000236
     atom  286 type  1   force =    -0.00000186    0.00000230   -0.00000230
     atom  287 type  1   force =     0.00000022    0.00000022   -0.00000022
     atom  288 type  1   force =     0.00000230   -0.00000186   -0.00000230
     atom  289 type  1   force =     0.00000235    0.00000184   -0.00000235
     atom  290 type  1   force =     0.00000001   -0.00000465   -0.00000001
     atom  291 type  1   force =     0.00000209    0.00000209    0.00000207
     atom  292 type  1   force =    -0.00000465    0.00000001   -0.00000001
     atom  293 type  1   force =     0.00000184    0.00000235   -0.00000235
     atom  294 type  1   force =    -0.00000234   -0.00000232    0.00000182
     atom  295 type  1   force =     0.00000230    0.00000186   -0.00000236
     atom  296 type  1   force =    -0.00000003   -0.00000466   -0.00000003
     atom  297 type  1   force =     0.00000208    0.00000208    0.00000208
     atom  298 type  1   force =    -0.00000466   -0.00000003   -0.00000003
     atom  299 type  1   force =     0.00000186    0.00000230   -0.00000236
     atom  300 type  1   force =    -0.00000232   -0.00000234    0.00000182
     atom  301 type  1   force =    -0.00000207    0.00000209   -0.00000209
     atom  302 type  1   force =     0.00000001    0.00000001    0.00000465
     atom  303 type  1   force =     0.00000209   -0.00000207   -0.00000209
     atom  304 type  1   force =    -0.00000208    0.00000210    0.00000208
     atom  305 type  1   force =     0.00000000    0.00000001   -0.00000467
     atom  306 type  1   force =     0.00000208   -0.00000208    0.00000208
     atom  307 type  1   force =    -0.00000210    0.00000208   -0.00000210
     atom  308 type  1   force =    -0.00000001   -0.00000001    0.00000466
     atom  309 type  1   force =     0.00000208   -0.00000210   -0.00000210
     atom  310 type  1   force =    -0.00000208    0.00000208    0.00000208
     atom  311 type  1   force =     0.00000001    0.00000000   -0.00000467
     atom  312 type  1   force =     0.00000210   -0.00000208    0.00000208
     atom  313 type  1   force =     0.00000235    0.00000235   -0.00000184
     atom  314 type  1   force =    -0.00000182   -0.00000232    0.00000234
     atom  315 type  1   force =     0.00000467    0.00000001   -0.00000000
     atom  316 type  1   force =    -0.00000208   -0.00000208   -0.00000208
     atom  317 type  1   force =     0.00000000    0.00000466    0.00000000
     atom  318 type  1   force =    -0.00000235   -0.00000185    0.00000235
     atom  319 type  1   force =     0.00000232    0.00000232   -0.00000184
     atom  320 type  1   force =    -0.00000185   -0.00000235    0.00000235
     atom  321 type  1   force =     0.00000466    0.00000000    0.00000000
     atom  322 type  1   force =    -0.00000208   -0.00000208   -0.00000208
     atom  323 type  1   force =     0.00000001    0.00000467   -0.00000000
     atom  324 type  1   force =    -0.00000232   -0.00000182    0.00000234
     atom  325 type  1   force =     0.00000236    0.00000186   -0.00000230
     atom  326 type  1   force =     0.00000003   -0.00000466    0.00000003
     atom  327 type  1   force =     0.00000210    0.00000208    0.00000210
     atom  328 type  1   force =    -0.00000466   -0.00000001    0.00000001
     atom  329 type  1   force =     0.00000184    0.00000232   -0.00000232
     atom  330 type  1   force =    -0.00000235   -0.00000235    0.00000185
     atom  331 type  1   force =     0.00000232    0.00000184   -0.00000232
     atom  332 type  1   force =    -0.00000001   -0.00000466    0.00000001
     atom  333 type  1   force =     0.00000208    0.00000210    0.00000210
     atom  334 type  1   force =    -0.00000466    0.00000003    0.00000003
     atom  335 type  1   force =     0.00000186    0.00000236   -0.00000230
     atom  336 type  1   force =    -0.00000230   -0.00000230    0.00000186
     atom  337 type  1   force =    -0.00000208    0.00000208   -0.00000208
     atom  338 type  1   force =     0.00000003   -0.00000003    0.00000466
     atom  339 type  1   force =     0.00000210   -0.00000210   -0.00000208
     atom  340 type  1   force =    -0.00000208    0.00000208    0.00000208
     atom  341 type  1   force =     0.00000000    0.00000000   -0.00000466
     atom  342 type  1   force =     0.00000208   -0.00000208    0.00000208
     atom  343 type  1   force =    -0.00000210    0.00000210   -0.00000208
     atom  344 type  1   force =    -0.00000003    0.00000003    0.00000466
     atom  345 type  1   force =     0.00000208   -0.00000208   -0.00000208
     atom  346 type  1   force =    -0.00000208    0.00000208    0.00000208
     atom  347 type  1   force =     0.00000000   -0.00000000   -0.00000467
     atom  348 type  1   force =     0.00000208   -0.00000208    0.00000208
     atom  349 type  1   force =     0.00000236    0.00000230   -0.00000186
     atom  350 type  1   force =    -0.00000182   -0.00000234    0.00000232
     atom  351 type  1   force =     0.00000467    0.00000000   -0.00000001
     atom  352 type  1   force =    -0.00000208   -0.00000208   -0.00000210
     atom  353 type  1   force =     0.00000000    0.00000467   -0.00000001
     atom  354 type  1   force =    -0.00000234   -0.00000182    0.00000232
     atom  355 type  1   force =     0.00000230    0.00000236   -0.00000186
     atom  356 type  1   force =    -0.00000186   -0.00000230    0.00000230
     atom  357 type  1   force =     0.00000467   -0.00000000    0.00000000
     atom  358 type  1   force =    -0.00000208   -0.00000208   -0.00000208
     atom  359 type  1   force =    -0.00000000    0.00000467   -0.00000000
     atom  360 type  1   force =    -0.00000230   -0.00000186    0.00000230
     atom  361 type  1   force =    -0.00000233    0.00000185    0.00000233
     atom  362 type  1   force =    -0.00000025   -0.00000025    0.00000025
     atom  363 type  1   force =     0.00000185   -0.00000233    0.00000233
     atom  364 type  1   force =    -0.00000233    0.00000185   -0.00000233
     atom  365 type  1   force =    -0.00000025   -0.00000023   -0.00000025
     atom  366 type  1   force =     0.00000182   -0.00000232   -0.00000234
     atom  367 type  1   force =    -0.00000236    0.00000186    0.00000230
     atom  368 type  1   force =    -0.00000026   -0.00000026    0.00000021
     atom  369 type  1   force =     0.00000186   -0.00000236    0.00000230
     atom  370 type  1   force =    -0.00000232    0.00000182   -0.00000234
     atom  371 type  1   force =    -0.00000023   -0.00000025   -0.00000025
     atom  372 type  1   force =     0.00000185   -0.00000233   -0.00000233
     atom  373 type  1   force =    -0.00000233   -0.00000233   -0.00000185
     atom  374 type  1   force =     0.00000233    0.00000185    0.00000233
     atom  375 type  1   force =    -0.00000000   -0.00000465   -0.00000000
     atom  376 type  1   force =     0.00000208    0.00000210   -0.00000208
     atom  377 type  1   force =    -0.00000467    0.00000001    0.00000000
     atom  378 type  1   force =     0.00000183    0.00000234    0.00000234
     atom  379 type  1   force =    -0.00000234   -0.00000234   -0.00000184
     atom  380 type  1   force =     0.00000234    0.00000183    0.00000234
     atom  381 type  1   force =     0.00000001   -0.00000467    0.00000000
     atom  382 type  1   force =     0.00000210    0.00000208   -0.00000208
     atom  383 type  1   force =    -0.00000465    0.00000000   -0.00000000
     atom  384 type  1   force =     0.00000185    0.00000233    0.00000233
     atom  385 type  1   force =     0.00000025   -0.00000023    0.00000025
     atom  386 type  1   force =     0.00000234   -0.00000232   -0.00000182
     atom  387 type  1   force =    -0.00000000    0.00000001    0.00000467
     atom  388 type  1   force =    -0.00000234    0.00000234   -0.00000183
     atom  389 type  1   force =    -0.00000026    0.00000025    0.00000026
     atom  390 type  1   force =    -0.00000001   -0.00000001    0.00000001
     atom  391 type  1   force =     0.00000025   -0.00000026    0.00000026
     atom  392 type  1   force =     0.00000234   -0.00000234   -0.00000183
     atom  393 type  1   force =     0.00000001   -0.00000000    0.00000467
     atom  394 type  1   force =    -0.00000232    0.00000234   -0.00000182
     atom  395 type  1   force =    -0.00000023    0.00000025    0.00000025
     atom  396 type  1   force =     0.00000000    0.00000000    0.00000000
     atom  397 type  1   force =    -0.00000230    0.00000186    0.00000236
     atom  398 type  1   force =    -0.00000021   -0.00000026    0.00000026
     atom  399 type  1   force =     0.00000184   -0.00000234    0.00000234
     atom  400 type  1   force =    -0.00000234    0.00000183   -0.00000234
     atom  401 type  1   force =    -0.00000026   -0.00000026   -0.00000025
     atom  402 type  1   force =     0.00000183   -0.00000234   -0.00000234
     atom  403 type  1   force =    -0.00000234    0.00000184    0.00000234
     atom  404 type  1   force =    -0.00000026   -0.00000021    0.00000026
     atom  405 type  1   force =     0.00000186   -0.00000230    0.00000236
     atom  406 type  1   force =    -0.00000230    0.00000186   -0.00000230
     atom  407 type  1   force =    -0.00000022   -0.00000022   -0.00000022
     atom  408 type  1   force =     0.00000186   -0.00000230   -0.00000230
     atom  409 type  1   force =    -0.00000230   -0.00000236   -0.00000186
     atom  410 type  1   force =     0.00000234    0.00000182    0.00000232
     atom  411 type  1   force =    -0.00000000   -0.00000467   -0.00000001
     atom  412 type  1   force =     0.00000208    0.00000208   -0.00000210
     atom  413 type  1   force =    -0.00000467   -0.00000000   -0.00000001
     atom  414 type  1   force =     0.00000182    0.00000234    0.00000232
     atom  415 type  1   force =    -0.00000236   -0.00000230   -0.00000186
     atom  416 type  1   force =     0.00000230    0.00000186    0.00000230
     atom  417 type  1   force =     0.00000000   -0.00000467    0.00000000
     atom  418 type  1   force =     0.00000208    0.00000208   -0.00000208
     atom  419 type  1   force =    -0.00000467    0.00000000   -0.00000000
     atom  420 type  1   force =     0.00000186    0.00000230    0.00000230
     atom  421 type  1   force =     0.00000025   -0.00000025    0.00000023
     atom  422 type  1   force =     0.00000233   -0.00000233   -0.00000185
     atom  423 type  1   force =    -0.00000000   -0.00000000    0.00000465
     atom  424 type  1   force =    -0.00000233    0.00000233   -0.00000185
     atom  425 type  1   force =    -0.00000025    0.00000025    0.00000023
     atom  426 type  1   force =    -0.00000000    0.00000000   -0.00000000
     atom  427 type  1   force =     0.00000022   -0.00000022    0.00000022
     atom  428 type  1   force =     0.00000230   -0.00000230   -0.00000186
     atom  429 type  1   force =     0.00000000    0.00000000    0.00000467
     atom  430 type  1   force =    -0.00000230    0.00000230   -0.00000186
     atom  431 type  1   force =    -0.00000022    0.00000022    0.00000022
     atom  432 type  1   force =     0.00000000   -0.00000000   -0.00000000

     Total force =     0.000075     Total SCF correction =     0.000002

     Writing all to output data dir ./tmp/si_sup.save/ :
     XML data file, charge density, pseudopotentials, collected wavefunctions
 
     init_run     :    205.42s CPU    212.29s WALL (       1 calls)
     electrons    :   7525.13s CPU   7636.57s WALL (       1 calls)
     forces       :    109.65s CPU    110.68s WALL (       1 calls)

     Called by init_run:
     wfcinit      :    204.61s CPU    211.42s WALL (       1 calls)
     potinit      :      0.06s CPU      0.07s WALL (       1 calls)
     hinit0       :      0.28s CPU      0.30s WALL (       1 calls)

     Called by electrons:
     c_bands      :   7110.26s CPU   7213.34s WALL (      25 calls)
     sum_band     :    412.69s CPU    421.00s WALL (      25 calls)
     v_of_rho     :      0.89s CPU      0.90s WALL (      25 calls)
     mix_rho      :      1.12s CPU      1.13s WALL (      25 calls)

     Called by c_bands:
     init_us_2    :    129.43s CPU    130.60s WALL (     156 calls)
     cegterg      :   6840.56s CPU   6939.72s WALL (      75 calls)

     Called by *egterg:
     cdiaghg      :    397.72s CPU    404.77s WALL (     310 calls)
     h_psi        :   5206.49s CPU   5264.13s WALL (     316 calls)
     g_psi        :      5.38s CPU      5.39s WALL (     238 calls)

     Called by h_psi:
     h_psi:calbec :   1902.07s CPU   1906.31s WALL (     316 calls)
     vloc_psi     :   1358.72s CPU   1385.49s WALL (     316 calls)
     add_vuspsi   :   1939.14s CPU   1953.19s WALL (     316 calls)

     General routines
     calbec       :   2004.04s CPU   2008.46s WALL (     328 calls)
     fft          :      0.55s CPU      0.58s WALL (      79 calls)
     ffts         :      0.15s CPU      0.16s WALL (      25 calls)
     fftw         :   1167.83s CPU   1200.74s WALL (  401386 calls)
 
     Parallel routines
 
     PWSCF        :      2h10m CPU      2h12m WALL

 
   This run was terminated on:  16:14:25   1May2026            

=------------------------------------------------------------------------------=
   JOB DONE.
=------------------------------------------------------------------------------=
