
     Program PWSCF v.7.4 starts on 12May2026 at 12:49:48 

     This program is part of the open-source Quantum ESPRESSO suite
     for quantum simulation of materials; please cite
         "P. Giannozzi et al., J. Phys.:Condens. Matter 21 395502 (2009);
         "P. Giannozzi et al., J. Phys.:Condens. Matter 29 465901 (2017);
         "P. Giannozzi et al., J. Chem. Phys. 152 154105 (2020);
          URL http://www.quantum-espresso.org", 
     in publications or presentations arising from this work. More details at
     http://www.quantum-espresso.org/quote

     Parallel version (MPI), running on    12 processors

     MPI processes distributed on     1 nodes
     176916 MiB available memory on the printing compute node when the environment starts
 
     Reading input from c_sup.scf.in

     Current dimensions of program PWSCF are:
     Max number of different atomic species (ntypx) = 10
     Max number of k-points (npk) =  40000
     Max angular momentum in pseudopotentials (lmaxx) =  4
read_pp_mesh; mismatch in mesh size, discarding the one in header
     Found identity + (  0.5000  0.0000  0.0000) symmetry
     This is a supercell, fractional translations are disabled
     Message from routine setup:
     using ibrav=0 with symmetry is DISCOURAGED, use correct ibrav instead
 
     R & G space division:  proc/nbgrp/npool/nimage =      12
     Subspace diagonalization in iterative solution of the eigenvalue problem:
     a serial algorithm will be used

 
     Parallelization info
     --------------------
     sticks:   dense  smooth     PW     G-vecs:    dense   smooth      PW
     Min         199     199     54                28481    28481    4042
     Max         200     200     55                28494    28494    4059
     Sum        2395    2395    649               341861   341861   48543
 
     Using Slab Decomposition
 


     bravais-lattice index     =            0
     lattice parameter (alat)  =       9.3176  a.u.
     unit-cell volume          =    2529.0393 (a.u.)^3
     number of atoms/cell      =            8
     number of atomic types    =            1
     number of electrons       =        32.00
     number of Kohn-Sham states=           20
     kinetic-energy cutoff     =     100.0000  Ry
     charge density cutoff     =     400.0000  Ry
     scf convergence threshold =      1.0E-16
     mixing beta               =       0.7000
     number of iterations used =            8  plain     mixing
     Exchange-correlation= SLA PW NOGX NOGC
                           (   1   4   0   0   0   0   0)

     celldm(1)=   9.317578  celldm(2)=   0.000000  celldm(3)=   0.000000
     celldm(4)=   0.000000  celldm(5)=   0.000000  celldm(6)=   0.000000

     crystal axes: (cart. coord. in units of alat)
               a(1) = (   1.000000   0.000000   0.000000 )  
               a(2) = (  -0.500000   0.866025   0.000000 )  
               a(3) = (   0.000000   0.000000   3.610072 )  

     reciprocal axes: (cart. coord. in units 2 pi/alat)
               b(1) = (  1.000000  0.577350  0.000000 )  
               b(2) = (  0.000000  1.154701  0.000000 )  
               b(3) = (  0.000000  0.000000  0.277003 )  


     PseudoPot. # 1 for C  read from file:
     ./C.upf
     MD5 check sum: 1b594deb0bcc8b4bffb8cfaf75c62b92
     Pseudo is Projector augmented-wave + core cor, Zval =  4.0
     Generated using ATOMPAW code
     Shape of augmentation charge: SINC**2
     Using radial grid of 2342 points,  4 beta functions with: 
                l(1) =   0
                l(2) =   0
                l(3) =   1
                l(4) =   1
     Q(r) pseudized with 0 coefficients 


     atomic species   valence    mass     pseudopotential
     C                 4.00    12.01070     C ( 1.00)

     12 Sym. Ops. (no inversion) found



   Cartesian axes

     site n.     atom                  positions (alat units)
         1        C      tau(   1) = (   0.0000000   0.0000000   1.8050358  )
         2        C      tau(   2) = (   0.0000005   0.2886748   1.8050358  )
         3        C      tau(   3) = (   0.5000000   0.0000000   1.8050358  )
         4        C      tau(   4) = (   0.5000005   0.2886748   1.8050358  )
         5        C      tau(   5) = (  -0.2500000   0.4330127   1.8050358  )
         6        C      tau(   6) = (  -0.2499995   0.7216875   1.8050358  )
         7        C      tau(   7) = (   0.2500000   0.4330127   1.8050358  )
         8        C      tau(   8) = (   0.2500005   0.7216875   1.8050358  )

     number of k points=    24  Marzari-Vanderbilt smearing, width (Ry)=  0.0200
                       cart. coord. in units 2pi/alat
        k(    1) = (   0.0000000   0.0000000   0.0000000), wk =   0.0102041
        k(    2) = (   0.0000000   0.0824786   0.0000000), wk =   0.0612245
        k(    3) = (   0.0000000   0.1649572   0.0000000), wk =   0.0612245
        k(    4) = (   0.0000000   0.2474358   0.0000000), wk =   0.0612245
        k(    5) = (   0.0000000   0.3299144   0.0000000), wk =   0.0612245
        k(    6) = (   0.0000000   0.4123930   0.0000000), wk =   0.0612245
        k(    7) = (   0.0000000   0.4948717   0.0000000), wk =   0.0612245
        k(    8) = (   0.0000000  -0.5773503   0.0000000), wk =   0.0306122
        k(    9) = (   0.0714286   0.1237179   0.0000000), wk =   0.0612245
        k(   10) = (   0.0714286   0.2061965   0.0000000), wk =   0.1224490
        k(   11) = (   0.0714286   0.2886751   0.0000000), wk =   0.1224490
        k(   12) = (   0.0714286   0.3711537   0.0000000), wk =   0.1224490
        k(   13) = (   0.0714286   0.4536324   0.0000000), wk =   0.1224490
        k(   14) = (   0.0714286   0.5361110   0.0000000), wk =   0.1224490
        k(   15) = (   0.1428571   0.2474358   0.0000000), wk =   0.0612245
        k(   16) = (   0.1428571   0.3299144   0.0000000), wk =   0.1224490
        k(   17) = (   0.1428571   0.4123930   0.0000000), wk =   0.1224490
        k(   18) = (   0.1428571   0.4948717   0.0000000), wk =   0.1224490
        k(   19) = (   0.1428571   0.5773503   0.0000000), wk =   0.0612245
        k(   20) = (   0.2142857   0.3711537   0.0000000), wk =   0.0612245
        k(   21) = (   0.2142857   0.4536324   0.0000000), wk =   0.1224490
        k(   22) = (   0.2142857   0.5361110   0.0000000), wk =   0.1224490
        k(   23) = (   0.2857143   0.4948717   0.0000000), wk =   0.0612245
        k(   24) = (   0.2857143   0.5773503   0.0000000), wk =   0.0612245

     Dense  grid:   341861 G-vectors     FFT dimensions: (  60,  60, 216)

     Estimated max dynamical RAM per process >      75.87 MB

     Estimated total dynamical RAM >     910.43 MB
 ----2D----2D----2D----2D----2D----2D----2D----2D----2D----2D----2D----2D
  The code is running with the 2D cutoff
  Please refer to:
  Sohier, T., Calandra, M., & Mauri, F. (2017), 
  Density functional perturbation theory for gated two-dimensional heterostructu
 res:
  Theoretical developments and application to flexural phonons in graphene.
  Physical Review B, 96(7), 75448. https://doi.org/10.1103/PhysRevB.96.075448
 ----2D----2D----2D----2D----2D----2D----2D----2D----2D----2D----2D----2D

     Check: negative core charge=   -0.000011

     Initial potential from superposition of free atoms

     starting charge      31.9997, renormalised to      32.0000

     negative rho (up, down):  1.836E-05 0.000E+00
     Starting wfcs are   64 randomized atomic wfcs
     Checking if some PAW data can be deallocated... 

     total cpu time spent up to now is        1.8 secs

     per-process dynamical memory:    98.6 Mb

     Self-consistent Calculation

     iteration #  1     ecut=   100.00 Ry     beta= 0.70
     Davidson diagonalization with overlap
     ethr =  1.00E-02,  avg # of iterations =  2.0

     negative rho (up, down):  1.016E-04 0.000E+00

     total cpu time spent up to now is        3.6 secs

     total energy              =    -142.44998171 Ry
     estimated scf accuracy    <       0.78498453 Ry

     iteration #  2     ecut=   100.00 Ry     beta= 0.70
     Davidson diagonalization with overlap
     ethr =  2.45E-03,  avg # of iterations =  3.0

     negative rho (up, down):  1.438E-04 0.000E+00

     total cpu time spent up to now is        5.2 secs

     total energy              =    -142.56147841 Ry
     estimated scf accuracy    <       0.00978164 Ry

     iteration #  3     ecut=   100.00 Ry     beta= 0.70
     Davidson diagonalization with overlap
     ethr =  3.06E-05,  avg # of iterations =  9.3

     negative rho (up, down):  1.765E-04 0.000E+00

     total cpu time spent up to now is        7.3 secs

     total energy              =    -142.56264114 Ry
     estimated scf accuracy    <       0.00057911 Ry

     iteration #  4     ecut=   100.00 Ry     beta= 0.70
     Davidson diagonalization with overlap
     c_bands:  3 eigenvalues not converged
     ethr =  1.81E-06,  avg # of iterations =  7.0

     negative rho (up, down):  1.786E-04 0.000E+00

     total cpu time spent up to now is        9.3 secs

     total energy              =    -142.56275662 Ry
     estimated scf accuracy    <       0.00002937 Ry

     iteration #  5     ecut=   100.00 Ry     beta= 0.70
     Davidson diagonalization with overlap
     ethr =  9.18E-08,  avg # of iterations =  3.4

     negative rho (up, down):  1.812E-04 0.000E+00

     total cpu time spent up to now is       10.9 secs

     total energy              =    -142.56276535 Ry
     estimated scf accuracy    <       0.00000207 Ry

     iteration #  6     ecut=   100.00 Ry     beta= 0.70
     Davidson diagonalization with overlap
     ethr =  6.46E-09,  avg # of iterations =  2.6

     negative rho (up, down):  1.819E-04 0.000E+00

     total cpu time spent up to now is       12.7 secs

     total energy              =    -142.56276615 Ry
     estimated scf accuracy    <       0.00000035 Ry

     iteration #  7     ecut=   100.00 Ry     beta= 0.70
     Davidson diagonalization with overlap
     ethr =  1.10E-09,  avg # of iterations =  2.0

     negative rho (up, down):  1.819E-04 0.000E+00

     total cpu time spent up to now is       14.0 secs

     total energy              =    -142.56276612 Ry
     estimated scf accuracy    <       0.00000012 Ry

     iteration #  8     ecut=   100.00 Ry     beta= 0.70
     Davidson diagonalization with overlap
     ethr =  3.83E-10,  avg # of iterations =  2.0

     negative rho (up, down):  1.819E-04 0.000E+00

     total cpu time spent up to now is       15.7 secs

     total energy              =    -142.56276614 Ry
     estimated scf accuracy    <          2.0E-09 Ry

     iteration #  9     ecut=   100.00 Ry     beta= 0.70
     Davidson diagonalization with overlap
     ethr =  6.22E-12,  avg # of iterations =  3.2

     negative rho (up, down):  1.819E-04 0.000E+00

     total cpu time spent up to now is       17.4 secs

     total energy              =    -142.56276615 Ry
     estimated scf accuracy    <          1.0E-10 Ry

     iteration # 10     ecut=   100.00 Ry     beta= 0.70
     Davidson diagonalization with overlap
     ethr =  3.22E-13,  avg # of iterations =  3.3

     negative rho (up, down):  1.819E-04 0.000E+00

     total cpu time spent up to now is       19.1 secs

     total energy              =    -142.56276615 Ry
     estimated scf accuracy    <          1.4E-11 Ry

     iteration # 11     ecut=   100.00 Ry     beta= 0.70
     Davidson diagonalization with overlap
     ethr =  1.00E-13,  avg # of iterations =  2.0

     negative rho (up, down):  1.819E-04 0.000E+00

     total cpu time spent up to now is       20.5 secs

     total energy              =    -142.56276615 Ry
     estimated scf accuracy    <          8.9E-13 Ry

     iteration # 12     ecut=   100.00 Ry     beta= 0.70
     Davidson diagonalization with overlap
     ethr =  1.00E-13,  avg # of iterations =  1.0

     negative rho (up, down):  1.819E-04 0.000E+00

     total cpu time spent up to now is       21.8 secs

     total energy              =    -142.56276615 Ry
     estimated scf accuracy    <          2.2E-13 Ry

     iteration # 13     ecut=   100.00 Ry     beta= 0.70
     Davidson diagonalization with overlap
     ethr =  1.00E-13,  avg # of iterations =  1.0

     negative rho (up, down):  1.819E-04 0.000E+00

     total cpu time spent up to now is       23.1 secs

     total energy              =    -142.56276615 Ry
     estimated scf accuracy    <          6.9E-14 Ry

     iteration # 14     ecut=   100.00 Ry     beta= 0.70
     Davidson diagonalization with overlap
     ethr =  1.00E-13,  avg # of iterations =  1.0

     negative rho (up, down):  1.819E-04 0.000E+00

     total cpu time spent up to now is       24.4 secs

     total energy              =    -142.56276615 Ry
     estimated scf accuracy    <          3.2E-15 Ry

     iteration # 15     ecut=   100.00 Ry     beta= 0.70
     Davidson diagonalization with overlap
     ethr =  1.00E-13,  avg # of iterations =  1.0

     negative rho (up, down):  1.819E-04 0.000E+00

     total cpu time spent up to now is       25.6 secs

     total energy              =    -142.56276615 Ry
     estimated scf accuracy    <          2.6E-16 Ry

     iteration # 16     ecut=   100.00 Ry     beta= 0.70
     Davidson diagonalization with overlap
     ethr =  1.00E-13,  avg # of iterations =  1.0

     negative rho (up, down):  1.819E-04 0.000E+00

     total cpu time spent up to now is       26.9 secs

     End of self-consistent calculation

          k = 0.0000 0.0000 0.0000 ( 42713 PWs)   bands (ev):

   -23.8598 -18.5937 -18.5936 -18.5936 -17.7045 -17.7045 -17.7044 -12.1913
   -10.9669 -10.9669 -10.9669  -7.5979  -7.5978  -6.9071  -6.9070  -6.9070
    -2.9245  -2.9245  -2.9244  -1.2542

          k = 0.0000 0.0825 0.0000 ( 42729 PWs)   bands (ev):

   -23.8298 -19.0244 -18.7156 -18.7156 -17.5330 -17.5329 -17.2297 -12.1552
   -11.0589 -11.0589 -10.9370  -7.7194  -7.6636  -7.0985  -6.9299  -6.9298
    -2.8681  -2.8681  -2.6862  -1.2134

          k = 0.0000 0.1650 0.0000 ( 42685 PWs)   bands (ev):

   -23.7399 -19.6790 -18.9453 -18.9452 -17.1558 -17.1557 -16.4436 -12.0471
   -11.3222 -11.3222 -10.8479  -8.0703  -7.8507  -7.5701  -6.9914  -6.9913
    -2.7103  -2.7102  -2.0756  -1.0910

          k = 0.0000 0.2474 0.0000 ( 42730 PWs)   bands (ev):

   -23.5903 -20.3193 -19.1682 -19.1682 -16.6913 -16.6912 -15.5868 -11.8675
   -11.7239 -11.7238 -10.7008  -8.6157  -8.1632  -8.1328  -7.0747  -7.0746
    -2.4810  -2.4809  -1.2562  -0.8869

          k = 0.0000 0.3299 0.0000 ( 42674 PWs)   bands (ev):

   -23.3812 -20.9176 -19.3524 -19.3524 -16.1800 -16.1800 -14.6911 -12.2197
   -12.2196 -11.6172 -10.4983  -9.3114  -8.7837  -8.4774  -7.1606  -7.1606
    -2.2222  -2.2222  -0.6011  -0.3301

          k = 0.0000 0.4124 0.0000 ( 42690 PWs)   bands (ev):

   -23.1131 -21.4663 -19.4876 -19.4876 -15.6514 -15.6513 -13.7701 -12.7579
   -12.7578 -11.2977 -10.2439 -10.1143  -9.3867  -8.8534  -7.2332  -7.2332
    -1.9826  -1.9825  -0.2340   0.5384

          k = 0.0000 0.4949 0.0000 ( 42704 PWs)   bands (ev):

   -22.7866 -21.9620 -19.5698 -19.5698 -15.1656 -15.1656 -13.2579 -13.2579
   -12.8359 -10.9878 -10.9110  -9.9496  -9.9431  -9.2353  -7.2810  -7.2810
    -1.8117  -1.8117   0.2144   0.9919

          k = 0.0000-0.5774 0.0000 ( 42716 PWs)   bands (ev):

   -22.4026 -22.4026 -19.5974 -19.5974 -14.9229 -14.9229 -13.5068 -13.5068
   -11.9026 -11.9026 -10.4601 -10.4601  -9.6034  -9.6034  -7.2976  -7.2976
    -1.7495  -1.7495   0.7433   0.7433

          k = 0.0714 0.1237 0.0000 ( 42673 PWs)   bands (ev):

   -23.7699 -19.3293 -19.3293 -18.5177 -17.6264 -16.8318 -16.8318 -12.0831
   -11.3524 -10.9991 -10.9991  -7.9505  -7.7952  -7.2841  -7.2841  -6.7973
    -2.9487  -2.4218  -2.4218  -1.1318

          k = 0.0714 0.2062 0.0000 ( 42662 PWs)   bands (ev):

   -23.6501 -19.9828 -19.5971 -18.5612 -17.3814 -16.3756 -16.0050 -11.9392
   -11.7852 -11.2321 -10.8805  -8.3863  -8.0422  -7.8333  -7.4667  -6.7122
    -2.9256  -2.1032  -1.6915  -0.9685

          k = 0.0714 0.2887 0.0000 ( 42702 PWs)   bands (ev):

   -23.4707 -20.6032 -19.8171 -18.7089 -16.9404 -15.8783 -15.1288 -12.3151
   -11.7243 -11.6016 -10.7047  -8.9932  -8.4482  -8.3694  -7.6297  -6.6723
    -2.8186  -1.7647  -0.8129  -0.7235

          k = 0.0714 0.3712 0.0000 ( 42721 PWs)   bands (ev):

   -23.2321 -21.1769 -19.9845 -18.8484 -16.4276 -15.3578 -14.2217 -12.8962
   -12.0603 -11.4393 -10.4748  -9.7306  -9.0637  -8.7420  -7.7612  -6.6641
    -2.6681  -1.4467  -0.3970   0.1388

          k = 0.0714 0.4536 0.0000 ( 42718 PWs)   bands (ev):

   -22.9349 -21.6992 -20.0971 -18.9486 -15.9051 -14.8491 -13.4714 -13.2964
   -12.5450 -11.0861 -10.5596 -10.1949  -9.6484  -9.1305  -7.8529  -6.6703
    -2.5256  -1.1949   0.0108   0.7863

          k = 0.0714 0.5361 0.0000 ( 42718 PWs)   bands (ev):

   -22.5796 -22.1673 -20.1537 -19.0002 -15.4907 -14.4588 -13.9148 -12.9285
   -12.3661 -11.4469 -10.6671 -10.1859  -9.8713  -9.5125  -7.9000  -6.6771
    -2.4393  -1.0542   0.4996   1.0687

          k = 0.1429 0.2474 0.0000 ( 42695 PWs)   bands (ev):

   -23.5006 -20.2354 -20.2354 -18.2899 -17.3988 -15.5264 -15.5264 -12.3469
   -11.7600 -11.0831 -11.0831  -8.8615  -8.3568  -8.0615  -8.0615  -6.4690
    -3.0585  -1.2939  -1.2939  -0.7643

          k = 0.1429 0.3299 0.0000 ( 42723 PWs)   bands (ev):

   -23.2917 -20.8322 -20.4339 -18.2538 -17.0931 -15.0207 -14.6408 -12.9646
   -11.5103 -11.4195 -10.8773  -9.4783  -8.7442  -8.6822  -8.2464  -6.2800
    -3.1120  -0.9141  -0.4785  -0.3842

          k = 0.1429 0.4124 0.0000 ( 42709 PWs)   bands (ev):

   -23.0240 -21.3797 -20.5767 -18.3191 -16.6164 -14.5108 -13.7336 -13.5920
   -11.8362 -11.1915 -10.6176 -10.2134  -9.2845  -9.1581  -8.3821  -6.1527
    -3.1071  -0.5914  -0.1111   0.5696

          k = 0.1429 0.4949 0.0000 ( 42732 PWs)   bands (ev):

   -22.6979 -21.8745 -20.6627 -18.3770 -16.1337 -14.1538 -14.0548 -12.8187
   -12.2481 -11.0351 -10.8057 -10.3084  -9.8464  -9.5682  -8.4650  -6.0825
    -3.0803  -0.3708   0.3374   1.1166

          k = 0.1429 0.5774 0.0000 ( 42732 PWs)   bands (ev):

   -22.3144 -22.3144 -20.6914 -18.3983 -15.8832 -14.4298 -13.8343 -12.4559
   -11.9123 -11.9123 -10.3558 -10.3558  -9.9557  -9.9557  -8.4928  -6.0605
    -3.0665  -0.2917   0.8665   0.8665

          k = 0.2143 0.3712 0.0000 ( 42703 PWs)   bands (ev):

   -23.0537 -21.0050 -21.0050 -17.9110 -17.0533 -14.1396 -14.1396 -13.6312
   -11.2267 -11.1788 -11.1788 -10.0634  -9.2026  -8.8611  -8.8611  -5.9248
    -3.3566  -0.1518  -0.0022  -0.0022

          k = 0.2143 0.4536 0.0000 ( 42725 PWs)   bands (ev):

   -22.7572 -21.5252 -21.1207 -17.7979 -16.7357 -14.2619 -13.6605 -13.2509
   -11.5453 -10.8815 -10.8752 -10.7513  -9.6783  -9.4439  -8.9819  -5.6435
    -3.5427   0.2562   0.2924   0.9284

          k = 0.2143 0.5361 0.0000 ( 42725 PWs)   bands (ev):

   -22.4029 -21.9918 -21.1787 -17.7909 -16.3767 -14.7312 -13.3047 -12.3732
   -11.8513 -11.5304 -10.5299 -10.4582 -10.1268  -9.9792  -9.0427  -5.4825
    -3.6484   0.4553   0.7452   1.3146

          k = 0.2857 0.4949 0.0000 ( 42757 PWs)   bands (ev):

   -22.4324 -21.6127 -21.6127 -17.3819 -16.7553 -14.8247 -12.8312 -12.8312
   -11.3587 -11.1832 -11.1832 -10.4923 -10.2304  -9.5402  -9.5402  -5.1702
    -3.9616   0.7048   1.1731   1.1731

          k = 0.2857 0.5774 0.0000 ( 42743 PWs)   bands (ev):

   -22.0505 -22.0505 -21.6419 -17.2352 -16.7048 -15.0783 -12.6355 -12.0541
   -12.0540 -11.3419 -10.7439 -10.7439 -10.0459 -10.0459  -9.5724  -4.8985
    -4.2131   1.2340   1.2340   1.2612

     the Fermi energy is    -4.6898 ev

!    total energy              =    -142.56276615 Ry
     total all-electron energy =      -142.562766 Ry
     estimated scf accuracy    <          6.6E-17 Ry
     smearing contrib. (-TS)   =       0.00021273 Ry
     internal energy E=F+TS    =    -142.56297888 Ry

     The total energy is F=E-TS. E is the sum of the following terms:
     one-electron contribution =   -1252.07759337 Ry
     hartree contribution      =     629.42509927 Ry
     xc contribution           =     -35.58513755 Ry
     ewald contribution        =     561.48195730 Ry
     one-center paw contrib.   =     -45.80730453 Ry

     convergence has been achieved in  16 iterations

     negative rho (up, down):  1.819E-04 0.000E+00

     Forces acting on atoms (cartesian axes, Ry/au):

     atom    1 type  1   force =     0.00000000    0.00000000    0.00000000
     atom    2 type  1   force =    -0.00000000   -0.00000000    0.00000000
     atom    3 type  1   force =     0.00000000    0.00000000    0.00000000
     atom    4 type  1   force =     0.00000000    0.00000000    0.00000000
     atom    5 type  1   force =    -0.00000000   -0.00000000    0.00000000
     atom    6 type  1   force =    -0.00000000    0.00000000    0.00000000
     atom    7 type  1   force =     0.00000000   -0.00000000    0.00000000
     atom    8 type  1   force =     0.00000000    0.00000000   -0.00000000

     Total force =     0.000000     Total SCF correction =     0.000000
     SCF correction compared to forces is large: reduce conv_thr to get better values

     Writing all to output data dir ./tmp/graphene_sup.save/ :
     XML data file, charge density, pseudopotentials, collected wavefunctions
 
     init_run     :      1.57s CPU      1.72s WALL (       1 calls)
     electrons    :     23.16s CPU     25.12s WALL (       1 calls)
     forces       :      0.20s CPU      0.21s WALL (       1 calls)

     Called by init_run:
     wfcinit      :      1.41s CPU      1.54s WALL (       1 calls)
     potinit      :      0.02s CPU      0.02s WALL (       1 calls)
     hinit0       :      0.03s CPU      0.04s WALL (       1 calls)

     Called by electrons:
     c_bands      :     18.91s CPU     20.44s WALL (      16 calls)
     sum_band     :      3.63s CPU      4.03s WALL (      16 calls)
     v_of_rho     :      0.08s CPU      0.08s WALL (      17 calls)
     newd         :      0.26s CPU      0.28s WALL (      17 calls)
     PAW_pot      :      0.21s CPU      0.21s WALL (      17 calls)
     mix_rho      :      0.09s CPU      0.09s WALL (      16 calls)

     Called by c_bands:
     init_us_2    :      0.77s CPU      0.77s WALL (     816 calls)
     cegterg      :     17.51s CPU     19.03s WALL (     384 calls)

     Called by *egterg:
     cdiaghg      :      0.43s CPU      0.43s WALL (    1457 calls)
     h_psi        :     13.85s CPU     15.47s WALL (    1481 calls)
     s_psi        :      0.67s CPU      0.68s WALL (    1481 calls)
     g_psi        :      0.06s CPU      0.06s WALL (    1073 calls)

     Called by h_psi:
     h_psi:calbec :      1.04s CPU      1.11s WALL (    1481 calls)
     vloc_psi     :     11.86s CPU     13.38s WALL (    1481 calls)
     add_vuspsi   :      0.78s CPU      0.79s WALL (    1481 calls)

     General routines
     calbec       :      1.50s CPU      1.58s WALL (    1961 calls)
     fft          :      0.05s CPU      0.06s WALL (      72 calls)
     ffts         :      0.01s CPU      0.01s WALL (      16 calls)
     fftw         :     11.86s CPU     13.47s WALL (   49044 calls)
 
     Parallel routines
 
     PWSCF        :     25.11s CPU     27.37s WALL

 
   This run was terminated on:  12:50:16  12May2026            

=------------------------------------------------------------------------------=
   JOB DONE.
=------------------------------------------------------------------------------=
