
     Program PWSCF v.7.4 starts on 15Jun2026 at 23:14:12 

     This program is part of the open-source Quantum ESPRESSO suite
     for quantum simulation of materials; please cite
         "P. Giannozzi et al., J. Phys.:Condens. Matter 21 395502 (2009);
         "P. Giannozzi et al., J. Phys.:Condens. Matter 29 465901 (2017);
         "P. Giannozzi et al., J. Chem. Phys. 152 154105 (2020);
          URL http://www.quantum-espresso.org", 
     in publications or presentations arising from this work. More details at
     http://www.quantum-espresso.org/quote

     Parallel version (MPI), running on    12 processors

     MPI processes distributed on     1 nodes
     142240 MiB available memory on the printing compute node when the environment starts
 
     Reading input from al_sup.scf.in

     Current dimensions of program PWSCF are:
     Max number of different atomic species (ntypx) = 10
     Max number of k-points (npk) =  40000
     Max angular momentum in pseudopotentials (lmaxx) =  4
read_pp_mesh; mismatch in mesh size, discarding the one in header
     Found identity + ( -0.5000  0.0000  0.0000) symmetry
     This is a supercell, fractional translations are disabled
     Message from routine setup:
     using ibrav=0 with symmetry is DISCOURAGED, use correct ibrav instead
 
     R & G space division:  proc/nbgrp/npool/nimage =      12
     Subspace diagonalization in iterative solution of the eigenvalue problem:
     a serial algorithm will be used

 
     Parallelization info
     --------------------
     sticks:   dense  smooth     PW     G-vecs:    dense   smooth      PW
     Min         134     134     38                 3550     3550     551
     Max         135     135     39                 3553     3553     552
     Sum        1615    1615    463                42615    42615    6615
 
     Using Slab Decomposition
 


     bravais-lattice index     =            0
     lattice parameter (alat)  =      10.7909  a.u.
     unit-cell volume          =     888.5073 (a.u.)^3
     number of atoms/cell      =            8
     number of atomic types    =            1
     number of electrons       =        24.00
     number of Kohn-Sham states=           16
     kinetic-energy cutoff     =      50.0000  Ry
     charge density cutoff     =     200.0000  Ry
     scf convergence threshold =      1.0E-16
     mixing beta               =       0.7000
     number of iterations used =            8  plain     mixing
     Exchange-correlation= SLA PW PBX PBC
                           (   1   4   3   4   0   0   0)

     celldm(1)=  10.790925  celldm(2)=   0.000000  celldm(3)=   0.000000
     celldm(4)=   0.000000  celldm(5)=   0.000000  celldm(6)=   0.000000

     crystal axes: (cart. coord. in units of alat)
               a(1) = (  -0.707107   0.000000   0.707107 )  
               a(2) = (   0.000000   0.707107   0.707107 )  
               a(3) = (  -0.707107   0.707107   0.000000 )  

     reciprocal axes: (cart. coord. in units 2 pi/alat)
               b(1) = ( -0.707107 -0.707107  0.707107 )  
               b(2) = (  0.707107  0.707107  0.707107 )  
               b(3) = ( -0.707107  0.707107 -0.707107 )  


     PseudoPot. # 1 for Al read from file:
     ../../../pseudopotentzialak/Al.upf
     MD5 check sum: fd3ab6bbf4b2322b308692f0f9c61a66
     Pseudo is Projector augmented-wave + core cor, Zval =  3.0
     Generated using ATOMPAW code
     Shape of augmentation charge: SINC**2
     Using radial grid of 2342 points,  4 beta functions with: 
                l(1) =   0
                l(2) =   0
                l(3) =   1
                l(4) =   1
     Q(r) pseudized with 0 coefficients 


     atomic species   valence    mass     pseudopotential
     Al                3.00    26.98150     Al( 1.00)

     48 Sym. Ops., with inversion, found


                                    s                        frac. trans.

      isym =  1     identity                                     

 cryst.   s( 1) = (     1          0          0      )
                  (     0          1          0      )
                  (     0          0          1      )

 cart.    s( 1) = (  1.0000000  0.0000000  0.0000000 )
                  (  0.0000000  1.0000000  0.0000000 )
                  (  0.0000000  0.0000000  1.0000000 )


      isym =  2     180 deg rotation - cart. axis [0,0,1]        

 cryst.   s( 2) = (     0          1         -1      )
                  (     1          0         -1      )
                  (     0          0         -1      )

 cart.    s( 2) = ( -1.0000000  0.0000000  0.0000000 )
                  (  0.0000000 -1.0000000  0.0000000 )
                  (  0.0000000  0.0000000  1.0000000 )


      isym =  3     180 deg rotation - cart. axis [0,1,0]        

 cryst.   s( 3) = (    -1          0          0      )
                  (    -1          0          1      )
                  (    -1          1          0      )

 cart.    s( 3) = ( -1.0000000  0.0000000  0.0000000 )
                  (  0.0000000  1.0000000  0.0000000 )
                  (  0.0000000  0.0000000 -1.0000000 )


      isym =  4     180 deg rotation - cart. axis [1,0,0]        

 cryst.   s( 4) = (     0         -1          1      )
                  (     0         -1          0      )
                  (     1         -1          0      )

 cart.    s( 4) = (  1.0000000  0.0000000  0.0000000 )
                  (  0.0000000 -1.0000000  0.0000000 )
                  (  0.0000000  0.0000000 -1.0000000 )


      isym =  5     180 deg rotation - cart. axis [1,1,0]        

 cryst.   s( 5) = (     0         -1          0      )
                  (    -1          0          0      )
                  (     0          0         -1      )

 cart.    s( 5) = (  0.0000000  1.0000000  0.0000000 )
                  (  1.0000000  0.0000000  0.0000000 )
                  (  0.0000000  0.0000000 -1.0000000 )


      isym =  6     180 deg rotation - cart. axis [1,-1,0]       

 cryst.   s( 6) = (    -1          0          1      )
                  (     0         -1          1      )
                  (     0          0          1      )

 cart.    s( 6) = (  0.0000000 -1.0000000  0.0000000 )
                  ( -1.0000000  0.0000000  0.0000000 )
                  (  0.0000000  0.0000000 -1.0000000 )


      isym =  7      90 deg rotation - cart. axis [0,0,-1]       

 cryst.   s( 7) = (     0          1          0      )
                  (     0          1         -1      )
                  (    -1          1          0      )

 cart.    s( 7) = (  0.0000000  1.0000000  0.0000000 )
                  ( -1.0000000  0.0000000  0.0000000 )
                  (  0.0000000  0.0000000  1.0000000 )


      isym =  8      90 deg rotation - cart. axis [0,0,1]        

 cryst.   s( 8) = (     1          0         -1      )
                  (     1          0          0      )
                  (     1         -1          0      )

 cart.    s( 8) = (  0.0000000 -1.0000000  0.0000000 )
                  (  1.0000000  0.0000000  0.0000000 )
                  (  0.0000000  0.0000000  1.0000000 )


      isym =  9     180 deg rotation - cart. axis [1,0,1]        

 cryst.   s( 9) = (    -1          0          0      )
                  (     0          0         -1      )
                  (     0         -1          0      )

 cart.    s( 9) = (  0.0000000  0.0000000  1.0000000 )
                  (  0.0000000 -1.0000000  0.0000000 )
                  (  1.0000000  0.0000000  0.0000000 )


      isym = 10     180 deg rotation - cart. axis [-1,0,1]       

 cryst.   s(10) = (     1          0          0      )
                  (     1         -1          0      )
                  (     1          0         -1      )

 cart.    s(10) = (  0.0000000  0.0000000 -1.0000000 )
                  (  0.0000000 -1.0000000  0.0000000 )
                  ( -1.0000000  0.0000000  0.0000000 )


      isym = 11      90 deg rotation - cart. axis [0,1,0]        

 cryst.   s(11) = (     0          1         -1      )
                  (    -1          1          0      )
                  (     0          1          0      )

 cart.    s(11) = (  0.0000000  0.0000000  1.0000000 )
                  (  0.0000000  1.0000000  0.0000000 )
                  ( -1.0000000  0.0000000  0.0000000 )


      isym = 12      90 deg rotation - cart. axis [0,-1,0]       

 cryst.   s(12) = (     0         -1          1      )
                  (     0          0          1      )
                  (    -1          0          1      )

 cart.    s(12) = (  0.0000000  0.0000000 -1.0000000 )
                  (  0.0000000  1.0000000  0.0000000 )
                  (  1.0000000  0.0000000  0.0000000 )


      isym = 13     180 deg rotation - cart. axis [0,1,1]        

 cryst.   s(13) = (    -1          1          0      )
                  (     0          1          0      )
                  (     0          1         -1      )

 cart.    s(13) = ( -1.0000000  0.0000000  0.0000000 )
                  (  0.0000000  0.0000000  1.0000000 )
                  (  0.0000000  1.0000000  0.0000000 )


      isym = 14     180 deg rotation - cart. axis [0,1,-1]       

 cryst.   s(14) = (     0          0         -1      )
                  (     0         -1          0      )
                  (    -1          0          0      )

 cart.    s(14) = ( -1.0000000  0.0000000  0.0000000 )
                  (  0.0000000  0.0000000 -1.0000000 )
                  (  0.0000000 -1.0000000  0.0000000 )


      isym = 15      90 deg rotation - cart. axis [-1,0,0]       

 cryst.   s(15) = (     0          0          1      )
                  (    -1          0          1      )
                  (     0         -1          1      )

 cart.    s(15) = (  1.0000000  0.0000000  0.0000000 )
                  (  0.0000000  0.0000000  1.0000000 )
                  (  0.0000000 -1.0000000  0.0000000 )


      isym = 16      90 deg rotation - cart. axis [1,0,0]        

 cryst.   s(16) = (     1         -1          0      )
                  (     1          0         -1      )
                  (     1          0          0      )

 cart.    s(16) = (  1.0000000  0.0000000  0.0000000 )
                  (  0.0000000  0.0000000 -1.0000000 )
                  (  0.0000000  1.0000000  0.0000000 )


      isym = 17     120 deg rotation - cart. axis [-1,-1,-1]     

 cryst.   s(17) = (    -1          0          1      )
                  (    -1          1          0      )
                  (    -1          0          0      )

 cart.    s(17) = (  0.0000000  1.0000000  0.0000000 )
                  (  0.0000000  0.0000000  1.0000000 )
                  (  1.0000000  0.0000000  0.0000000 )


      isym = 18     120 deg rotation - cart. axis [-1,1,1]       

 cryst.   s(18) = (     0          1          0      )
                  (     0          0          1      )
                  (     1          0          0      )

 cart.    s(18) = (  0.0000000 -1.0000000  0.0000000 )
                  (  0.0000000  0.0000000  1.0000000 )
                  ( -1.0000000  0.0000000  0.0000000 )


      isym = 19     120 deg rotation - cart. axis [1,1,-1]       

 cryst.   s(19) = (     1          0         -1      )
                  (     0          0         -1      )
                  (     0          1         -1      )

 cart.    s(19) = (  0.0000000  1.0000000  0.0000000 )
                  (  0.0000000  0.0000000 -1.0000000 )
                  ( -1.0000000  0.0000000  0.0000000 )


      isym = 20     120 deg rotation - cart. axis [1,-1,1]       

 cryst.   s(20) = (     0         -1          0      )
                  (     1         -1          0      )
                  (     0         -1          1      )

 cart.    s(20) = (  0.0000000 -1.0000000  0.0000000 )
                  (  0.0000000  0.0000000 -1.0000000 )
                  (  1.0000000  0.0000000  0.0000000 )


      isym = 21     120 deg rotation - cart. axis [1,1,1]        

 cryst.   s(21) = (     0          0         -1      )
                  (     0          1         -1      )
                  (     1          0         -1      )

 cart.    s(21) = (  0.0000000  0.0000000  1.0000000 )
                  (  1.0000000  0.0000000  0.0000000 )
                  (  0.0000000  1.0000000  0.0000000 )


      isym = 22     120 deg rotation - cart. axis [-1,1,-1]      

 cryst.   s(22) = (    -1          1          0      )
                  (    -1          0          0      )
                  (    -1          0          1      )

 cart.    s(22) = (  0.0000000  0.0000000  1.0000000 )
                  ( -1.0000000  0.0000000  0.0000000 )
                  (  0.0000000 -1.0000000  0.0000000 )


      isym = 23     120 deg rotation - cart. axis [1,-1,-1]      

 cryst.   s(23) = (     0          0          1      )
                  (     1          0          0      )
                  (     0          1          0      )

 cart.    s(23) = (  0.0000000  0.0000000 -1.0000000 )
                  ( -1.0000000  0.0000000  0.0000000 )
                  (  0.0000000  1.0000000  0.0000000 )


      isym = 24     120 deg rotation - cart. axis [-1,-1,1]      

 cryst.   s(24) = (     1         -1          0      )
                  (     0         -1          1      )
                  (     0         -1          0      )

 cart.    s(24) = (  0.0000000  0.0000000 -1.0000000 )
                  (  1.0000000  0.0000000  0.0000000 )
                  (  0.0000000 -1.0000000  0.0000000 )


      isym = 25     inversion                                    

 cryst.   s(25) = (    -1          0          0      )
                  (     0         -1          0      )
                  (     0          0         -1      )

 cart.    s(25) = ( -1.0000000  0.0000000  0.0000000 )
                  (  0.0000000 -1.0000000  0.0000000 )
                  (  0.0000000  0.0000000 -1.0000000 )


      isym = 26     inv. 180 deg rotation - cart. axis [0,0,1]   

 cryst.   s(26) = (     0         -1          1      )
                  (    -1          0          1      )
                  (     0          0          1      )

 cart.    s(26) = (  1.0000000  0.0000000  0.0000000 )
                  (  0.0000000  1.0000000  0.0000000 )
                  (  0.0000000  0.0000000 -1.0000000 )


      isym = 27     inv. 180 deg rotation - cart. axis [0,1,0]   

 cryst.   s(27) = (     1          0          0      )
                  (     1          0         -1      )
                  (     1         -1          0      )

 cart.    s(27) = (  1.0000000  0.0000000  0.0000000 )
                  (  0.0000000 -1.0000000  0.0000000 )
                  (  0.0000000  0.0000000  1.0000000 )


      isym = 28     inv. 180 deg rotation - cart. axis [1,0,0]   

 cryst.   s(28) = (     0          1         -1      )
                  (     0          1          0      )
                  (    -1          1          0      )

 cart.    s(28) = ( -1.0000000  0.0000000  0.0000000 )
                  (  0.0000000  1.0000000  0.0000000 )
                  (  0.0000000  0.0000000  1.0000000 )


      isym = 29     inv. 180 deg rotation - cart. axis [1,1,0]   

 cryst.   s(29) = (     0          1          0      )
                  (     1          0          0      )
                  (     0          0          1      )

 cart.    s(29) = (  0.0000000 -1.0000000  0.0000000 )
                  ( -1.0000000  0.0000000  0.0000000 )
                  (  0.0000000  0.0000000  1.0000000 )


      isym = 30     inv. 180 deg rotation - cart. axis [1,-1,0]  

 cryst.   s(30) = (     1          0         -1      )
                  (     0          1         -1      )
                  (     0          0         -1      )

 cart.    s(30) = (  0.0000000  1.0000000  0.0000000 )
                  (  1.0000000  0.0000000  0.0000000 )
                  (  0.0000000  0.0000000  1.0000000 )


      isym = 31     inv.  90 deg rotation - cart. axis [0,0,-1]  

 cryst.   s(31) = (     0         -1          0      )
                  (     0         -1          1      )
                  (     1         -1          0      )

 cart.    s(31) = (  0.0000000 -1.0000000  0.0000000 )
                  (  1.0000000  0.0000000  0.0000000 )
                  (  0.0000000  0.0000000 -1.0000000 )


      isym = 32     inv.  90 deg rotation - cart. axis [0,0,1]   

 cryst.   s(32) = (    -1          0          1      )
                  (    -1          0          0      )
                  (    -1          1          0      )

 cart.    s(32) = (  0.0000000  1.0000000  0.0000000 )
                  ( -1.0000000  0.0000000  0.0000000 )
                  (  0.0000000  0.0000000 -1.0000000 )


      isym = 33     inv. 180 deg rotation - cart. axis [1,0,1]   

 cryst.   s(33) = (     1          0          0      )
                  (     0          0          1      )
                  (     0          1          0      )

 cart.    s(33) = (  0.0000000  0.0000000 -1.0000000 )
                  (  0.0000000  1.0000000  0.0000000 )
                  ( -1.0000000  0.0000000  0.0000000 )


      isym = 34     inv. 180 deg rotation - cart. axis [-1,0,1]  

 cryst.   s(34) = (    -1          0          0      )
                  (    -1          1          0      )
                  (    -1          0          1      )

 cart.    s(34) = (  0.0000000  0.0000000  1.0000000 )
                  (  0.0000000  1.0000000  0.0000000 )
                  (  1.0000000  0.0000000  0.0000000 )


      isym = 35     inv.  90 deg rotation - cart. axis [0,1,0]   

 cryst.   s(35) = (     0         -1          1      )
                  (     1         -1          0      )
                  (     0         -1          0      )

 cart.    s(35) = (  0.0000000  0.0000000 -1.0000000 )
                  (  0.0000000 -1.0000000  0.0000000 )
                  (  1.0000000  0.0000000  0.0000000 )


      isym = 36     inv.  90 deg rotation - cart. axis [0,-1,0]  

 cryst.   s(36) = (     0          1         -1      )
                  (     0          0         -1      )
                  (     1          0         -1      )

 cart.    s(36) = (  0.0000000  0.0000000  1.0000000 )
                  (  0.0000000 -1.0000000  0.0000000 )
                  ( -1.0000000  0.0000000  0.0000000 )


      isym = 37     inv. 180 deg rotation - cart. axis [0,1,1]   

 cryst.   s(37) = (     1         -1          0      )
                  (     0         -1          0      )
                  (     0         -1          1      )

 cart.    s(37) = (  1.0000000  0.0000000  0.0000000 )
                  (  0.0000000  0.0000000 -1.0000000 )
                  (  0.0000000 -1.0000000  0.0000000 )


      isym = 38     inv. 180 deg rotation - cart. axis [0,1,-1]  

 cryst.   s(38) = (     0          0          1      )
                  (     0          1          0      )
                  (     1          0          0      )

 cart.    s(38) = (  1.0000000  0.0000000  0.0000000 )
                  (  0.0000000  0.0000000  1.0000000 )
                  (  0.0000000  1.0000000  0.0000000 )


      isym = 39     inv.  90 deg rotation - cart. axis [-1,0,0]  

 cryst.   s(39) = (     0          0         -1      )
                  (     1          0         -1      )
                  (     0          1         -1      )

 cart.    s(39) = ( -1.0000000  0.0000000  0.0000000 )
                  (  0.0000000  0.0000000 -1.0000000 )
                  (  0.0000000  1.0000000  0.0000000 )


      isym = 40     inv.  90 deg rotation - cart. axis [1,0,0]   

 cryst.   s(40) = (    -1          1          0      )
                  (    -1          0          1      )
                  (    -1          0          0      )

 cart.    s(40) = ( -1.0000000  0.0000000  0.0000000 )
                  (  0.0000000  0.0000000  1.0000000 )
                  (  0.0000000 -1.0000000  0.0000000 )


      isym = 41     inv. 120 deg rotation - cart. axis [-1,-1,-1]

 cryst.   s(41) = (     1          0         -1      )
                  (     1         -1          0      )
                  (     1          0          0      )

 cart.    s(41) = (  0.0000000 -1.0000000  0.0000000 )
                  (  0.0000000  0.0000000 -1.0000000 )
                  ( -1.0000000  0.0000000  0.0000000 )


      isym = 42     inv. 120 deg rotation - cart. axis [-1,1,1]  

 cryst.   s(42) = (     0         -1          0      )
                  (     0          0         -1      )
                  (    -1          0          0      )

 cart.    s(42) = (  0.0000000  1.0000000  0.0000000 )
                  (  0.0000000  0.0000000 -1.0000000 )
                  (  1.0000000  0.0000000  0.0000000 )


      isym = 43     inv. 120 deg rotation - cart. axis [1,1,-1]  

 cryst.   s(43) = (    -1          0          1      )
                  (     0          0          1      )
                  (     0         -1          1      )

 cart.    s(43) = (  0.0000000 -1.0000000  0.0000000 )
                  (  0.0000000  0.0000000  1.0000000 )
                  (  1.0000000  0.0000000  0.0000000 )


      isym = 44     inv. 120 deg rotation - cart. axis [1,-1,1]  

 cryst.   s(44) = (     0          1          0      )
                  (    -1          1          0      )
                  (     0          1         -1      )

 cart.    s(44) = (  0.0000000  1.0000000  0.0000000 )
                  (  0.0000000  0.0000000  1.0000000 )
                  ( -1.0000000  0.0000000  0.0000000 )


      isym = 45     inv. 120 deg rotation - cart. axis [1,1,1]   

 cryst.   s(45) = (     0          0          1      )
                  (     0         -1          1      )
                  (    -1          0          1      )

 cart.    s(45) = (  0.0000000  0.0000000 -1.0000000 )
                  ( -1.0000000  0.0000000  0.0000000 )
                  (  0.0000000 -1.0000000  0.0000000 )


      isym = 46     inv. 120 deg rotation - cart. axis [-1,1,-1] 

 cryst.   s(46) = (     1         -1          0      )
                  (     1          0          0      )
                  (     1          0         -1      )

 cart.    s(46) = (  0.0000000  0.0000000 -1.0000000 )
                  (  1.0000000  0.0000000  0.0000000 )
                  (  0.0000000  1.0000000  0.0000000 )


      isym = 47     inv. 120 deg rotation - cart. axis [1,-1,-1] 

 cryst.   s(47) = (     0          0         -1      )
                  (    -1          0          0      )
                  (     0         -1          0      )

 cart.    s(47) = (  0.0000000  0.0000000  1.0000000 )
                  (  1.0000000  0.0000000  0.0000000 )
                  (  0.0000000 -1.0000000  0.0000000 )


      isym = 48     inv. 120 deg rotation - cart. axis [-1,-1,1] 

 cryst.   s(48) = (    -1          1          0      )
                  (     0          1         -1      )
                  (     0          1          0      )

 cart.    s(48) = (  0.0000000  0.0000000  1.0000000 )
                  ( -1.0000000  0.0000000  0.0000000 )
                  (  0.0000000  1.0000000  0.0000000 )


   Cartesian axes

     site n.     atom                  positions (alat units)
         1        Al     tau(   1) = (   0.0000000   0.0000000   0.0000000  )
         2        Al     tau(   2) = (  -0.3535534   0.0000000   0.3535534  )
         3        Al     tau(   3) = (   0.0000000   0.3535534   0.3535534  )
         4        Al     tau(   4) = (  -0.3535534   0.3535534   0.7071068  )
         5        Al     tau(   5) = (  -0.3535534   0.3535534   0.0000000  )
         6        Al     tau(   6) = (  -0.7071068   0.3535534   0.3535534  )
         7        Al     tau(   7) = (  -0.3535534   0.7071068   0.3535534  )
         8        Al     tau(   8) = (  -0.7071068   0.7071068   0.7071068  )

   Crystallographic axes

     site n.     atom                  positions (cryst. coord.)
         1        Al     tau(   1) = (  0.0000000  0.0000000  0.0000000  )
         2        Al     tau(   2) = (  0.5000000  0.0000000  0.0000000  )
         3        Al     tau(   3) = (  0.0000000  0.5000000  0.0000000  )
         4        Al     tau(   4) = (  0.5000000  0.5000000  0.0000000  )
         5        Al     tau(   5) = (  0.0000000  0.0000000  0.5000000  )
         6        Al     tau(   6) = (  0.5000000  0.0000000  0.5000000  )
         7        Al     tau(   7) = (  0.0000000  0.5000000  0.5000000  )
         8        Al     tau(   8) = (  0.5000000  0.5000000  0.5000000  )

     number of k points=    72  Methfessel-Paxton smearing, width (Ry)=  0.0200
                       cart. coord. in units 2pi/alat
        k(    1) = (   0.0000000   0.0000000   0.0000000), wk =   0.0011574
        k(    2) = (  -0.0589256   0.0589256  -0.0589256), wk =   0.0092593
        k(    3) = (  -0.1178511   0.1178511  -0.1178511), wk =   0.0092593
        k(    4) = (  -0.1767767   0.1767767  -0.1767767), wk =   0.0092593
        k(    5) = (  -0.2357023   0.2357023  -0.2357023), wk =   0.0092593
        k(    6) = (  -0.2946278   0.2946278  -0.2946278), wk =   0.0092593
        k(    7) = (   0.3535534  -0.3535534   0.3535534), wk =   0.0046296
        k(    8) = (   0.0000000   0.1178511   0.0000000), wk =   0.0069444
        k(    9) = (  -0.0589256   0.1767767  -0.0589256), wk =   0.0277778
        k(   10) = (  -0.1178511   0.2357023  -0.1178511), wk =   0.0277778
        k(   11) = (  -0.1767767   0.2946278  -0.1767767), wk =   0.0277778
        k(   12) = (  -0.2357023   0.3535534  -0.2357023), wk =   0.0277778
        k(   13) = (   0.4124790  -0.2946278   0.4124790), wk =   0.0277778
        k(   14) = (   0.3535534  -0.2357023   0.3535534), wk =   0.0277778
        k(   15) = (   0.2946278  -0.1767767   0.2946278), wk =   0.0277778
        k(   16) = (   0.2357023  -0.1178511   0.2357023), wk =   0.0277778
        k(   17) = (   0.1767767  -0.0589256   0.1767767), wk =   0.0277778
        k(   18) = (   0.1178511  -0.0000000   0.1178511), wk =   0.0138889
        k(   19) = (   0.0000000   0.2357023   0.0000000), wk =   0.0069444
        k(   20) = (  -0.0589256   0.2946278  -0.0589256), wk =   0.0277778
        k(   21) = (  -0.1178511   0.3535534  -0.1178511), wk =   0.0277778
        k(   22) = (  -0.1767767   0.4124790  -0.1767767), wk =   0.0277778
        k(   23) = (   0.4714045  -0.2357023   0.4714045), wk =   0.0277778
        k(   24) = (   0.4124790  -0.1767767   0.4124790), wk =   0.0277778
        k(   25) = (   0.3535534  -0.1178511   0.3535534), wk =   0.0277778
        k(   26) = (   0.2946278  -0.0589256   0.2946278), wk =   0.0277778
        k(   27) = (   0.2357023  -0.0000000   0.2357023), wk =   0.0138889
        k(   28) = (   0.0000000   0.3535534   0.0000000), wk =   0.0069444
        k(   29) = (  -0.0589256   0.4124790  -0.0589256), wk =   0.0277778
        k(   30) = (  -0.1178511   0.4714045  -0.1178511), wk =   0.0277778
        k(   31) = (   0.5303301  -0.1767767   0.5303301), wk =   0.0277778
        k(   32) = (   0.4714045  -0.1178511   0.4714045), wk =   0.0277778
        k(   33) = (   0.4124790  -0.0589256   0.4124790), wk =   0.0277778
        k(   34) = (   0.3535534   0.0000000   0.3535534), wk =   0.0138889
        k(   35) = (   0.0000000   0.4714045   0.0000000), wk =   0.0069444
        k(   36) = (  -0.0589256   0.5303301  -0.0589256), wk =   0.0277778
        k(   37) = (   0.5892557  -0.1178511   0.5892557), wk =   0.0277778
        k(   38) = (   0.5303301  -0.0589256   0.5303301), wk =   0.0277778
        k(   39) = (   0.4714045  -0.0000000   0.4714045), wk =   0.0138889
        k(   40) = (   0.0000000   0.5892557   0.0000000), wk =   0.0069444
        k(   41) = (   0.6481812  -0.0589256   0.6481812), wk =   0.0277778
        k(   42) = (   0.5892557  -0.0000000   0.5892557), wk =   0.0138889
        k(   43) = (   0.0000000  -0.7071068   0.0000000), wk =   0.0034722
        k(   44) = (  -0.1178511   0.2357023   0.0000000), wk =   0.0277778
        k(   45) = (  -0.1767767   0.2946278  -0.0589256), wk =   0.0555556
        k(   46) = (  -0.2357023   0.3535534  -0.1178511), wk =   0.0555556
        k(   47) = (   0.4124790  -0.2946278   0.5303301), wk =   0.0555556
        k(   48) = (   0.3535534  -0.2357023   0.4714045), wk =   0.0277778
        k(   49) = (  -0.1178511   0.3535534   0.0000000), wk =   0.0277778
        k(   50) = (  -0.1767767   0.4124790  -0.0589256), wk =   0.0555556
        k(   51) = (   0.4714045  -0.2357023   0.5892557), wk =   0.0555556
        k(   52) = (   0.4124790  -0.1767767   0.5303301), wk =   0.0555556
        k(   53) = (   0.3535534  -0.1178511   0.4714045), wk =   0.0555556
        k(   54) = (   0.2946278  -0.0589256   0.4124790), wk =   0.0555556
        k(   55) = (   0.2357023  -0.0000000   0.3535534), wk =   0.0277778
        k(   56) = (  -0.1178511   0.4714045   0.0000000), wk =   0.0277778
        k(   57) = (   0.5303301  -0.1767767   0.6481812), wk =   0.0555556
        k(   58) = (   0.4714045  -0.1178511   0.5892557), wk =   0.0555556
        k(   59) = (   0.4124790  -0.0589256   0.5303301), wk =   0.0555556
        k(   60) = (   0.3535534   0.0000000   0.4714045), wk =   0.0277778
        k(   61) = (   0.5892557  -0.1178511   0.7071068), wk =   0.0277778
        k(   62) = (   0.5303301  -0.0589256   0.6481812), wk =   0.0555556
        k(   63) = (   0.4714045  -0.0000000   0.5892557), wk =   0.0277778
        k(   64) = (  -0.1178511  -0.7071068   0.0000000), wk =   0.0138889
        k(   65) = (   0.4714045  -0.2357023   0.7071068), wk =   0.0277778
        k(   66) = (   0.4124790  -0.1767767   0.6481812), wk =   0.0555556
        k(   67) = (   0.3535534  -0.1178511   0.5892557), wk =   0.0277778
        k(   68) = (   0.4714045  -0.1178511   0.7071068), wk =   0.0277778
        k(   69) = (   0.4124790  -0.0589256   0.6481812), wk =   0.0555556
        k(   70) = (   0.3535534   0.0000000   0.5892557), wk =   0.0277778
        k(   71) = (  -0.2357023  -0.7071068   0.0000000), wk =   0.0138889
        k(   72) = (  -0.3535534  -0.7071068   0.0000000), wk =   0.0069444

                       cryst. coord.
        k(    1) = (   0.0000000   0.0000000   0.0000000), wk =   0.0011574
        k(    2) = (   0.0000000   0.0000000   0.0833333), wk =   0.0092593
        k(    3) = (   0.0000000   0.0000000   0.1666667), wk =   0.0092593
        k(    4) = (   0.0000000   0.0000000   0.2500000), wk =   0.0092593
        k(    5) = (   0.0000000   0.0000000   0.3333333), wk =   0.0092593
        k(    6) = (   0.0000000   0.0000000   0.4166667), wk =   0.0092593
        k(    7) = (   0.0000000   0.0000000  -0.5000000), wk =   0.0046296
        k(    8) = (   0.0000000   0.0833333   0.0833333), wk =   0.0069444
        k(    9) = (   0.0000000   0.0833333   0.1666667), wk =   0.0277778
        k(   10) = (   0.0000000   0.0833333   0.2500000), wk =   0.0277778
        k(   11) = (   0.0000000   0.0833333   0.3333333), wk =   0.0277778
        k(   12) = (   0.0000000   0.0833333   0.4166667), wk =   0.0277778
        k(   13) = (   0.0000000   0.0833333  -0.5000000), wk =   0.0277778
        k(   14) = (   0.0000000   0.0833333  -0.4166667), wk =   0.0277778
        k(   15) = (   0.0000000   0.0833333  -0.3333333), wk =   0.0277778
        k(   16) = (   0.0000000   0.0833333  -0.2500000), wk =   0.0277778
        k(   17) = (   0.0000000   0.0833333  -0.1666667), wk =   0.0277778
        k(   18) = (   0.0000000   0.0833333  -0.0833333), wk =   0.0138889
        k(   19) = (   0.0000000   0.1666667   0.1666667), wk =   0.0069444
        k(   20) = (   0.0000000   0.1666667   0.2500000), wk =   0.0277778
        k(   21) = (   0.0000000   0.1666667   0.3333333), wk =   0.0277778
        k(   22) = (   0.0000000   0.1666667   0.4166667), wk =   0.0277778
        k(   23) = (   0.0000000   0.1666667  -0.5000000), wk =   0.0277778
        k(   24) = (   0.0000000   0.1666667  -0.4166667), wk =   0.0277778
        k(   25) = (   0.0000000   0.1666667  -0.3333333), wk =   0.0277778
        k(   26) = (   0.0000000   0.1666667  -0.2500000), wk =   0.0277778
        k(   27) = (   0.0000000   0.1666667  -0.1666667), wk =   0.0138889
        k(   28) = (   0.0000000   0.2500000   0.2500000), wk =   0.0069444
        k(   29) = (   0.0000000   0.2500000   0.3333333), wk =   0.0277778
        k(   30) = (   0.0000000   0.2500000   0.4166667), wk =   0.0277778
        k(   31) = (   0.0000000   0.2500000  -0.5000000), wk =   0.0277778
        k(   32) = (   0.0000000   0.2500000  -0.4166667), wk =   0.0277778
        k(   33) = (   0.0000000   0.2500000  -0.3333333), wk =   0.0277778
        k(   34) = (   0.0000000   0.2500000  -0.2500000), wk =   0.0138889
        k(   35) = (   0.0000000   0.3333333   0.3333333), wk =   0.0069444
        k(   36) = (   0.0000000   0.3333333   0.4166667), wk =   0.0277778
        k(   37) = (   0.0000000   0.3333333  -0.5000000), wk =   0.0277778
        k(   38) = (   0.0000000   0.3333333  -0.4166667), wk =   0.0277778
        k(   39) = (   0.0000000   0.3333333  -0.3333333), wk =   0.0138889
        k(   40) = (   0.0000000   0.4166667   0.4166667), wk =   0.0069444
        k(   41) = (   0.0000000   0.4166667  -0.5000000), wk =   0.0277778
        k(   42) = (   0.0000000   0.4166667  -0.4166667), wk =   0.0138889
        k(   43) = (   0.0000000  -0.5000000  -0.5000000), wk =   0.0034722
        k(   44) = (   0.0833333   0.1666667   0.2500000), wk =   0.0277778
        k(   45) = (   0.0833333   0.1666667   0.3333333), wk =   0.0555556
        k(   46) = (   0.0833333   0.1666667   0.4166667), wk =   0.0555556
        k(   47) = (   0.0833333   0.1666667  -0.5000000), wk =   0.0555556
        k(   48) = (   0.0833333   0.1666667  -0.4166667), wk =   0.0277778
        k(   49) = (   0.0833333   0.2500000   0.3333333), wk =   0.0277778
        k(   50) = (   0.0833333   0.2500000   0.4166667), wk =   0.0555556
        k(   51) = (   0.0833333   0.2500000  -0.5000000), wk =   0.0555556
        k(   52) = (   0.0833333   0.2500000  -0.4166667), wk =   0.0555556
        k(   53) = (   0.0833333   0.2500000  -0.3333333), wk =   0.0555556
        k(   54) = (   0.0833333   0.2500000  -0.2500000), wk =   0.0555556
        k(   55) = (   0.0833333   0.2500000  -0.1666667), wk =   0.0277778
        k(   56) = (   0.0833333   0.3333333   0.4166667), wk =   0.0277778
        k(   57) = (   0.0833333   0.3333333  -0.5000000), wk =   0.0555556
        k(   58) = (   0.0833333   0.3333333  -0.4166667), wk =   0.0555556
        k(   59) = (   0.0833333   0.3333333  -0.3333333), wk =   0.0555556
        k(   60) = (   0.0833333   0.3333333  -0.2500000), wk =   0.0277778
        k(   61) = (   0.0833333   0.4166667  -0.5000000), wk =   0.0277778
        k(   62) = (   0.0833333   0.4166667  -0.4166667), wk =   0.0555556
        k(   63) = (   0.0833333   0.4166667  -0.3333333), wk =   0.0277778
        k(   64) = (   0.0833333  -0.5000000  -0.4166667), wk =   0.0138889
        k(   65) = (   0.1666667   0.3333333  -0.5000000), wk =   0.0277778
        k(   66) = (   0.1666667   0.3333333  -0.4166667), wk =   0.0555556
        k(   67) = (   0.1666667   0.3333333  -0.3333333), wk =   0.0277778
        k(   68) = (   0.1666667   0.4166667  -0.4166667), wk =   0.0277778
        k(   69) = (   0.1666667   0.4166667  -0.3333333), wk =   0.0555556
        k(   70) = (   0.1666667   0.4166667  -0.2500000), wk =   0.0277778
        k(   71) = (   0.1666667  -0.5000000  -0.3333333), wk =   0.0138889
        k(   72) = (   0.2500000  -0.5000000  -0.2500000), wk =   0.0069444

     Dense  grid:    42615 G-vectors     FFT dimensions: (  50,  50,  50)

     Dynamical RAM for                 wfc:       0.11 MB

     Dynamical RAM for     wfc (w. buffer):       7.88 MB

     Dynamical RAM for           str. fact:       0.05 MB

     Dynamical RAM for           local pot:       0.00 MB

     Dynamical RAM for          nlocal pot:       0.43 MB

     Dynamical RAM for                qrad:       0.32 MB

     Dynamical RAM for          rho,v,vnew:       0.45 MB

     Dynamical RAM for               rhoin:       0.15 MB

     Dynamical RAM for            rho*nmix:       0.87 MB

     Dynamical RAM for           G-vectors:       0.23 MB

     Dynamical RAM for          h,s,v(r/c):       0.05 MB

     Dynamical RAM for          <psi|beta>:       0.02 MB

     Dynamical RAM for                 psi:       0.22 MB

     Dynamical RAM for                hpsi:       0.22 MB

     Dynamical RAM for                spsi:       0.22 MB

     Dynamical RAM for      wfcinit/wfcrot:       0.22 MB

     Dynamical RAM for           addusdens:       2.76 MB

     Dynamical RAM for          addusforce:       3.56 MB

     Dynamical RAM for         addusstress:       2.71 MB

     Estimated static dynamical RAM per process >      10.10 MB

     Estimated max dynamical RAM per process >      14.53 MB

     Estimated total dynamical RAM >     174.32 MB

     Initial potential from superposition of free atoms

     starting charge      23.9800, renormalised to      24.0000

     negative rho (up, down):  5.438E-03 0.000E+00
     Starting wfcs are   64 randomized atomic wfcs
     Checking if some PAW data can be deallocated... 

     total cpu time spent up to now is        1.2 secs

     per-process dynamical memory:    55.8 Mb

     Self-consistent Calculation

     iteration #  1     ecut=    50.00 Ry     beta= 0.70
     Davidson diagonalization with overlap

---- Real-time Memory Report at c_bands before calling an iterative solver
           116 MiB given to the printing process from OS
            54 MiB allocation reported by mallinfo(arena+hblkhd)
        141771 MiB available memory on the node where the printing process lives
------------------
     ethr =  1.00E-02,  avg # of iterations =  2.7

     Threshold (ethr) on eigenvalues was too large:
     Diagonalizing with lowered threshold

     Davidson diagonalization with overlap

---- Real-time Memory Report at c_bands before calling an iterative solver
           121 MiB given to the printing process from OS
            56 MiB allocation reported by mallinfo(arena+hblkhd)
        141608 MiB available memory on the node where the printing process lives
------------------
     ethr =  1.80E-04,  avg # of iterations =  3.4

     negative rho (up, down):  5.526E-03 0.000E+00

     total cpu time spent up to now is        2.8 secs

     total energy              =    -316.01449986 Ry
     estimated scf accuracy    <       0.04423846 Ry

     iteration #  2     ecut=    50.00 Ry     beta= 0.70
     Davidson diagonalization with overlap

---- Real-time Memory Report at c_bands before calling an iterative solver
           130 MiB given to the printing process from OS
            56 MiB allocation reported by mallinfo(arena+hblkhd)
        141362 MiB available memory on the node where the printing process lives
------------------
     ethr =  1.84E-04,  avg # of iterations =  1.0

     negative rho (up, down):  5.675E-03 0.000E+00

     total cpu time spent up to now is        3.3 secs

     total energy              =    -316.01470045 Ry
     estimated scf accuracy    <       0.00316283 Ry

     iteration #  3     ecut=    50.00 Ry     beta= 0.70
     Davidson diagonalization with overlap

---- Real-time Memory Report at c_bands before calling an iterative solver
           131 MiB given to the printing process from OS
            56 MiB allocation reported by mallinfo(arena+hblkhd)
        141259 MiB available memory on the node where the printing process lives
------------------
     ethr =  1.32E-05,  avg # of iterations =  2.1

     negative rho (up, down):  5.625E-03 0.000E+00

     total cpu time spent up to now is        3.9 secs

     total energy              =    -316.01483020 Ry
     estimated scf accuracy    <       0.00000793 Ry

     iteration #  4     ecut=    50.00 Ry     beta= 0.70
     Davidson diagonalization with overlap

---- Real-time Memory Report at c_bands before calling an iterative solver
           131 MiB given to the printing process from OS
            56 MiB allocation reported by mallinfo(arena+hblkhd)
        141162 MiB available memory on the node where the printing process lives
------------------
     ethr =  3.31E-08,  avg # of iterations =  5.4

     negative rho (up, down):  5.565E-03 0.000E+00

     total cpu time spent up to now is        4.8 secs

     total energy              =    -316.01484701 Ry
     estimated scf accuracy    <       0.00000147 Ry

     iteration #  5     ecut=    50.00 Ry     beta= 0.70
     Davidson diagonalization with overlap

---- Real-time Memory Report at c_bands before calling an iterative solver
           131 MiB given to the printing process from OS
            57 MiB allocation reported by mallinfo(arena+hblkhd)
        141031 MiB available memory on the node where the printing process lives
------------------
     ethr =  6.11E-09,  avg # of iterations =  2.1

     negative rho (up, down):  5.554E-03 0.000E+00

     total cpu time spent up to now is        5.5 secs

     total energy              =    -316.01484731 Ry
     estimated scf accuracy    <       0.00000015 Ry

     iteration #  6     ecut=    50.00 Ry     beta= 0.70
     Davidson diagonalization with overlap

---- Real-time Memory Report at c_bands before calling an iterative solver
           131 MiB given to the printing process from OS
            57 MiB allocation reported by mallinfo(arena+hblkhd)
        140963 MiB available memory on the node where the printing process lives
------------------
     ethr =  6.31E-10,  avg # of iterations =  2.2

     negative rho (up, down):  5.542E-03 0.000E+00

     total cpu time spent up to now is        6.1 secs

     total energy              =    -316.01484732 Ry
     estimated scf accuracy    <       0.00000001 Ry

     iteration #  7     ecut=    50.00 Ry     beta= 0.70
     Davidson diagonalization with overlap

---- Real-time Memory Report at c_bands before calling an iterative solver
           131 MiB given to the printing process from OS
            57 MiB allocation reported by mallinfo(arena+hblkhd)
        140852 MiB available memory on the node where the printing process lives
------------------
     ethr =  4.74E-11,  avg # of iterations =  2.4

     negative rho (up, down):  5.541E-03 0.000E+00

     total cpu time spent up to now is        6.8 secs

     total energy              =    -316.01484732 Ry
     estimated scf accuracy    <          1.3E-09 Ry

     iteration #  8     ecut=    50.00 Ry     beta= 0.70
     Davidson diagonalization with overlap

---- Real-time Memory Report at c_bands before calling an iterative solver
           131 MiB given to the printing process from OS
            57 MiB allocation reported by mallinfo(arena+hblkhd)
        140706 MiB available memory on the node where the printing process lives
------------------
     ethr =  5.58E-12,  avg # of iterations =  2.2

     negative rho (up, down):  5.540E-03 0.000E+00

     total cpu time spent up to now is        7.4 secs

     total energy              =    -316.01484732 Ry
     estimated scf accuracy    <          3.4E-11 Ry

     iteration #  9     ecut=    50.00 Ry     beta= 0.70
     Davidson diagonalization with overlap

---- Real-time Memory Report at c_bands before calling an iterative solver
           131 MiB given to the printing process from OS
            57 MiB allocation reported by mallinfo(arena+hblkhd)
        140584 MiB available memory on the node where the printing process lives
------------------
     ethr =  1.41E-13,  avg # of iterations =  4.2

     negative rho (up, down):  5.540E-03 0.000E+00

     total cpu time spent up to now is        8.2 secs

     total energy              =    -316.01484732 Ry
     estimated scf accuracy    <          1.2E-11 Ry

     iteration # 10     ecut=    50.00 Ry     beta= 0.70
     Davidson diagonalization with overlap

---- Real-time Memory Report at c_bands before calling an iterative solver
           132 MiB given to the printing process from OS
            57 MiB allocation reported by mallinfo(arena+hblkhd)
        140438 MiB available memory on the node where the printing process lives
------------------
     ethr =  1.00E-13,  avg # of iterations =  1.1

     negative rho (up, down):  5.540E-03 0.000E+00

     total cpu time spent up to now is        8.7 secs

     total energy              =    -316.01484732 Ry
     estimated scf accuracy    <          7.4E-13 Ry

     iteration # 11     ecut=    50.00 Ry     beta= 0.70
     Davidson diagonalization with overlap

---- Real-time Memory Report at c_bands before calling an iterative solver
           132 MiB given to the printing process from OS
            57 MiB allocation reported by mallinfo(arena+hblkhd)
        140323 MiB available memory on the node where the printing process lives
------------------
     ethr =  1.00E-13,  avg # of iterations =  1.0

     negative rho (up, down):  5.540E-03 0.000E+00

     total cpu time spent up to now is        9.3 secs

     total energy              =    -316.01484732 Ry
     estimated scf accuracy    <          1.9E-15 Ry

     iteration # 12     ecut=    50.00 Ry     beta= 0.70
     Davidson diagonalization with overlap

---- Real-time Memory Report at c_bands before calling an iterative solver
           132 MiB given to the printing process from OS
            57 MiB allocation reported by mallinfo(arena+hblkhd)
        140221 MiB available memory on the node where the printing process lives
------------------
     ethr =  1.00E-13,  avg # of iterations =  1.0

     negative rho (up, down):  5.540E-03 0.000E+00

     total cpu time spent up to now is        9.8 secs

     total energy              =    -316.01484732 Ry
     estimated scf accuracy    <          7.1E-16 Ry

     iteration # 13     ecut=    50.00 Ry     beta= 0.70
     Davidson diagonalization with overlap

---- Real-time Memory Report at c_bands before calling an iterative solver
           132 MiB given to the printing process from OS
            57 MiB allocation reported by mallinfo(arena+hblkhd)
        140037 MiB available memory on the node where the printing process lives
------------------
     ethr =  1.00E-13,  avg # of iterations =  1.0

     negative rho (up, down):  5.540E-03 0.000E+00

     total cpu time spent up to now is       10.3 secs

     total energy              =    -316.01484732 Ry
     estimated scf accuracy    <          7.8E-16 Ry

     iteration # 14     ecut=    50.00 Ry     beta= 0.70
     Davidson diagonalization with overlap

---- Real-time Memory Report at c_bands before calling an iterative solver
           132 MiB given to the printing process from OS
            57 MiB allocation reported by mallinfo(arena+hblkhd)
        139829 MiB available memory on the node where the printing process lives
------------------
     ethr =  1.00E-13,  avg # of iterations =  1.0

     negative rho (up, down):  5.540E-03 0.000E+00

     total cpu time spent up to now is       10.9 secs

     total energy              =    -316.01484732 Ry
     estimated scf accuracy    <          7.2E-16 Ry

     iteration # 15     ecut=    50.00 Ry     beta= 0.70
     Davidson diagonalization with overlap

---- Real-time Memory Report at c_bands before calling an iterative solver
           132 MiB given to the printing process from OS
            57 MiB allocation reported by mallinfo(arena+hblkhd)
        139655 MiB available memory on the node where the printing process lives
------------------
     ethr =  1.00E-13,  avg # of iterations =  1.0

     negative rho (up, down):  5.540E-03 0.000E+00

     total cpu time spent up to now is       11.4 secs

     End of self-consistent calculation

          k = 0.0000 0.0000 0.0000 (  5209 PWs)   bands (ev):

    -3.1912   3.3568   3.3568   3.3568   3.3568   3.5795   3.5795   3.5795
     3.5795   5.0306   5.0306   5.0306   6.3619   6.3619   6.3619  13.5665

     occupation numbers 
     1.0000   1.0000   1.0000   1.0000   1.0000   1.0000   1.0000   1.0000
     1.0000   1.0000   1.0000   1.0000   1.0000   1.0000   1.0000  -0.0000

          k =-0.0589 0.0589-0.0589 (  5254 PWs)   bands (ev):

    -3.1440   2.4180   3.1337   3.1337   3.1337   3.8918   3.8918   3.8918
     4.6014   4.7577   4.7577   4.7577   6.7213   6.7213   6.7213  12.3446

     occupation numbers 
     1.0000   1.0000   1.0000   1.0000   1.0000   1.0000   1.0000   1.0000
     1.0000   1.0000   1.0000   1.0000   1.0000   1.0000   1.0000  -0.0000

          k =-0.1179 0.1179-0.1179 (  5291 PWs)   bands (ev):

    -3.0022   1.4611   2.9141   2.9141   2.9141   4.2811   4.2811   4.2811
     4.3788   4.3788   4.3788   5.8073   7.4566   7.4566   7.4566  11.2542

     occupation numbers 
     1.0000   1.0000   1.0000   1.0000   1.0000   1.0000   1.0000   1.0000
     1.0000   1.0000   1.0000   1.0000   1.0105   1.0105   1.0105  -0.0000

          k =-0.1768 0.1768-0.1768 (  5297 PWs)   bands (ev):

    -2.7663   0.5887   2.7793   2.7793   2.7793   3.8255   3.8255   3.8255
     4.9584   4.9584   4.9584   7.0945   8.3362   8.3362   8.3362  10.1778

     occupation numbers 
     1.0000   1.0000   1.0000   1.0000   1.0000   1.0000   1.0000   1.0000
     1.0000   1.0000   1.0000   1.0000  -0.0343  -0.0343  -0.0343  -0.0000

          k =-0.2357 0.2357-0.2357 (  5303 PWs)   bands (ev):

    -2.4367  -0.1966   2.7333   2.7333   2.7333   3.4377   3.4377   3.4377
     5.6250   5.6250   5.6250   8.4590   8.9908   8.9909   8.9909   9.4754

     occupation numbers 
     1.0000   1.0000   1.0000   1.0000   1.0000   1.0000   1.0000   1.0000
     1.0000   1.0000   1.0000  -0.0156  -0.0000  -0.0000  -0.0000  -0.0000

          k =-0.2946 0.2946-0.2946 (  5306 PWs)   bands (ev):

    -2.0141  -0.8929   2.7770   2.7770   2.7770   3.1308   3.1308   3.1308
     6.3753   6.3753   6.3753   8.1079   8.1079   8.1079   9.8979  10.4635

     occupation numbers 
     1.0000   1.0000   1.0000   1.0000   1.0000   1.0000   1.0000   1.0000
     1.0000   1.0000   1.0000   0.1414   0.1414   0.1414  -0.0000  -0.0000

          k = 0.3536-0.3536 0.3536 (  5342 PWs)   bands (ev):

    -1.4991  -1.4991   2.9098   2.9098   2.9098   2.9098   2.9098   2.9098
     7.2056   7.2056   7.2056   7.2056   7.2056   7.2056  11.4072  11.4072

     occupation numbers 
     1.0000   1.0000   1.0000   1.0000   1.0000   1.0000   1.0000   1.0000
     1.0002   1.0002   1.0002   1.0002   1.0002   1.0002  -0.0000  -0.0000

          k = 0.0000 0.1179 0.0000 (  5265 PWs)   bands (ev):

    -3.1282   2.7941   2.7941   2.7941   2.7941   4.1625   4.2591   4.2591
     4.2591   4.2591   5.0883   5.0883   6.4228   6.4228   7.3391  12.0452

     occupation numbers 
     1.0000   1.0000   1.0000   1.0000   1.0000   1.0000   1.0000   1.0000
     1.0000   1.0000   1.0000   1.0000   1.0000   1.0000   1.0022  -0.0000

          k =-0.0589 0.1768-0.0589 (  5274 PWs)   bands (ev):

    -3.0180   1.8115   2.5387   2.5387   3.2532   3.5864   4.0120   4.7203
     4.7203   4.8747   4.8747   5.4353   6.8410   6.8410   8.1105  11.1595

     occupation numbers 
     1.0000   1.0000   1.0000   1.0000   1.0000   1.0000   1.0000   1.0000
     1.0000   1.0000   1.0000   1.0000   1.0000   1.0000   0.1360  -0.0000

          k =-0.1179 0.2357-0.1179 (  5293 PWs)   bands (ev):

    -2.8135   0.9107   2.3723   2.3723   3.0772   3.7069   3.9478   4.4587
     4.4587   5.2701   5.2701   6.6952   7.6304   7.6304   8.9846  10.1008

     occupation numbers 
     1.0000   1.0000   1.0000   1.0000   1.0000   1.0000   1.0000   1.0000
     1.0000   1.0000   1.0000   1.0000   1.0351   1.0351  -0.0000  -0.0000

          k =-0.1768 0.2946-0.1768 (  5304 PWs)   bands (ev):

    -2.5151   0.0965   2.2959   2.2959   2.6484   3.7272   4.0640   4.0640
     4.4932   5.9059   5.9059   8.0334   8.5108   8.5108   9.1114   9.1114

     occupation numbers 
     1.0000   1.0000   1.0000   1.0000   1.0000   1.0000   1.0000   1.0000
     1.0000   1.0000   1.0000   0.3299  -0.0091  -0.0091  -0.0000  -0.0000

          k =-0.2357 0.3536-0.2357 (  5308 PWs)   bands (ev):

    -2.1235  -0.6295   2.3052   2.3100   2.3100   3.7372   3.7372   3.7473
     5.2127   6.6253   6.6253   7.9913   7.9913   9.3780   9.4465   9.6782

     occupation numbers 
     1.0000   1.0000   1.0000   1.0000   1.0000   1.0000   1.0000   1.0000
     1.0000   1.0000   1.0000   0.4569   0.4569  -0.0000  -0.0000  -0.0000

          k = 0.4125-0.2946 0.4125 (  5307 PWs)   bands (ev):

    -1.6394  -1.2657   2.0502   2.4142   2.4142   3.4912   3.4912   3.8492
     6.0206   7.0683   7.0683   7.4246   7.4246   8.4673  10.8059  10.8067

     occupation numbers 
     1.0000   1.0000   1.0000   1.0000   1.0000   1.0000   1.0000   1.0000
     1.0000   1.0000   1.0000   1.0072   1.0072  -0.0144  -0.0000  -0.0000

          k = 0.3536-0.2357 0.3536 (  5311 PWs)   bands (ev):

    -1.8110  -1.0637   1.8848   2.6079   2.6079   3.3309   3.3309   4.0353
     6.2107   6.2107   6.9070   7.6202   8.2975   8.2975   9.9651  10.4292

     occupation numbers 
     1.0000   1.0000   1.0000   1.0000   1.0000   1.0000   1.0000   1.0000
     1.0000   1.0000   1.0000   1.0344  -0.0351  -0.0351  -0.0000  -0.0000

          k = 0.2946-0.1768 0.2946 (  5319 PWs)   bands (ev):

    -2.2644  -0.3974   1.8100   2.8898   2.8898   3.2581   3.2581   4.3018
     5.4318   5.4318   6.8493   7.8436   8.8884   8.9678   9.2187   9.2187

     occupation numbers 
     1.0000   1.0000   1.0000   1.0000   1.0000   1.0000   1.0000   1.0000
     1.0000   1.0000   1.0000   0.8654  -0.0000  -0.0000  -0.0000  -0.0000

          k = 0.2357-0.1179 0.2357 (  5312 PWs)   bands (ev):

    -2.6250   0.3581   1.8259   3.2576   3.2576   3.2730   3.2730   4.6360
     4.7368   4.7368   6.1594   7.5791   7.7873   8.9792   9.1431   9.1431

     occupation numbers 
     1.0000   1.0000   1.0000   1.0000   1.0000   1.0000   1.0000   1.0000
     1.0000   1.0000   1.0000   1.0292   0.9594  -0.0000  -0.0000  -0.0000

          k = 0.1768-0.0589 0.1768 (  5287 PWs)   bands (ev):

    -2.8921   1.2015   1.9328   3.3720   3.3720   3.7060   3.7060   4.1326
     4.1326   4.9916   5.5534   6.2665   6.9586   8.2260   8.2260  10.0550

     occupation numbers 
     1.0000   1.0000   1.0000   1.0000   1.0000   1.0000   1.0000   1.0000
     1.0000   1.0000   1.0000   1.0000   1.0000  -0.0137  -0.0137  -0.0000

          k = 0.1179-0.0000 0.1179 (  5274 PWs)   bands (ev):

    -3.0652   2.1304   2.1304   3.4735   3.4735   3.7026   3.7026   4.2218
     4.2218   5.0335   5.0335   5.1461   6.4833   7.3981   7.3981  11.1955

     occupation numbers 
     1.0000   1.0000   1.0000   1.0000   1.0000   1.0000   1.0000   1.0000
     1.0000   1.0000   1.0000   1.0000   1.0000   1.0052   1.0052  -0.0000

          k = 0.0000 0.2357 0.0000 (  5293 PWs)   bands (ev):

    -2.9393   2.2516   2.2516   2.2516   2.2516   2.9569   5.1513   5.1513
     5.1513   5.1513   5.2616   5.2616   6.6045   6.6045   8.8718  10.8278

     occupation numbers 
     1.0000   1.0000   1.0000   1.0000   1.0000   1.0000   1.0000   1.0000
     1.0000   1.0000   1.0000   1.0000   1.0000   1.0000  -0.0000  -0.0000

          k =-0.0589 0.2946-0.0589 (  5301 PWs)   bands (ev):

    -2.7663   1.3236   2.0543   2.0543   2.4065   2.7800   4.9562   5.1086
     5.1086   5.6697   5.6697   6.3821   7.0782   7.0782   9.7255  10.0173

     occupation numbers 
     1.0000   1.0000   1.0000   1.0000   1.0000   1.0000   1.0000   1.0000
     1.0000   1.0000   1.0000   1.0000   1.0000   1.0000  -0.0000  -0.0000

          k =-0.1179 0.3536-0.1179 (  5290 PWs)   bands (ev):

    -2.4995   0.4810   1.9410   1.9475   1.9475   3.3943   4.7543   4.7543
     4.8512   6.2733   6.2733   7.6917   7.9061   7.9061   9.0313   9.0313

     occupation numbers 
     1.0000   1.0000   1.0000   1.0000   1.0000   1.0000   1.0000   1.0000
     1.0000   1.0000   1.0000   1.0296   0.7134   0.7134  -0.0000  -0.0000

          k =-0.1768 0.4125-0.1768 (  5307 PWs)   bands (ev):

    -2.1392  -0.2738   1.5633   1.9316   1.9316   4.0866   4.4208   4.4208
     4.8417   6.9595   6.9595   7.9395   7.9395   8.9924   8.9924   9.0760

     occupation numbers 
     1.0000   1.0000   1.0000   1.0000   1.0000   1.0000   1.0000   1.0000
     1.0000   1.0000   1.0000   0.6166   0.6166  -0.0000  -0.0000  -0.0000

          k = 0.4714-0.2357 0.4714 (  5308 PWs)   bands (ev):

    -1.6862  -0.9395   1.2751   2.0064   2.0064   4.1548   4.1548   4.7531
     5.0273   7.0118   7.0118   7.7238   7.7238   9.7982  10.0700  10.0700

     occupation numbers 
     1.0000   1.0000   1.0000   1.0000   1.0000   1.0000   1.0000   1.0000
     1.0000   1.0000   1.0000   1.0165   1.0165  -0.0000  -0.0000  -0.0000

          k = 0.4125-0.1768 0.4125 (  5310 PWs)   bands (ev):

    -1.5147  -1.1413   1.0775   2.1716   2.1716   3.9689   3.9689   4.9986
     5.7942   6.1318   6.1318   8.5582   8.5582   8.9393   9.5657  11.0382

     occupation numbers 
     1.0000   1.0000   1.0000   1.0000   1.0000   1.0000   1.0000   1.0000
     1.0000   1.0000   1.0000  -0.0051  -0.0051  -0.0000  -0.0000  -0.0000

          k = 0.3536-0.1179 0.3536 (  5315 PWs)   bands (ev):

    -1.9984  -0.5057   0.9710   2.4263   2.4263   3.8670   3.8670   5.2216
     5.3278   5.3278   6.7179   8.1512   8.4658   9.4425   9.4425   9.5578

     occupation numbers 
     1.0000   1.0000   1.0000   1.0000   1.0000   1.0000   1.0000   1.0000
     1.0000   1.0000   1.0000   0.0634  -0.0146  -0.0000  -0.0000  -0.0000

          k = 0.2946-0.0589 0.2946 (  5310 PWs)   bands (ev):

    -2.3897   0.2196   0.9562   2.7692   2.7692   3.8464   3.8464   4.6112
     4.6112   5.4580   7.3276   7.4406   7.9133   8.1475  10.0163  10.0163

     occupation numbers 
     1.0000   1.0000   1.0000   1.0000   1.0000   1.0000   1.0000   1.0000
     1.0000   1.0000   1.0019   1.0087   0.6932   0.0690  -0.0000  -0.0000

          k = 0.2357-0.0000 0.2357 (  5306 PWs)   bands (ev):

    -2.6878   1.0330   1.0330   3.1975   3.1975   3.8235   3.8235   4.0698
     4.0698   5.4927   6.8115   6.8115   6.8360   8.9065   9.0984   9.0984

     occupation numbers 
     1.0000   1.0000   1.0000   1.0000   1.0000   1.0000   1.0000   1.0000
     1.0000   1.0000   1.0000   1.0000   1.0000  -0.0000  -0.0000  -0.0000

          k = 0.0000 0.3536 0.0000 (  5321 PWs)   bands (ev):

    -2.6250   1.8194   1.8264   1.8264   1.8264   1.8264   5.5505   5.5505
     6.1555   6.1555   6.1555   6.1555   6.9039   6.9039   9.7241   9.7241

     occupation numbers 
     1.0000   1.0000   1.0000   1.0000   1.0000   1.0000   1.0000   1.0000
     1.0000   1.0000   1.0000   1.0000   1.0000   1.0000  -0.0000  -0.0000

          k =-0.0589 0.4125-0.0589 (  5317 PWs)   bands (ev):

    -2.3897   0.9564   1.3193   1.6892   1.6892   2.4179   5.4590   5.4590
     6.0149   6.7252   6.7252   7.4254   7.4254   7.4338   8.9825   8.9825

     occupation numbers 
     1.0000   1.0000   1.0000   1.0000   1.0000   1.0000   1.0000   1.0000
     1.0000   1.0000   1.0000   1.0073   1.0073   1.0081  -0.0000  -0.0000

          k =-0.1179 0.4714-0.1179 (  5298 PWs)   bands (ev):

    -2.0610   0.1734   0.9080   1.6431   1.6431   3.0966   5.1668   5.1668
     5.9587   7.3749   7.3749   7.9164   7.9164   8.4412   8.4412   8.7850

     occupation numbers 
     1.0000   1.0000   1.0000   1.0000   1.0000   1.0000   1.0000   1.0000
     1.0000   1.0038   1.0038   0.6846   0.6846  -0.0184  -0.0184  -0.0001

          k = 0.5303-0.1768 0.5303 (  5314 PWs)   bands (ev):

    -1.6394  -0.5212   0.5870   1.6881   1.6881   3.8602   4.8939   4.8939
     5.9822   7.0309   7.0309   8.0975   8.0975   9.4235   9.4235  10.2016

     occupation numbers 
     1.0000   1.0000   1.0000   1.0000   1.0000   1.0000   1.0000   1.0000
     1.0000   1.0000   1.0000   0.1638   0.1638  -0.0000  -0.0000  -0.0000

          k = 0.4714-0.1179 0.4714 (  5323 PWs)   bands (ev):

    -1.1258  -1.1258   0.3572   1.8240   1.8240   4.6863   4.6863   4.7053
     6.0723   6.1377   6.1377   8.8763   8.8763   9.2813  10.3266  10.5637

     occupation numbers 
     1.0000   1.0000   1.0000   1.0000   1.0000   1.0000   1.0000   1.0000
     1.0000   1.0000   1.0000  -0.0000  -0.0000  -0.0000  -0.0000  -0.0000

          k = 0.4125-0.0589 0.4125 (  5311 PWs)   bands (ev):

    -1.6394  -0.5212   0.2191   2.0502   2.0502   4.5515   4.5515   5.3186
     5.3186   5.6227   6.1814   8.2195   9.5258   9.6595   9.6595  10.2260

     occupation numbers 
     1.0000   1.0000   1.0000   1.0000   1.0000   1.0000   1.0000   1.0000
     1.0000   1.0000   1.0000  -0.0096  -0.0000  -0.0000  -0.0000  -0.0000

          k = 0.3536 0.0000 0.3536 (  5304 PWs)   bands (ev):

    -2.0610   0.1732   0.1732   2.3658   2.3658   4.4057   4.4057   4.6732
     4.6732   6.0708   6.5972   7.5698   8.7976   8.7976  10.2472  10.2472

     occupation numbers 
     1.0000   1.0000   1.0000   1.0000   1.0000   1.0000   1.0000   1.0000
     1.0000   1.0000   1.0000   1.0277  -0.0001  -0.0001  -0.0000  -0.0000

          k = 0.0000 0.4714 0.0000 (  5293 PWs)   bands (ev):

    -2.1861   0.7855   1.5216   1.5216   1.5216   1.5216   5.9551   5.9551
     7.2581   7.2581   7.2581   7.2581   7.3120   7.3120   8.7369   8.7369

     occupation numbers 
     1.0000   1.0000   1.0000   1.0000   1.0000   1.0000   1.0000   1.0000
     1.0006   1.0006   1.0006   1.0006   1.0015   1.0015  -0.0003  -0.0003

          k =-0.0589 0.5303-0.0589 (  5299 PWs)   bands (ev):

    -1.8891   0.3412   0.7111   1.4452   1.4452   2.1754   5.9251   5.9251
     7.1597   7.7990   7.7990   7.8652   7.8652   8.1356   8.1356   8.5691

     occupation numbers 
     1.0000   1.0000   1.0000   1.0000   1.0000   1.0000   1.0000   1.0000
     1.0001   0.9434   0.9434   0.8183   0.8183   0.0886   0.0886  -0.0044

          k = 0.5893-0.1179 0.5893 (  5309 PWs)   bands (ev):

    -1.4992  -0.0123  -0.0116   1.4601   1.4601   2.9162   5.6929   5.6929
     7.1112   7.1112   7.1246   8.5299   8.5299   8.8701   8.8701   9.9306

     occupation numbers 
     1.0000   1.0000   1.0000   1.0000   1.0000   1.0000   1.0000   1.0000
     1.0000   1.0000   1.0000  -0.0072  -0.0072  -0.0000  -0.0000  -0.0000

          k = 0.5303-0.0589 0.5303 (  5304 PWs)   bands (ev):

    -1.0172  -0.6450  -0.2742   1.5662   1.5662   3.7420   5.4714   5.4714
     6.2276   6.2276   7.1023   9.1657   9.1989   9.1989   9.9287   9.9287

     occupation numbers 
     1.0000   1.0000   1.0000   1.0000   1.0000   1.0000   1.0000   1.0000
     1.0000   1.0000   1.0000  -0.0000  -0.0000  -0.0000  -0.0000  -0.0000

          k = 0.4714-0.0000 0.4714 (  5330 PWs)   bands (ev):

    -1.1880  -0.4440  -0.4440   1.7631   1.7631   4.6497   5.2162   5.2162
     5.4930   5.4930   6.8811   8.3605   9.6659   9.6659  10.9640  10.9645

     occupation numbers 
     1.0000   1.0000   1.0000   1.0000   1.0000   1.0000   1.0000   1.0000
     1.0000   1.0000   1.0000  -0.0315  -0.0000  -0.0000  -0.0000  -0.0000

          k = 0.0000 0.5893 0.0000 (  5310 PWs)   bands (ev):

    -1.6238  -0.1356   1.3384   1.3384   1.3384   1.3384   6.4759   6.4759
     7.7965   7.7965   7.8665   7.8665   8.4139   8.4139   8.4139   8.4139

     occupation numbers 
     1.0000   1.0000   1.0000   1.0000   1.0000   1.0000   1.0000   1.0000
     0.9470   0.9470   0.8152   0.8152  -0.0229  -0.0229  -0.0229  -0.0229

          k = 0.6482-0.0589 0.6482 (  5333 PWs)   bands (ev):

    -1.2658  -0.5215   0.5883   1.3230   1.3230   2.0539   6.5031   6.5031
     7.2054   7.2054   8.2682   8.4067   8.4067   8.9672   8.9672   9.4897

     occupation numbers 
     1.0000   1.0000   1.0000   1.0000   1.0000   1.0000   1.0000   1.0000
     1.0002   1.0002  -0.0309  -0.0241  -0.0241  -0.0000  -0.0000  -0.0000

          k = 0.5893-0.0000 0.5893 (  5306 PWs)   bands (ev):

    -0.8156  -0.8156  -0.0733   1.3990   1.3990   2.8559   6.2346   6.2346
     6.4601   6.4601   7.9243   9.2419   9.2419   9.3172   9.3172   9.4320

     occupation numbers 
     1.0000   1.0000   1.0000   1.0000   1.0000   1.0000   1.0000   1.0000
     1.0000   1.0000   0.6615  -0.0000  -0.0000  -0.0000  -0.0000  -0.0000

          k = 0.0000-0.7071 0.0000 (  5346 PWs)   bands (ev):

    -0.9397  -0.9397   1.2773   1.2773   1.2773   1.2773   7.1129   7.1129
     7.1129   7.1129   8.1284   8.1284   9.0822   9.0822   9.2009   9.2009

     occupation numbers 
     1.0000   1.0000   1.0000   1.0000   1.0000   1.0000   1.0000   1.0000
     1.0000   1.0000   0.1013   0.1013  -0.0000  -0.0000  -0.0000  -0.0000

          k =-0.1179 0.2357 0.0000 (  5289 PWs)   bands (ev):

    -2.8764   1.5829   1.5829   3.0171   3.0343   3.0343   4.3996   4.4975
     4.4975   5.3193   5.9244   5.9244   6.6635   7.5743   8.9290  10.0402

     occupation numbers 
     1.0000   1.0000   1.0000   1.0000   1.0000   1.0000   1.0000   1.0000
     1.0000   1.0000   1.0000   1.0000   1.0000   1.0285  -0.0000  -0.0000

          k =-0.1768 0.2946-0.0589 (  5305 PWs)   bands (ev):

    -2.6407   0.7113   1.4454   2.5275   2.8999   3.6107   3.9449   4.3708
     5.0754   5.2253   6.4994   7.1871   7.2094   8.4528   8.9399   9.8346

     occupation numbers 
     1.0000   1.0000   1.0000   1.0000   1.0000   1.0000   1.0000   1.0000
     1.0000   1.0000   1.0000   1.0002   1.0002  -0.0165  -0.0000  -0.0000

          k =-0.2357 0.3536-0.1179 (  5307 PWs)   bands (ev):

    -2.3114  -0.0732   1.3991   2.1232   2.8541   3.5577   4.1730   4.4332
     4.9306   5.7395   7.1580   7.7170   8.2583   8.5709   9.0796   9.5499

     occupation numbers 
     1.0000   1.0000   1.0000   1.0000   1.0000   1.0000   1.0000   1.0000
     1.0000   1.0000   1.0001   1.0201  -0.0282  -0.0043  -0.0000  -0.0000

          k = 0.4125-0.2946 0.5303 (  5301 PWs)   bands (ev):

    -1.8891  -0.7689   1.4442   1.8069   2.8977   3.2512   4.3139   4.6565
     5.0888   6.4860   6.8265   7.8973   8.2001   9.2155   9.5933  10.0055

     occupation numbers 
     1.0000   1.0000   1.0000   1.0000   1.0000   1.0000   1.0000   1.0000
     1.0000   1.0000   1.0000   0.7374   0.0054  -0.0000  -0.0000  -0.0000

          k = 0.3536-0.2357 0.4714 (  5308 PWs)   bands (ev):

    -1.3746  -1.3746   1.5803   1.5803   3.0305   3.0305   4.4483   4.4483
     5.9176   5.9176   7.3098   7.3098   8.7124   8.7124  10.3700  10.3700

     occupation numbers 
     1.0000   1.0000   1.0000   1.0000   1.0000   1.0000   1.0000   1.0000
     1.0000   1.0000   1.0014   1.0014  -0.0004  -0.0004  -0.0000  -0.0000

          k =-0.1179 0.3536 0.0000 (  5310 PWs)   bands (ev):

    -2.5622   1.1554   1.1554   1.8802   2.6142   2.6142   4.6954   5.5025
     5.5025   5.6082   6.9248   6.9248   6.9571   7.8638   8.9606   9.7822

     occupation numbers 
     1.0000   1.0000   1.0000   1.0000   1.0000   1.0000   1.0000   1.0000
     1.0000   1.0000   1.0000   1.0000   1.0000   0.8215  -0.0000  -0.0000

          k =-0.1768 0.4125-0.0589 (  5308 PWs)   bands (ev):

    -2.2644   0.3426   1.0786   1.4413   2.5382   3.2610   4.3023   5.4228
     5.5749   6.1331   7.4466   7.5501   7.9997   8.2564   8.7472   9.1395

     occupation numbers 
     1.0000   1.0000   1.0000   1.0000   1.0000   1.0000   1.0000   1.0000
     1.0000   1.0000   1.0093   1.0245   0.4308  -0.0275  -0.0002  -0.0000

          k = 0.4714-0.2357 0.5893 (  5303 PWs)   bands (ev):

    -1.8734  -0.3820   1.0917   1.0935   2.5523   3.9766   3.9914   5.3396
     5.4298   6.8236   6.8435   8.1620   8.2541   8.5769   9.6594   9.8625

     occupation numbers 
     1.0000   1.0000   1.0000   1.0000   1.0000   1.0000   1.0000   1.0000
     1.0000   1.0000   1.0000   0.0479  -0.0268  -0.0039  -0.0000  -0.0000

          k = 0.4125-0.1768 0.5303 (  5304 PWs)   bands (ev):

    -1.3902  -1.0171   0.8325   1.1998   2.6563   3.7313   4.7967   5.1169
     5.5250   5.9058   7.2712   7.6262   9.0294   9.6751  10.0324  10.0659

     occupation numbers 
     1.0000   1.0000   1.0000   1.0000   1.0000   1.0000   1.0000   1.0000
     1.0000   1.0000   1.0007   1.0348  -0.0000  -0.0000  -0.0000  -0.0000

          k = 0.3536-0.1179 0.4714 (  5303 PWs)   bands (ev):

    -1.5615  -0.8154   0.6644   1.3973   2.8496   3.5712   4.8692   5.1451
     5.5502   5.8161   6.4300   8.4637   8.8687   9.2415   9.8594  10.6412

     occupation numbers 
     1.0000   1.0000   1.0000   1.0000   1.0000   1.0000   1.0000   1.0000
     1.0000   1.0000   1.0000  -0.0149  -0.0000  -0.0000  -0.0000  -0.0000

          k = 0.2946-0.0589 0.4125 (  5305 PWs)   bands (ev):

    -2.0141  -0.1504   0.5881   1.6852   3.1310   3.4984   4.2035   4.9614
     5.6601   5.8027   6.6772   7.8842   8.4860   9.1894   9.3012  10.3702

     occupation numbers 
     1.0000   1.0000   1.0000   1.0000   1.0000   1.0000   1.0000   1.0000
     1.0000   1.0000   1.0000   0.7718  -0.0119  -0.0000  -0.0000  -0.0000

          k = 0.2357-0.0000 0.3536 (  5295 PWs)   bands (ev):

    -2.3740   0.6037   0.6037   2.0625   3.4978   3.5130   3.5130   4.9707
     4.9707   5.7817   7.0771   7.8072   7.8072   7.8800   9.3702   9.9566

     occupation numbers 
     1.0000   1.0000   1.0000   1.0000   1.0000   1.0000   1.0000   1.0000
     1.0000   1.0000   1.0000   0.9311   0.9311   0.7825  -0.0000  -0.0000

          k =-0.1179 0.4714 0.0000 (  5306 PWs)   bands (ev):

    -2.1235   0.8468   0.8491   0.8491   2.3117   2.3117   5.1085   6.0130
     6.6087   6.6087   7.3191   8.0227   8.0227   8.0299   8.2534   8.7949

     occupation numbers 
     1.0000   1.0000   1.0000   1.0000   1.0000   1.0000   1.0000   1.0000
     1.0000   1.0000   1.0016   0.3613   0.3613   0.3399  -0.0265  -0.0001

          k = 0.5303-0.1768 0.6482 (  5307 PWs)   bands (ev):

    -1.7642   0.0963   0.4642   0.8335   2.2960   3.0213   4.7773   6.0363
     6.5706   6.8859   7.2767   8.1028   8.1372   8.6846   9.2220   9.3866

     occupation numbers 
     1.0000   1.0000   1.0000   1.0000   1.0000   1.0000   1.0000   1.0000
     1.0000   1.0000   1.0008   0.1521   0.0857  -0.0007  -0.0000  -0.0000

          k = 0.4714-0.1179 0.5893 (  5309 PWs)   bands (ev):

    -1.3124  -0.5676   0.1726   0.9097   2.3706   3.8159   4.5126   5.7814
     6.0404   6.5967   7.2951   8.0022   9.0873   9.4034   9.8094  10.1612

     occupation numbers 
     1.0000   1.0000   1.0000   1.0000   1.0000   1.0000   1.0000   1.0000
     1.0000   1.0000   1.0011   0.4232  -0.0000  -0.0000  -0.0000  -0.0000

          k = 0.4125-0.0589 0.5303 (  5305 PWs)   bands (ev):

    -1.1413  -0.7690  -0.0273   1.0774   2.5353   4.3274   4.6927   5.0258
     5.7610   6.4525   6.6368   8.6904   8.7319  10.1272  10.2425  10.7618

     occupation numbers 
     1.0000   1.0000   1.0000   1.0000   1.0000   1.0000   1.0000   1.0000
     1.0000   1.0000   1.0000  -0.0007  -0.0003  -0.0000  -0.0000  -0.0000

          k = 0.3536 0.0000 0.4714 (  5300 PWs)   bands (ev):

    -1.6238  -0.1351  -0.1351   1.3362   2.7893   4.2254   4.2254   5.6455
     5.6669   5.6669   6.4758   7.9464   9.2595   9.8848   9.8848  10.6413

     occupation numbers 
     1.0000   1.0000   1.0000   1.0000   1.0000   1.0000   1.0000   1.0000
     1.0000   1.0000   1.0000   0.5958  -0.0000  -0.0000  -0.0000  -0.0000

          k = 0.5893-0.1179 0.7071 (  5317 PWs)   bands (ev):

    -1.5615  -0.0740   0.6650   0.6650   2.1297   2.1297   5.6373   6.5337
     7.0085   7.7696   7.7696   7.9245   7.9855   8.6603   9.1731   9.1731

     occupation numbers 
     1.0000   1.0000   1.0000   1.0000   1.0000   1.0000   1.0000   1.0000
     1.0000   0.9801   0.9801   0.6611   0.4748  -0.0011  -0.0000  -0.0000

          k = 0.5303-0.0589 0.6482 (  5314 PWs)   bands (ev):

    -1.1414  -0.3978  -0.0270   0.7108   2.1746   2.9008   5.3672   6.0609
     6.6443   7.3320   7.6852   8.3844   8.6508   9.2329   9.7549   9.7814

     occupation numbers 
     1.0000   1.0000   1.0000   1.0000   1.0000   1.0000   1.0000   1.0000
     1.0000   1.0020   1.0312  -0.0278  -0.0013  -0.0000  -0.0000  -0.0000

          k = 0.4714-0.0000 0.5893 (  5314 PWs)   bands (ev):

    -0.6297  -0.6297  -0.6295   0.8484   2.3100   3.7566   5.1611   5.1611
     6.5402   6.5402   7.4026   8.7948   8.8959   9.6945   9.6945  10.1886

     occupation numbers 
     1.0000   1.0000   1.0000   1.0000   1.0000   1.0000   1.0000   1.0000
     1.0000   1.0000   1.0055  -0.0001  -0.0000  -0.0000  -0.0000  -0.0000

          k =-0.1179-0.7071 0.0000 (  5314 PWs)   bands (ev):

    -0.8776  -0.8776   0.6036   0.6036   2.0689   2.0689   6.2780   6.2780
     7.1708   7.1708   8.5205   8.5205   8.5625   8.5625   9.6920   9.6920

     occupation numbers 
     1.0000   1.0000   1.0000   1.0000   1.0000   1.0000   1.0000   1.0000
     1.0001   1.0001  -0.0081  -0.0081  -0.0048  -0.0048  -0.0000  -0.0000

          k = 0.4714-0.2357 0.7071 (  5301 PWs)   bands (ev):

    -1.9359   0.2963   0.2963   1.0305   3.2157   3.2157   3.9170   6.0768
     6.0768   6.1865   6.7057   7.6816   8.8998   8.8998   8.9691   9.6781

     occupation numbers 
     1.0000   1.0000   1.0000   1.0000   1.0000   1.0000   1.0000   1.0000
     1.0000   1.0000   1.0000   1.0320  -0.0000  -0.0000  -0.0000  -0.0000

          k = 0.4125-0.1768 0.6482 (  5297 PWs)   bands (ev):

    -1.5147  -0.3975   0.3422   0.7098   3.2594   3.6118   3.9778   5.7348
     6.1001   6.2976   6.8053   8.3334   8.3798   9.6150  10.2906  10.3147

     occupation numbers 
     1.0000   1.0000   1.0000   1.0000   1.0000   1.0000   1.0000   1.0000
     1.0000   1.0000   1.0000  -0.0345  -0.0286  -0.0000  -0.0000  -0.0000

          k = 0.3536-0.1179 0.5893 (  5292 PWs)   bands (ev):

    -1.0016  -1.0016   0.4802   0.4802   3.3918   3.3918   4.8205   4.8205
     6.1897   6.1897   7.5907   7.5907   9.3931   9.3931  10.3865  10.3865

     occupation numbers 
     1.0000   1.0000   1.0000   1.0000   1.0000   1.0000   1.0000   1.0000
     1.0000   1.0000   1.0310   1.0310  -0.0000  -0.0000  -0.0000  -0.0000

          k = 0.4714-0.1179 0.7071 (  5308 PWs)   bands (ev):

    -1.3746   0.1110   0.1116   0.1116   3.0356   3.0356   4.4538   5.8671
     6.7074   7.2415   7.2415   8.0985   8.1718   9.4702  10.0452  10.0452

     occupation numbers 
     1.0000   1.0000   1.0000   1.0000   1.0000   1.0000   1.0000   1.0000
     1.0000   1.0004   1.0004   0.1615   0.0351  -0.0000  -0.0000  -0.0000

          k = 0.4125-0.0589 0.6482 (  5301 PWs)   bands (ev):

    -0.8930  -0.5213  -0.1507   0.2191   3.1393   3.8597   4.2099   4.9223
     6.8695   7.2186   7.5670   7.9176   8.9137   9.2784   9.5950   9.9744

     occupation numbers 
     1.0000   1.0000   1.0000   1.0000   1.0000   1.0000   1.0000   1.0000
     1.0000   1.0003   1.0273   0.6812  -0.0000  -0.0000  -0.0000  -0.0000

          k = 0.3536 0.0000 0.5893 (  5311 PWs)   bands (ev):

    -1.0637  -0.3204  -0.3204   0.4187   3.3318   4.0506   4.0506   4.7651
     6.8308   6.8308   6.9970   8.3886   8.4750   9.8611  10.0267  10.0267

     occupation numbers 
     1.0000   1.0000   1.0000   1.0000   1.0000   1.0000   1.0000   1.0000
     1.0000   1.0000   1.0000  -0.0272  -0.0134  -0.0000  -0.0000  -0.0000

          k =-0.2357-0.7071 0.0000 (  5316 PWs)   bands (ev):

    -0.6916  -0.6916   0.0499   0.0499   2.9753   2.9753   5.1059   5.1059
     7.3447   7.3447   8.0404   8.0404   8.7979   8.7979   9.5441   9.5441

     occupation numbers 
     1.0000   1.0000   1.0000   1.0000   1.0000   1.0000   1.0000   1.0000
     1.0024   1.0024   0.3098   0.3098  -0.0001  -0.0001  -0.0000  -0.0000

          k =-0.3536-0.7071 0.0000 (  5268 PWs)   bands (ev):

    -0.3822  -0.3822  -0.3822  -0.3822   3.9915   3.9915   3.9915   3.9915
     7.6345   7.6345   7.6345   7.6345   9.1193   9.1193   9.1193   9.1193

     occupation numbers 
     1.0000   1.0000   1.0000   1.0000   1.0000   1.0000   1.0000   1.0000
     1.0353   1.0353   1.0353   1.0353  -0.0000  -0.0000  -0.0000  -0.0000

     the Fermi energy is     7.9774 ev

!    total energy              =    -316.01484732 Ry
     total all-electron energy =      -316.014847 Ry
     estimated scf accuracy    <          2.4E-17 Ry
     smearing contrib. (-TS)   =      -0.00063074 Ry
     internal energy E=F+TS    =    -316.01421657 Ry

     The total energy is F=E-TS. E is the sum of the following terms:
     one-electron contribution =      25.29914325 Ry
     hartree contribution      =       0.06578385 Ry
     xc contribution           =     -16.83174877 Ry
     ewald contribution        =     -43.26284754 Ry
     one-center paw contrib.   =    -281.28454736 Ry
      -> PAW hartree energy AE =       0.30749183 Ry
      -> PAW hartree energy PS =      -0.29817046 Ry
      -> PAW xc energy AE      =     -36.02468924 Ry
      -> PAW xc energy PS      =       0.85479945 Ry
      -> total E_H with PAW    =       0.07510522 Ry
      -> total E_XC with PAW   =     -52.00163856 Ry

     convergence has been achieved in  15 iterations

     negative rho (up, down):  5.540E-03 0.000E+00

     Forces acting on atoms (cartesian axes, Ry/au):

     atom    1 type  1   force =    -0.00000000   -0.00000000   -0.00000000
     atom    2 type  1   force =     0.00000000   -0.00000000    0.00000000
     atom    3 type  1   force =    -0.00000000   -0.00000000    0.00000000
     atom    4 type  1   force =     0.00000000    0.00000000    0.00000000
     atom    5 type  1   force =     0.00000000    0.00000000    0.00000000
     atom    6 type  1   force =    -0.00000000    0.00000000   -0.00000000
     atom    7 type  1   force =     0.00000000    0.00000000    0.00000000
     atom    8 type  1   force =     0.00000000    0.00000000    0.00000000
     The non-local contrib.  to forces
     atom    1 type  1   force =     0.00000000    0.00000000    0.00000000
     atom    2 type  1   force =    -0.00000000   -0.00000000   -0.00000000
     atom    3 type  1   force =    -0.00000000   -0.00000000    0.00000000
     atom    4 type  1   force =     0.00000000   -0.00000000    0.00000000
     atom    5 type  1   force =    -0.00000000   -0.00000000   -0.00000000
     atom    6 type  1   force =     0.00000000   -0.00000000   -0.00000000
     atom    7 type  1   force =    -0.00000000    0.00000000    0.00000000
     atom    8 type  1   force =    -0.00000000    0.00000000   -0.00000000
     The ionic contribution  to forces
     atom    1 type  1   force =     0.00000000   -0.00000000   -0.00000000
     atom    2 type  1   force =    -0.00000000   -0.00000000    0.00000000
     atom    3 type  1   force =     0.00000000    0.00000000    0.00000000
     atom    4 type  1   force =     0.00000000   -0.00000000    0.00000000
     atom    5 type  1   force =    -0.00000000    0.00000000   -0.00000000
     atom    6 type  1   force =    -0.00000000   -0.00000000   -0.00000000
     atom    7 type  1   force =     0.00000000    0.00000000   -0.00000000
     atom    8 type  1   force =    -0.00000000    0.00000000    0.00000000
     The local contribution  to forces
     atom    1 type  1   force =    -0.00000000    0.00000000   -0.00000000
     atom    2 type  1   force =     0.00000000    0.00000000   -0.00000000
     atom    3 type  1   force =    -0.00000000   -0.00000000   -0.00000000
     atom    4 type  1   force =     0.00000000    0.00000000   -0.00000000
     atom    5 type  1   force =     0.00000000   -0.00000000    0.00000000
     atom    6 type  1   force =     0.00000000   -0.00000000   -0.00000000
     atom    7 type  1   force =     0.00000000   -0.00000000    0.00000000
     atom    8 type  1   force =     0.00000000   -0.00000000   -0.00000000
     The core correction contribution to forces
     atom    1 type  1   force =    -0.00000000    0.00000000    0.00000000
     atom    2 type  1   force =    -0.00000000    0.00000000   -0.00000000
     atom    3 type  1   force =    -0.00000000   -0.00000000   -0.00000000
     atom    4 type  1   force =    -0.00000000    0.00000000   -0.00000000
     atom    5 type  1   force =    -0.00000000   -0.00000000    0.00000000
     atom    6 type  1   force =     0.00000000    0.00000000   -0.00000000
     atom    7 type  1   force =    -0.00000000   -0.00000000    0.00000000
     atom    8 type  1   force =     0.00000000   -0.00000000   -0.00000000
     The Hubbard contrib.    to forces
     atom    1 type  1   force =     0.00000000    0.00000000    0.00000000
     atom    2 type  1   force =     0.00000000    0.00000000    0.00000000
     atom    3 type  1   force =     0.00000000    0.00000000    0.00000000
     atom    4 type  1   force =     0.00000000    0.00000000    0.00000000
     atom    5 type  1   force =     0.00000000    0.00000000    0.00000000
     atom    6 type  1   force =     0.00000000    0.00000000    0.00000000
     atom    7 type  1   force =     0.00000000    0.00000000    0.00000000
     atom    8 type  1   force =     0.00000000    0.00000000    0.00000000
     The SCF correction term to forces
     atom    1 type  1   force =    -0.00000000    0.00000000   -0.00000000
     atom    2 type  1   force =    -0.00000000   -0.00000000   -0.00000000
     atom    3 type  1   force =    -0.00000000    0.00000000    0.00000000
     atom    4 type  1   force =    -0.00000000    0.00000000   -0.00000000
     atom    5 type  1   force =     0.00000000   -0.00000000   -0.00000000
     atom    6 type  1   force =    -0.00000000   -0.00000000    0.00000000
     atom    7 type  1   force =     0.00000000   -0.00000000    0.00000000
     atom    8 type  1   force =     0.00000000   -0.00000000    0.00000000

     Total force =     0.000000     Total SCF correction =     0.000000


     Computing stress (Cartesian axis) and pressure


     negative rho (up, down):  5.540E-03 0.000E+00
          total   stress  (Ry/bohr**3)                   (kbar)     P=       -0.04
  -0.00000027  -0.00000000   0.00000000           -0.04       -0.00        0.00
  -0.00000000  -0.00000027   0.00000000           -0.00       -0.04        0.00
   0.00000000   0.00000000  -0.00000027            0.00        0.00       -0.04

     kinetic stress (kbar)   1464.97      0.00     -0.00
                                0.00   1464.97      0.00
                                0.00      0.00   1464.97

     local   stress (kbar)    -46.88      0.00     -0.00
                                0.00    -46.88     -0.00
                               -0.00     -0.00    -46.88

     nonloc. stress (kbar)   1751.54      0.00     -0.00
                                0.00   1751.54     -0.00
                               -0.00     -0.00   1751.54

     hartree stress (kbar)      3.63      0.00      0.00
                                0.00      3.63      0.00
                                0.00      0.00      3.63

     exc-cor stress (kbar)    -86.34      0.00     -0.00
                                0.00    -86.34      0.00
                               -0.00      0.00    -86.34

     corecor stress (kbar)   -699.36     -0.00      0.00
                               -0.00   -699.36     -0.00
                                0.00     -0.00   -699.36

     ewald   stress (kbar)  -2387.59     -0.00      0.00
                               -0.00  -2387.59      0.00
                                0.00      0.00  -2387.59

     hubbard stress (kbar)      0.00      0.00      0.00
                                0.00      0.00      0.00
                                0.00      0.00      0.00

     DFT-D   stress (kbar)      0.00      0.00      0.00
                                0.00      0.00      0.00
                                0.00      0.00      0.00

     XDM     stress (kbar)      0.00      0.00      0.00
                                0.00      0.00      0.00
                                0.00      0.00      0.00

     dft-nl  stress (kbar)      0.00      0.00      0.00
                                0.00      0.00      0.00
                                0.00      0.00      0.00

     TS-vdW  stress (kbar)      0.00      0.00      0.00
                                0.00      0.00      0.00
                                0.00      0.00      0.00

     MDB     stress (kbar)      0.00      0.00      0.00
                                0.00      0.00      0.00
                                0.00      0.00      0.00

     3D-RISM stress (kbar)      0.00      0.00      0.00
                                0.00      0.00      0.00
                                0.00      0.00      0.00


     Writing all to output data dir ./tmp/al.save/ :
     XML data file, charge density, pseudopotentials, collected wavefunctions
 
     init_run     :      0.93s CPU      1.11s WALL (       1 calls)
     electrons    :      9.74s CPU     10.20s WALL (       1 calls)
     forces       :      0.04s CPU      0.04s WALL (       1 calls)
     stress       :      0.14s CPU      0.15s WALL (       1 calls)

     Called by init_run:
     wfcinit      :      0.80s CPU      0.86s WALL (       1 calls)
     wfcinit:atom :      0.01s CPU      0.01s WALL (      72 calls)
     wfcinit:wfcr :      0.73s CPU      0.79s WALL (      72 calls)
     potinit      :      0.10s CPU      0.11s WALL (       1 calls)
     hinit0       :      0.02s CPU      0.03s WALL (       1 calls)

     Called by electrons:
     c_bands      :      7.25s CPU      7.44s WALL (      16 calls)
     sum_band     :      1.45s CPU      1.61s WALL (      16 calls)
     v_of_rho     :      0.05s CPU      0.05s WALL (      16 calls)
     v_h          :      0.00s CPU      0.00s WALL (      16 calls)
     v_xc         :      0.05s CPU      0.05s WALL (      18 calls)
     newd         :      0.03s CPU      0.13s WALL (      16 calls)
     PAW_pot      :      1.05s CPU      1.17s WALL (      16 calls)
     mix_rho      :      0.01s CPU      0.01s WALL (      16 calls)

     Called by c_bands:
     init_us_2    :      0.18s CPU      0.18s WALL (    2520 calls)
     cegterg      :      6.87s CPU      7.04s WALL (    1152 calls)

     Called by sum_band:
     sum_band:wei :      0.01s CPU      0.01s WALL (      16 calls)
     sum_band:loo :      1.40s CPU      1.44s WALL (      16 calls)
     sum_band:buf :      0.01s CPU      0.01s WALL (    1152 calls)
     sum_band:ini :      0.08s CPU      0.08s WALL (    1152 calls)
     sum_band:cal :      0.09s CPU      0.09s WALL (    1152 calls)
     sum_band:bec :      0.01s CPU      0.01s WALL (    1152 calls)
     addusdens    :      0.02s CPU      0.15s WALL (      16 calls)
                                        0.00s GPU  (      16 calls)
     addusd:skk   :      0.00s CPU      0.00s WALL (      16 calls)
                                        0.00s GPU  (      16 calls)

     Called by *egterg:
     cdiaghg      :      0.58s CPU      0.62s WALL (    3513 calls)
     cegterg:over :      0.20s CPU      0.21s WALL (    2433 calls)
     cegterg:upda :      0.06s CPU      0.06s WALL (    2433 calls)
     cegterg:last :      0.09s CPU      0.09s WALL (    1944 calls)
     h_psi        :      6.27s CPU      6.44s WALL (    3657 calls)
     s_psi        :      0.17s CPU      0.18s WALL (    3657 calls)
     g_psi        :      0.02s CPU      0.02s WALL (    2433 calls)

     Called by h_psi:
     h_psi:calbec :      0.28s CPU      0.29s WALL (    3657 calls)
     vloc_psi     :      5.78s CPU      5.93s WALL (    3657 calls)
     add_vuspsi   :      0.18s CPU      0.19s WALL (    3657 calls)

     General routines
     calbec       :      0.45s CPU      0.47s WALL (    6033 calls)
     fft          :      0.02s CPU      0.03s WALL (     202 calls)
     ffts         :      0.00s CPU      0.00s WALL (      16 calls)
     fftw         :      6.05s CPU      6.21s WALL (  116702 calls)
 
     Parallel routines

     PAW routines
     PAW_pot      :      1.05s CPU      1.17s WALL (      16 calls)
     PAW_symme    :      0.00s CPU      0.00s WALL (      32 calls)
 
     PWSCF        :     10.99s CPU     11.86s WALL

 
   This run was terminated on:  23:14:24  15Jun2026            

=------------------------------------------------------------------------------=
   JOB DONE.
=------------------------------------------------------------------------------=
