
     Program PWSCF v.7.4 starts on  1May2026 at 13:21: 8 

     This program is part of the open-source Quantum ESPRESSO suite
     for quantum simulation of materials; please cite
         "P. Giannozzi et al., J. Phys.:Condens. Matter 21 395502 (2009);
         "P. Giannozzi et al., J. Phys.:Condens. Matter 29 465901 (2017);
         "P. Giannozzi et al., J. Chem. Phys. 152 154105 (2020);
          URL http://www.quantum-espresso.org", 
     in publications or presentations arising from this work. More details at
     http://www.quantum-espresso.org/quote

     Parallel version (MPI), running on    12 processors

     MPI processes distributed on     1 nodes
     51452 MiB available memory on the printing compute node when the environment starts
 
     Reading input from ./scratch_runs/atom02_x_plus/atom02_x_plus.in

     Current dimensions of program PWSCF are:
     Max number of different atomic species (ntypx) = 10
     Max number of k-points (npk) =  40000
     Max angular momentum in pseudopotentials (lmaxx) =  4
     Message from routine setup:
     using ibrav=0 with symmetry is DISCOURAGED, use correct ibrav instead
 
     R & G space division:  proc/nbgrp/npool/nimage =      12
     Subspace diagonalization in iterative solution of the eigenvalue problem:
     a serial algorithm will be used

 
     Parallelization info
     --------------------
     sticks:   dense  smooth     PW     G-vecs:    dense   smooth      PW
     Min         375     375    101                16655    16655    2328
     Max         376     376    102                16660    16660    2331
     Sum        4507    4507   1213               199897   199897   27941
 
     Using Slab Decomposition
 


     bravais-lattice index     =            0
     lattice parameter (alat)  =      21.6221  a.u.
     unit-cell volume          =    7147.9421 (a.u.)^3
     number of atoms/cell      =           54
     number of atomic types    =            1
     number of electrons       =       216.00
     number of Kohn-Sham states=          108
     kinetic-energy cutoff     =      35.0000  Ry
     charge density cutoff     =     140.0000  Ry
     scf convergence threshold =      1.0E-16
     mixing beta               =       0.7000
     number of iterations used =            8  plain     mixing
     Exchange-correlation= SLA  PW   NOGX NOGC
                           (   1   4   0   0   0   0   0)

     celldm(1)=  21.622140  celldm(2)=   0.000000  celldm(3)=   0.000000
     celldm(4)=   0.000000  celldm(5)=   0.000000  celldm(6)=   0.000000

     crystal axes: (cart. coord. in units of alat)
               a(1) = (  -0.707107   0.000000   0.707107 )  
               a(2) = (   0.000000   0.707107   0.707107 )  
               a(3) = (  -0.707107   0.707107   0.000000 )  

     reciprocal axes: (cart. coord. in units 2 pi/alat)
               b(1) = ( -0.707107 -0.707107  0.707107 )  
               b(2) = (  0.707107  0.707107  0.707107 )  
               b(3) = ( -0.707107  0.707107 -0.707107 )  


     PseudoPot. # 1 for Si read from file:
     ./Si.upf
     MD5 check sum: 9e2d726316af3d4752eea8ab0afbb951
     Pseudo is Norm-conserving + core correction, Zval =  4.0
     Generated using ONCVPSP code by D. R. Hamann
     Using radial grid of 1510 points,  6 beta functions with: 
                l(1) =   0
                l(2) =   0
                l(3) =   1
                l(4) =   1
                l(5) =   2
                l(6) =   2

     atomic species   valence    mass     pseudopotential
     Si                4.00    28.08600     Si( 1.00)

      4 Sym. Ops. (no inversion) found ( 2 have fractional translation)



   Cartesian axes

     site n.     atom                  positions (alat units)
         1        Si     tau(   1) = (   0.0000000   0.0000000   0.0000000  )
         2        Si     tau(   2) = (  -0.1169767   0.1178507   0.1178507  )
         3        Si     tau(   3) = (  -0.2357020   0.2357020   0.0000000  )
         4        Si     tau(   4) = (  -0.3535534   0.3535534   0.1178507  )
         5        Si     tau(   5) = (  -0.4714048   0.4714048   0.0000000  )
         6        Si     tau(   6) = (  -0.5892554   0.5892554   0.1178507  )
         7        Si     tau(   7) = (   0.0000000   0.2357020   0.2357020  )
         8        Si     tau(   8) = (  -0.1178507   0.3535534   0.3535534  )
         9        Si     tau(   9) = (  -0.2357020   0.4714041   0.2357020  )
        10        Si     tau(  10) = (  -0.3535534   0.5892561   0.3535534  )
        11        Si     tau(  11) = (  -0.4714048   0.7071068   0.2357020  )
        12        Si     tau(  12) = (  -0.5892554   0.8249582   0.3535534  )
        13        Si     tau(  13) = (   0.0000000   0.4714048   0.4714048  )
        14        Si     tau(  14) = (  -0.1178507   0.5892554   0.5892554  )
        15        Si     tau(  15) = (  -0.2357020   0.7071068   0.4714048  )
        16        Si     tau(  16) = (  -0.3535534   0.8249582   0.5892554  )
        17        Si     tau(  17) = (  -0.4714048   0.9428095   0.4714048  )
        18        Si     tau(  18) = (  -0.5892554   1.0606602   0.5892554  )
        19        Si     tau(  19) = (  -0.2357020   0.0000000   0.2357020  )
        20        Si     tau(  20) = (  -0.3535534   0.1178507   0.3535534  )
        21        Si     tau(  21) = (  -0.4714041   0.2357020   0.2357020  )
        22        Si     tau(  22) = (  -0.5892561   0.3535534   0.3535534  )
        23        Si     tau(  23) = (  -0.7071068   0.4714048   0.2357020  )
        24        Si     tau(  24) = (  -0.8249582   0.5892554   0.3535534  )
        25        Si     tau(  25) = (  -0.2357020   0.2357020   0.4714041  )
        26        Si     tau(  26) = (  -0.3535534   0.3535534   0.5892561  )
        27        Si     tau(  27) = (  -0.4714041   0.4714041   0.4714041  )
        28        Si     tau(  28) = (  -0.5892561   0.5892561   0.5892561  )
        29        Si     tau(  29) = (  -0.7071068   0.7071068   0.4714041  )
        30        Si     tau(  30) = (  -0.8249582   0.8249582   0.5892561  )
        31        Si     tau(  31) = (  -0.2357020   0.4714048   0.7071068  )
        32        Si     tau(  32) = (  -0.3535534   0.5892554   0.8249582  )
        33        Si     tau(  33) = (  -0.4714041   0.7071068   0.7071068  )
        34        Si     tau(  34) = (  -0.5892561   0.8249582   0.8249582  )
        35        Si     tau(  35) = (  -0.7071068   0.9428095   0.7071068  )
        36        Si     tau(  36) = (  -0.8249582   1.0606602   0.8249582  )
        37        Si     tau(  37) = (  -0.4714048   0.0000000   0.4714048  )
        38        Si     tau(  38) = (  -0.5892554   0.1178507   0.5892554  )
        39        Si     tau(  39) = (  -0.7071068   0.2357020   0.4714048  )
        40        Si     tau(  40) = (  -0.8249582   0.3535534   0.5892554  )
        41        Si     tau(  41) = (  -0.9428095   0.4714048   0.4714048  )
        42        Si     tau(  42) = (  -1.0606602   0.5892554   0.5892554  )
        43        Si     tau(  43) = (  -0.4714048   0.2357020   0.7071068  )
        44        Si     tau(  44) = (  -0.5892554   0.3535534   0.8249582  )
        45        Si     tau(  45) = (  -0.7071068   0.4714041   0.7071068  )
        46        Si     tau(  46) = (  -0.8249582   0.5892561   0.8249582  )
        47        Si     tau(  47) = (  -0.9428095   0.7071068   0.7071068  )
        48        Si     tau(  48) = (  -1.0606602   0.8249582   0.8249582  )
        49        Si     tau(  49) = (  -0.4714048   0.4714048   0.9428095  )
        50        Si     tau(  50) = (  -0.5892554   0.5892554   1.0606602  )
        51        Si     tau(  51) = (  -0.7071068   0.7071068   0.9428095  )
        52        Si     tau(  52) = (  -0.8249582   0.8249582   1.0606602  )
        53        Si     tau(  53) = (  -0.9428095   0.9428095   0.9428095  )
        54        Si     tau(  54) = (  -1.0606602   1.0606602   1.0606602  )

     number of k points=    18
                       cart. coord. in units 2pi/alat
        k(    1) = (   0.0000000   0.0000000   0.0000000), wk =   0.0312500
        k(    2) = (  -0.1767767   0.1767767  -0.1767767), wk =   0.1250000
        k(    3) = (   0.3535534  -0.3535534   0.3535534), wk =   0.0625000
        k(    4) = (   0.0000000   0.3535534   0.0000000), wk =   0.1250000
        k(    5) = (   0.5303301  -0.1767767   0.5303301), wk =   0.2500000
        k(    6) = (   0.3535534   0.0000000   0.3535534), wk =   0.2500000
        k(    7) = (   0.0000000  -0.7071068   0.0000000), wk =   0.0625000
        k(    8) = (  -0.3535534  -0.7071068   0.0000000), wk =   0.0625000
        k(    9) = (  -0.1767767   0.1767767   0.1767767), wk =   0.1250000
        k(   10) = (   0.3535534  -0.3535534  -0.3535534), wk =   0.0625000
        k(   11) = (   0.3535534   0.0000000   0.0000000), wk =   0.0625000
        k(   12) = (  -0.1767767   0.5303301  -0.5303301), wk =   0.1250000
        k(   13) = (   0.1767767  -0.5303301  -0.5303301), wk =   0.1250000
        k(   14) = (   0.5303301   0.1767767   0.5303301), wk =   0.2500000
        k(   15) = (   0.0000000   0.3535534  -0.3535534), wk =   0.0625000
        k(   16) = (   0.0000000  -0.3535534  -0.3535534), wk =   0.0625000
        k(   17) = (  -0.7071068   0.0000000   0.0000000), wk =   0.0312500
        k(   18) = (  -0.7071068  -0.3535534   0.0000000), wk =   0.1250000

     Dense  grid:   199897 G-vectors     FFT dimensions: (  81,  81,  81)

     Estimated max dynamical RAM per process >     124.56 MB

     Estimated total dynamical RAM >       1.46 GB

     Initial potential from superposition of free atoms

     starting charge     215.9701, renormalised to     216.0000
     Starting wfcs are  216 randomized atomic wfcs

     total cpu time spent up to now is        4.5 secs

     per-process dynamical memory:   195.0 Mb

     Self-consistent Calculation

     iteration #  1     ecut=    35.00 Ry     beta= 0.70
     Davidson diagonalization with overlap
     ethr =  1.00E-02,  avg # of iterations =  2.0

     Threshold (ethr) on eigenvalues was too large:
     Diagonalizing with lowered threshold

     Davidson diagonalization with overlap
     ethr =  6.13E-04,  avg # of iterations =  2.2

     total cpu time spent up to now is       18.7 secs

     total energy              =    -460.28411718 Ry
     estimated scf accuracy    <       1.56690639 Ry

     iteration #  2     ecut=    35.00 Ry     beta= 0.70
     Davidson diagonalization with overlap
     ethr =  7.25E-04,  avg # of iterations =  1.0

     total cpu time spent up to now is       24.2 secs

     total energy              =    -460.34764926 Ry
     estimated scf accuracy    <       0.06665767 Ry

     iteration #  3     ecut=    35.00 Ry     beta= 0.70
     Davidson diagonalization with overlap
     ethr =  3.09E-05,  avg # of iterations =  4.4

     total cpu time spent up to now is       33.0 secs

     total energy              =    -460.37056402 Ry
     estimated scf accuracy    <       0.00257172 Ry

     iteration #  4     ecut=    35.00 Ry     beta= 0.70
     Davidson diagonalization with overlap
     ethr =  1.19E-06,  avg # of iterations =  4.9

     total cpu time spent up to now is       43.0 secs

     total energy              =    -460.37243101 Ry
     estimated scf accuracy    <       0.00017755 Ry

     iteration #  5     ecut=    35.00 Ry     beta= 0.70
     Davidson diagonalization with overlap
     ethr =  8.22E-08,  avg # of iterations =  5.1

     total cpu time spent up to now is       52.2 secs

     total energy              =    -460.37251051 Ry
     estimated scf accuracy    <       0.00003516 Ry

     iteration #  6     ecut=    35.00 Ry     beta= 0.70
     Davidson diagonalization with overlap
     ethr =  1.63E-08,  avg # of iterations =  4.1

     total cpu time spent up to now is       60.1 secs

     total energy              =    -460.37251646 Ry
     estimated scf accuracy    <       0.00000371 Ry

     iteration #  7     ecut=    35.00 Ry     beta= 0.70
     Davidson diagonalization with overlap
     ethr =  1.72E-09,  avg # of iterations =  5.7

     total cpu time spent up to now is       69.4 secs

     total energy              =    -460.37251805 Ry
     estimated scf accuracy    <       0.00000047 Ry

     iteration #  8     ecut=    35.00 Ry     beta= 0.70
     Davidson diagonalization with overlap
     ethr =  2.19E-10,  avg # of iterations =  4.6

     total cpu time spent up to now is       77.8 secs

     total energy              =    -460.37251802 Ry
     estimated scf accuracy    <       0.00000062 Ry

     iteration #  9     ecut=    35.00 Ry     beta= 0.70
     Davidson diagonalization with overlap
     ethr =  2.19E-10,  avg # of iterations =  2.0

     total cpu time spent up to now is       84.1 secs

     total energy              =    -460.37251803 Ry
     estimated scf accuracy    <       0.00000015 Ry

     iteration # 10     ecut=    35.00 Ry     beta= 0.70
     Davidson diagonalization with overlap
     ethr =  6.75E-11,  avg # of iterations =  3.9

     total cpu time spent up to now is       91.4 secs

     total energy              =    -460.37251805 Ry
     estimated scf accuracy    <       0.00000001 Ry

     iteration # 11     ecut=    35.00 Ry     beta= 0.70
     Davidson diagonalization with overlap
     ethr =  5.45E-12,  avg # of iterations =  5.5

     total cpu time spent up to now is      101.7 secs

     total energy              =    -460.37251805 Ry
     estimated scf accuracy    <       0.00000001 Ry

     iteration # 12     ecut=    35.00 Ry     beta= 0.70
     Davidson diagonalization with overlap
     ethr =  4.95E-12,  avg # of iterations =  1.8

     total cpu time spent up to now is      107.5 secs

     total energy              =    -460.37251805 Ry
     estimated scf accuracy    <          4.5E-09 Ry

     iteration # 13     ecut=    35.00 Ry     beta= 0.70
     Davidson diagonalization with overlap
     ethr =  2.06E-12,  avg # of iterations =  3.6

     total cpu time spent up to now is      114.8 secs

     total energy              =    -460.37251805 Ry
     estimated scf accuracy    <          1.4E-10 Ry

     iteration # 14     ecut=    35.00 Ry     beta= 0.70
     Davidson diagonalization with overlap
     ethr =  1.00E-13,  avg # of iterations =  6.5

     total cpu time spent up to now is      125.6 secs

     total energy              =    -460.37251805 Ry
     estimated scf accuracy    <          5.6E-10 Ry

     iteration # 15     ecut=    35.00 Ry     beta= 0.70
     Davidson diagonalization with overlap
     ethr =  1.00E-13,  avg # of iterations =  2.1

     total cpu time spent up to now is      132.0 secs

     total energy              =    -460.37251805 Ry
     estimated scf accuracy    <          1.7E-10 Ry

     iteration # 16     ecut=    35.00 Ry     beta= 0.70
     Davidson diagonalization with overlap
     ethr =  1.00E-13,  avg # of iterations =  2.0

     total cpu time spent up to now is      138.7 secs

     total energy              =    -460.37251805 Ry
     estimated scf accuracy    <          1.6E-11 Ry

     iteration # 17     ecut=    35.00 Ry     beta= 0.70
     Davidson diagonalization with overlap
     ethr =  1.00E-13,  avg # of iterations =  1.0

     total cpu time spent up to now is      144.0 secs

     total energy              =    -460.37251805 Ry
     estimated scf accuracy    <          2.7E-12 Ry

     iteration # 18     ecut=    35.00 Ry     beta= 0.70
     Davidson diagonalization with overlap
     ethr =  1.00E-13,  avg # of iterations =  1.0

     total cpu time spent up to now is      149.4 secs

     total energy              =    -460.37251805 Ry
     estimated scf accuracy    <          7.3E-13 Ry

     iteration # 19     ecut=    35.00 Ry     beta= 0.70
     Davidson diagonalization with overlap
     ethr =  1.00E-13,  avg # of iterations =  1.0

     total cpu time spent up to now is      154.8 secs

     total energy              =    -460.37251805 Ry
     estimated scf accuracy    <          5.7E-13 Ry

     iteration # 20     ecut=    35.00 Ry     beta= 0.70
     Davidson diagonalization with overlap
     ethr =  1.00E-13,  avg # of iterations =  1.0

     total cpu time spent up to now is      160.2 secs

     total energy              =    -460.37251805 Ry
     estimated scf accuracy    <          7.5E-13 Ry

     iteration # 21     ecut=    35.00 Ry     beta= 0.70
     Davidson diagonalization with overlap
     ethr =  1.00E-13,  avg # of iterations =  1.0

     total cpu time spent up to now is      165.5 secs

     total energy              =    -460.37251805 Ry
     estimated scf accuracy    <          7.7E-13 Ry

     iteration # 22     ecut=    35.00 Ry     beta= 0.70
     Davidson diagonalization with overlap
     ethr =  1.00E-13,  avg # of iterations =  1.0

     total cpu time spent up to now is      170.9 secs

     total energy              =    -460.37251805 Ry
     estimated scf accuracy    <          6.7E-13 Ry

     iteration # 23     ecut=    35.00 Ry     beta= 0.70
     Davidson diagonalization with overlap
     ethr =  1.00E-13,  avg # of iterations =  1.0

     total cpu time spent up to now is      176.3 secs

     total energy              =    -460.37251805 Ry
     estimated scf accuracy    <          4.8E-13 Ry

     iteration # 24     ecut=    35.00 Ry     beta= 0.70
     Davidson diagonalization with overlap
     ethr =  1.00E-13,  avg # of iterations =  1.0

     total cpu time spent up to now is      181.7 secs

     total energy              =    -460.37251805 Ry
     estimated scf accuracy    <          2.9E-13 Ry

     iteration # 25     ecut=    35.00 Ry     beta= 0.70
     Davidson diagonalization with overlap
     ethr =  1.00E-13,  avg # of iterations =  1.0

     total cpu time spent up to now is      187.1 secs

     total energy              =    -460.37251805 Ry
     estimated scf accuracy    <          1.6E-13 Ry

     iteration # 26     ecut=    35.00 Ry     beta= 0.70
     Davidson diagonalization with overlap
     ethr =  1.00E-13,  avg # of iterations =  1.0

     total cpu time spent up to now is      192.4 secs

     total energy              =    -460.37251805 Ry
     estimated scf accuracy    <          4.1E-14 Ry

     iteration # 27     ecut=    35.00 Ry     beta= 0.70
     Davidson diagonalization with overlap
     ethr =  1.00E-13,  avg # of iterations =  1.0

     total cpu time spent up to now is      197.8 secs

     total energy              =    -460.37251805 Ry
     estimated scf accuracy    <          6.8E-14 Ry

     iteration # 28     ecut=    35.00 Ry     beta= 0.70
     Davidson diagonalization with overlap
     ethr =  1.00E-13,  avg # of iterations =  1.0

     total cpu time spent up to now is      203.2 secs

     total energy              =    -460.37251805 Ry
     estimated scf accuracy    <          1.4E-13 Ry

     iteration # 29     ecut=    35.00 Ry     beta= 0.70
     Davidson diagonalization with overlap
     ethr =  1.00E-13,  avg # of iterations =  1.0

     total cpu time spent up to now is      208.6 secs

     total energy              =    -460.37251805 Ry
     estimated scf accuracy    <          1.2E-13 Ry

     iteration # 30     ecut=    35.00 Ry     beta= 0.70
     Davidson diagonalization with overlap
     ethr =  1.00E-13,  avg # of iterations =  1.0

     total cpu time spent up to now is      214.0 secs

     total energy              =    -460.37251805 Ry
     estimated scf accuracy    <          7.0E-15 Ry

     iteration # 31     ecut=    35.00 Ry     beta= 0.70
     Davidson diagonalization with overlap
     ethr =  1.00E-13,  avg # of iterations =  1.0

     total cpu time spent up to now is      219.4 secs

     total energy              =    -460.37251805 Ry
     estimated scf accuracy    <          4.1E-15 Ry

     iteration # 32     ecut=    35.00 Ry     beta= 0.70
     Davidson diagonalization with overlap
     ethr =  1.00E-13,  avg # of iterations =  1.0

     total cpu time spent up to now is      224.7 secs

     total energy              =    -460.37251805 Ry
     estimated scf accuracy    <          3.6E-15 Ry

     iteration # 33     ecut=    35.00 Ry     beta= 0.70
     Davidson diagonalization with overlap
     ethr =  1.00E-13,  avg # of iterations =  1.0

     total cpu time spent up to now is      230.0 secs

     total energy              =    -460.37251805 Ry
     estimated scf accuracy    <          2.7E-15 Ry

     iteration # 34     ecut=    35.00 Ry     beta= 0.70
     Davidson diagonalization with overlap
     ethr =  1.00E-13,  avg # of iterations =  1.0

     total cpu time spent up to now is      235.5 secs

     total energy              =    -460.37251805 Ry
     estimated scf accuracy    <          1.0E-15 Ry

     iteration # 35     ecut=    35.00 Ry     beta= 0.70
     Davidson diagonalization with overlap
     ethr =  1.00E-13,  avg # of iterations =  1.0

     total cpu time spent up to now is      240.9 secs

     total energy              =    -460.37251805 Ry
     estimated scf accuracy    <          4.1E-16 Ry

     iteration # 36     ecut=    35.00 Ry     beta= 0.70
     Davidson diagonalization with overlap
     ethr =  1.00E-13,  avg # of iterations =  1.0

     total cpu time spent up to now is      246.4 secs

     total energy              =    -460.37251805 Ry
     estimated scf accuracy    <          2.9E-16 Ry

     iteration # 37     ecut=    35.00 Ry     beta= 0.70
     Davidson diagonalization with overlap
     ethr =  1.00E-13,  avg # of iterations =  1.0

     total cpu time spent up to now is      251.9 secs

     total energy              =    -460.37251805 Ry
     estimated scf accuracy    <          1.7E-16 Ry

     iteration # 38     ecut=    35.00 Ry     beta= 0.70
     Davidson diagonalization with overlap
     ethr =  1.00E-13,  avg # of iterations =  1.0

     total cpu time spent up to now is      257.5 secs

     End of self-consistent calculation

          k = 0.0000 0.0000 0.0000 ( 25101 PWs)   bands (ev):

    -5.8518  -4.4522  -4.4498  -4.4493  -4.4491  -4.4489  -4.4487  -4.4482
    -4.4459  -3.9180  -3.9163  -3.9156  -3.9156  -3.9149  -3.9132  -2.5259
    -2.5235  -2.5218  -2.5217  -2.5215  -2.5215  -2.5211  -2.5210  -2.5208
    -2.5207  -2.5191  -2.5167  -0.5870  -0.5853  -0.5830  -0.5829  -0.5828
    -0.5828  -0.5821  -0.5821  -0.5820  -0.5819  -0.5797  -0.5779   0.8335
     0.8339   0.8351   0.8357   0.8358   0.8364   0.8376   0.8379   1.2060
     1.2062   1.2079   1.2079   1.2096   1.2098   1.7121   1.7146   1.7147
     1.7149   1.7150   1.7151   1.7156   1.7157   1.7157   1.7160   1.7160
     1.7185   3.7828   3.7852   3.7857   3.7859   3.7860   3.7860   3.7860
     3.7860   3.7861   3.7863   3.7868   3.7891   4.0972   4.0983   4.0995
     4.0998   4.0999   4.1000   4.1002   4.1004   4.1004   4.1007   4.1019
     4.1030   5.2280   5.2338   5.2344   5.2345   5.2347   5.2348   5.2349
     5.2350   5.2350   5.2351   5.2352   5.2354   5.2355   5.2356   5.2363
     5.2420   6.2471   6.2489   6.2507

          k =-0.1768 0.1768-0.1768 ( 25023 PWs)   bands (ev):

    -5.7592  -5.0380  -4.5773  -4.5769  -4.5754  -4.3083  -4.3078  -4.3062
    -4.1542  -4.1539  -4.1523  -3.8125  -3.3723  -3.3717  -3.3702  -3.1335
    -3.1331  -3.1316  -2.5172  -2.5165  -2.5160  -2.5156  -2.5153  -2.5126
    -2.2462  -2.2450  -2.2436  -0.8720  -0.8713  -0.8688  -0.6274  -0.6260
    -0.6246  -0.6240  -0.6240  -0.6220  -0.3165  -0.1211  -0.1211  -0.1192
     0.4113   0.4119   0.4138   0.4489   0.4492   0.4507   1.3145   1.3147
     1.3163   1.7937   1.7941   1.7958   1.8972   1.8991   1.8998   1.8998
     1.9002   1.9007   1.9233   1.9238   1.9247   2.1304   2.1306   2.1317
     2.2665   3.2792   3.2793   3.2806   3.6406   3.6415   3.6419   3.7723
     3.7725   3.7728   3.7731   3.7737   3.7755   3.8046   3.8056   3.8061
     3.8411   3.8412   3.8428   4.0706   4.0716   4.0720   4.3625   4.3628
     4.3645   4.4987   4.4999   4.5004   4.9071   4.9084   4.9086   4.9458
     4.9463   4.9483   5.0848   5.0867   5.2426   5.2442   5.2445   5.3788
     5.4762   5.4782   6.1003   6.1026

          k = 0.3536-0.3536 0.3536 ( 25006 PWs)   bands (ev):

    -5.4851  -5.4838  -4.5313  -4.5305  -4.5301  -4.5295  -4.5294  -4.5269
    -3.7068  -3.7053  -3.7046  -3.7046  -3.7039  -3.7022  -3.4661  -2.7319
    -2.7298  -2.7289  -2.7289  -2.7281  -2.7271  -2.5116  -2.5109  -2.5104
    -2.5100  -2.5097  -2.5070  -0.8366  -0.6670  -0.6655  -0.6641  -0.6636
    -0.6635  -0.6615  -0.3690  -0.3687  -0.3677  -0.3676  -0.3666  -0.3638
     0.1617   0.1624   0.1636   0.1640   0.1646   0.1656   1.7635   1.7639
     1.7658   1.7658   1.7665   1.7680   2.1363   2.1383   2.1394   2.1396
     2.1397   2.1398   2.5215   2.5221   2.5224   2.5231   2.5235   2.5242
     3.1327   3.1331   3.1336   3.1338   3.1349   3.1357   3.4164   3.4169
     3.4170   3.4175   3.4179   3.4196   3.6463   3.6479   3.6482   3.6486
     3.6490   3.6500   3.8347   3.8359   4.2136   4.2137   4.2139   4.2141
     4.2153   4.2183   4.4663   4.4692   4.4694   4.4695   4.4698   4.4702
     4.9294   4.9322   4.9323   4.9326   4.9330   4.9337   5.0349   5.0368
     5.7869   5.7906   5.7908   5.7911

          k = 0.0000 0.3536 0.0000 ( 24981 PWs)   bands (ev):

    -5.7283  -4.7764  -4.7751  -4.7744  -4.7731  -4.7517  -3.9377  -3.9365
    -3.9358  -3.9347  -3.8164  -3.8145  -3.8145  -3.8125  -3.0691  -3.0673
    -3.0672  -3.0654  -2.8689  -2.7469  -2.7461  -2.7450  -2.7442  -1.9828
    -1.9811  -1.9811  -1.9793  -1.0712  -1.0694  -1.0692  -1.0675  -0.6307
    -0.6298  -0.6286  -0.6278  -0.2627  -0.0238  -0.0220  -0.0219  -0.0202
     0.0599   0.0614   0.0618   0.0634   1.0281   1.0294   1.0296   1.0310
     1.7861   1.7876   1.7882   1.7896   1.8803   1.8811   1.8814   1.8822
     1.9864   1.9871   1.9876   1.9883   2.2556   2.2569   2.2571   2.2585
     2.7170   3.3422   3.3432   3.3433   3.3442   3.4119   3.4131   3.4132
     3.4145   3.4562   3.4563   3.7847   3.7852   3.7860   3.7864   4.1260
     4.1265   4.1276   4.1281   4.1877   4.1887   4.1888   4.1898   4.3215
     4.3215   4.5204   4.5216   4.5227   4.5238   4.6433   4.6451   4.6451
     4.6470   4.8189   4.8196   4.8198   4.8205   5.5541   5.5585   5.5591
     5.5599   5.5600   5.8073   5.8073

          k = 0.5303-0.1768 0.5303 ( 24995 PWs)   bands (ev):

    -5.5137  -5.2727  -5.0268  -4.7967  -4.7954  -4.3434  -4.0968  -4.0954
    -3.9086  -3.6911  -3.6898  -3.5719  -3.5708  -3.4295  -3.1974  -3.1960
    -3.1889  -3.0817  -2.9442  -2.9434  -2.8824  -2.8808  -2.2443  -2.1469
    -2.1453  -2.0309  -2.0300  -0.9604  -0.9582  -0.9566  -0.9497  -0.9488
    -0.7277  -0.6169  -0.5713  -0.5694  -0.2233  -0.2216  -0.2033  -0.2017
    -0.1995   0.1818   0.1831   0.5060   0.5227   0.5244   1.2340   1.2356
     1.3355   2.0533   2.0541   2.2319   2.2329   2.2375   2.2391   2.3980
     2.3993   2.6287   2.6485   2.6493   2.7014   2.7031   2.7349   2.7360
     2.8577   2.8588   3.0028   3.1001   3.1954   3.2104   3.2116   3.2711
     3.2752   3.3131   3.3138   3.4223   3.5509   3.5515   3.5602   3.5605
     3.6342   3.6357   3.7670   4.0045   4.0300   4.0309   4.0580   4.0591
     4.2932   4.2944   4.3016   4.3858   4.4355   4.5598   4.5611   4.6310
     4.6640   4.6652   4.6775   4.6902   4.8277   4.8535   5.2519   5.2523
     5.3082   5.4367   5.6335   5.8935

          k = 0.3536 0.0000 0.3536 ( 25026 PWs)   bands (ev):

    -5.6057  -5.1230  -5.1229  -4.6397  -4.6383  -4.2106  -4.2092  -4.2090
    -4.2077  -3.7697  -3.7210  -3.7207  -3.5549  -3.5542  -3.0848  -3.0841
    -3.0838  -3.0831  -2.7896  -2.7881  -2.5931  -2.5915  -2.5913  -2.5896
    -2.2663  -2.2655  -1.7736  -1.3733  -0.7264  -0.7243  -0.5514  -0.5495
    -0.5494  -0.5483  -0.5458  -0.5440  -0.3795  -0.3777  -0.3772  -0.3754
    -0.2984  -0.2975   0.7193   0.7466   0.7480   0.9102   0.9114   0.9118
     0.9130   1.9248   1.9256   2.1969   2.1981   2.1983   2.1995   2.3019
     2.3024   2.3037   2.3970   2.5781   2.5791   2.5792   2.5803   2.7747
     2.7762   3.0540   3.0552   3.0892   3.0902   3.1887   3.1901   3.2567
     3.2571   3.5417   3.5684   3.5690   3.5695   3.5702   3.7601   3.7606
     3.7606   3.7611   3.8620   3.8620   3.9638   3.9639   4.2342   4.2354
     4.2356   4.2369   4.3369   4.3381   4.5910   4.5913   4.6438   4.9007
     4.9158   4.9172   4.9180   4.9194   5.0000   5.0004   5.1195   5.1198
     5.3039   5.3058   5.3595   6.1315

          k = 0.0000-0.7071 0.0000 ( 24924 PWs)   bands (ev):

    -5.3596  -5.3596  -4.8874  -4.8861  -4.8854  -4.8840  -3.5246  -3.5215
    -3.5210  -3.5208  -3.5206  -3.5204  -3.5199  -3.5169  -3.3105  -3.3099
    -3.3089  -3.3085  -3.3084  -3.3080  -3.3071  -3.3064  -1.6384  -1.6384
    -1.5135  -1.5117  -1.5103  -1.5103  -1.5101  -1.5101  -1.5087  -1.5068
    -0.4539  -0.4522  -0.4510  -0.4509  -0.4504  -0.4503  -0.4491  -0.4475
     0.5598   0.5607   0.5621   0.5623   0.5624   0.5626   0.5640   0.5649
     2.4968   2.4968   2.4982   2.4983   2.5066   2.5074   2.5079   2.5080
     2.5082   2.5083   2.5091   2.5098   2.5858   2.5859   2.5868   2.5870
     2.5870   2.5872   2.5883   2.5883   3.3451   3.3451   3.4125   3.4130
     3.4141   3.4145   3.4148   3.4152   3.4163   3.4168   3.7702   3.7704
     3.7708   3.7710   3.8970   3.8976   3.8989   3.8990   3.8994   3.8995
     3.9008   3.9015   4.2057   4.2057   4.4405   4.4420   4.4422   4.4423
     4.4426   4.4426   4.4428   4.4444   5.0296   5.0296   5.0296   5.0296
     5.6786   5.6792   5.6797   5.6802

          k =-0.3536-0.7071 0.0000 ( 24948 PWs)   bands (ev):

    -5.2414  -5.2410  -5.2397  -5.2393  -4.3080  -4.3060  -4.3056  -4.3037
    -3.4581  -3.4577  -3.4569  -3.4565  -3.4564  -3.4560  -3.4552  -3.4548
    -3.2219  -3.2211  -3.2205  -3.2197  -2.5698  -2.5675  -2.5673  -2.5650
    -1.5988  -1.5978  -1.5977  -1.5967  -1.4628  -1.4627  -0.7172  -0.7160
    -0.7154  -0.7142  -0.4440  -0.4425  -0.4421  -0.4405   0.1539   0.1548
     0.1563   0.1567   0.1570   0.1574   0.1589   0.1598   1.5200   1.5204
     1.5216   1.5220   2.2903   2.2904   2.3815   2.3820   2.3833   2.3839
     2.9509   2.9510   2.9526   2.9526   2.9526   2.9526   2.9540   2.9542
     3.0156   3.0159   3.0177   3.0180   3.0186   3.0192   3.0199   3.0199
     3.0668   3.0681   3.0692   3.0705   3.4979   3.4991   3.5001   3.5013
     3.5979   3.5991   3.5999   3.6012   4.0740   4.0748   4.0763   4.0765
     4.0766   4.0768   4.0783   4.0791   4.5684   4.5704   4.5709   4.5712
     4.5712   4.5716   4.5723   4.5737   4.9519   4.9525   4.9541   4.9547
     5.5322   5.5326   5.5332   5.5336

          k =-0.1768 0.1768 0.1768 ( 25023 PWs)   bands (ev):

    -5.7592  -5.0379  -4.5778  -4.5762  -4.5758  -4.3087  -4.3071  -4.3067
    -4.1547  -4.1531  -4.1528  -3.8119  -3.3725  -3.3710  -3.3704  -3.1338
    -3.1323  -3.1319  -2.5189  -2.5162  -2.5160  -2.5155  -2.5150  -2.5143
    -2.2454  -2.2440  -2.2428  -0.8739  -0.8714  -0.8708  -0.6265  -0.6246
    -0.6246  -0.6240  -0.6225  -0.6211  -0.3180  -0.1219  -0.1200  -0.1199
     0.4104   0.4124   0.4129   0.4489   0.4503   0.4506   1.3147   1.3162
     1.3164   1.7939   1.7956   1.7960   1.8985   1.8991   1.8995   1.8995
     1.9002   1.9021   1.9232   1.9240   1.9246   2.1295   2.1306   2.1308
     2.2652   3.2788   3.2801   3.2802   3.6412   3.6416   3.6425   3.7703
     3.7722   3.7728   3.7732   3.7735   3.7737   3.8053   3.8057   3.8067
     3.8394   3.8408   3.8409   4.0714   4.0717   4.0727   4.3610   4.3626
     4.3630   4.4997   4.5001   4.5013   4.9083   4.9086   4.9099   4.9438
     4.9457   4.9463   5.0852   5.0871   5.2441   5.2444   5.2460   5.3770
     5.4768   5.4788   6.1014   6.1036

          k = 0.3536-0.3536-0.3536 ( 25006 PWs)   bands (ev):

    -5.4850  -5.4838  -4.5324  -4.5299  -4.5298  -4.5291  -4.5288  -4.5280
    -3.7070  -3.7052  -3.7045  -3.7045  -3.7038  -3.7024  -3.4653  -2.7308
    -2.7298  -2.7290  -2.7289  -2.7281  -2.7259  -2.5133  -2.5107  -2.5104
    -2.5099  -2.5094  -2.5087  -0.8384  -0.6661  -0.6641  -0.6641  -0.6635
    -0.6621  -0.6607  -0.3715  -0.3687  -0.3677  -0.3676  -0.3665  -0.3663
     0.1619   0.1628   0.1634   0.1638   0.1650   0.1658   1.7640   1.7655
     1.7662   1.7662   1.7680   1.7685   2.1385   2.1386   2.1387   2.1390
     2.1401   2.1420   2.5214   2.5222   2.5226   2.5232   2.5236   2.5242
     3.1314   3.1322   3.1334   3.1335   3.1341   3.1344   3.4145   3.4162
     3.4166   3.4171   3.4172   3.4177   3.6472   3.6481   3.6485   3.6489
     3.6492   3.6507   3.8333   3.8346   4.2097   4.2127   4.2139   4.2140
     4.2143   4.2144   4.4687   4.4690   4.4693   4.4694   4.4696   4.4724
     4.9316   4.9323   4.9327   4.9329   4.9331   4.9358   5.0353   5.0372
     5.7894   5.7897   5.7898   5.7936

          k = 0.3536 0.0000 0.0000 ( 24981 PWs)   bands (ev):

    -5.7283  -4.7753  -4.7751  -4.7744  -4.7742  -4.7516  -3.9370  -3.9366
    -3.9358  -3.9354  -3.8152  -3.8145  -3.8145  -3.8138  -3.0681  -3.0673
    -3.0673  -3.0664  -2.8689  -2.7472  -2.7461  -2.7450  -2.7439  -1.9821
    -1.9811  -1.9811  -1.9800  -1.0705  -1.0693  -1.0693  -1.0682  -0.6307
    -0.6297  -0.6287  -0.6277  -0.2627  -0.0233  -0.0220  -0.0220  -0.0207
     0.0609   0.0612   0.0621   0.0625   1.0277   1.0295   1.0295   1.0313
     1.7870   1.7872   1.7886   1.7888   1.8812   1.8812   1.8812   1.8813
     1.9871   1.9873   1.9873   1.9875   2.2561   2.2568   2.2572   2.2579
     2.7170   3.3424   3.3432   3.3432   3.3441   3.4127   3.4132   3.4132
     3.4136   3.4556   3.4569   3.7855   3.7856   3.7856   3.7857   4.1265
     4.1270   4.1271   4.1276   4.1868   4.1884   4.1889   4.1906   4.3207
     4.3223   4.5217   4.5220   4.5223   4.5226   4.6443   4.6447   4.6455
     4.6460   4.8174   4.8194   4.8200   4.8220   5.5548   5.5561   5.5589
     5.5595   5.5623   5.8060   5.8087

          k =-0.1768 0.5303-0.5303 ( 24995 PWs)   bands (ev):

    -5.5137  -5.2727  -5.0268  -4.7964  -4.7955  -4.3436  -4.0965  -4.0957
    -3.9089  -3.6907  -3.6898  -3.5718  -3.5704  -3.4295  -3.1969  -3.1964
    -3.1897  -3.0816  -2.9444  -2.9425  -2.8823  -2.8817  -2.2442  -2.1463
    -2.1462  -2.0312  -2.0289  -0.9605  -0.9580  -0.9579  -0.9503  -0.9479
    -0.7277  -0.6150  -0.5715  -0.5708  -0.2224  -0.2203  -0.2036  -0.2029
    -0.1998   0.1813   0.1835   0.5072   0.5225   0.5230   1.2343   1.2352
     1.3369   2.0538   2.0542   2.2316   2.2319   2.2373   2.2377   2.3983
     2.3983   2.6299   2.6487   2.6499   2.7019   2.7026   2.7346   2.7349
     2.8577   2.8587   3.0035   3.1010   3.1952   3.2111   3.2113   3.2715
     3.2749   3.3132   3.3150   3.4217   3.5507   3.5512   3.5608   3.5615
     3.6342   3.6346   3.7668   4.0036   4.0300   4.0306   4.0579   4.0598
     4.2932   4.2932   4.3010   4.3850   4.4367   4.5606   4.5610   4.6301
     4.6650   4.6663   4.6775   4.6893   4.8283   4.8522   5.2519   5.2551
     5.3071   5.4355   5.6354   5.8918

          k = 0.1768-0.5303-0.5303 ( 24995 PWs)   bands (ev):

    -5.5137  -5.2726  -5.0268  -4.7966  -4.7957  -4.3433  -4.0967  -4.0958
    -3.9087  -3.6909  -3.6900  -3.5723  -3.5709  -3.4287  -3.1968  -3.1961
    -3.1888  -3.0811  -2.9452  -2.9433  -2.8820  -2.8815  -2.2441  -2.1457
    -2.1455  -2.0322  -2.0300  -0.9605  -0.9568  -0.9561  -0.9513  -0.9490
    -0.7294  -0.6170  -0.5699  -0.5691  -0.2233  -0.2211  -0.2023  -0.2020
    -0.2004   0.1805   0.1827   0.5063   0.5234   0.5239   1.2353   1.2361
     1.3348   2.0539   2.0543   2.2327   2.2331   2.2392   2.2397   2.3985
     2.3986   2.6288   2.6477   2.6489   2.7025   2.7032   2.7358   2.7361
     2.8570   2.8580   3.0022   3.1007   3.1945   3.2113   3.2115   3.2696
     3.2748   3.3118   3.3134   3.4230   3.5501   3.5507   3.5602   3.5609
     3.6341   3.6345   3.7657   4.0051   4.0300   4.0305   4.0563   4.0583
     4.2938   4.2938   4.3003   4.3867   4.4356   4.5609   4.5614   4.6321
     4.6641   4.6657   4.6760   4.6911   4.8281   4.8543   5.2493   5.2525
     5.3095   5.4378   5.6338   5.8949

          k = 0.5303 0.1768 0.5303 ( 24995 PWs)   bands (ev):

    -5.5137  -5.2727  -5.0268  -4.7967  -4.7954  -4.3435  -4.0969  -4.0956
    -3.9089  -3.6909  -3.6896  -3.5719  -3.5708  -3.4287  -3.1971  -3.1957
    -3.1897  -3.0811  -2.9443  -2.9435  -2.8829  -2.8814  -2.2441  -2.1465
    -2.1449  -2.0312  -2.0303  -0.9605  -0.9581  -0.9562  -0.9504  -0.9493
    -0.7295  -0.6152  -0.5712  -0.5693  -0.2219  -0.2202  -0.2035  -0.2021
    -0.2009   0.1809   0.1822   0.5075   0.5220   0.5237   1.2348   1.2364
     1.3362   2.0540   2.0549   2.2319   2.2330   2.2378   2.2392   2.3976
     2.3989   2.6300   2.6484   2.6491   2.7021   2.7038   2.7346   2.7358
     2.8569   2.8580   3.0030   3.1016   3.1943   3.2110   3.2121   3.2702
     3.2744   3.3129   3.3135   3.4223   3.5498   3.5504   3.5612   3.5615
     3.6331   3.6345   3.7655   4.0043   4.0296   4.0305   4.0572   4.0582
     4.2925   4.2938   4.2998   4.3860   4.4368   4.5608   4.5620   4.6313
     4.6655   4.6668   4.6757   4.6903   4.8287   4.8531   5.2521   5.2525
     5.3084   5.4365   5.6357   5.8933

          k = 0.0000 0.3536-0.3536 ( 25026 PWs)   bands (ev):

    -5.6058  -5.1240  -5.1220  -4.6393  -4.6385  -4.2102  -4.2099  -4.2090
    -4.2069  -3.7700  -3.7223  -3.7196  -3.5558  -3.5540  -3.0852  -3.0847
    -3.0842  -3.0807  -2.7892  -2.7888  -2.5927  -2.5923  -2.5913  -2.5902
    -2.2664  -2.2640  -1.7747  -1.3721  -0.7269  -0.7260  -0.5505  -0.5495
    -0.5491  -0.5476  -0.5447  -0.5428  -0.3795  -0.3781  -0.3777  -0.3771
    -0.2986  -0.2963   0.7205   0.7469   0.7481   0.9097   0.9100   0.9120
     0.9121   1.9243   1.9256   2.1967   2.1975   2.1979   2.1982   2.3015
     2.3021   2.3032   2.3969   2.5781   2.5787   2.5796   2.5812   2.7749
     2.7769   3.0543   3.0549   3.0895   3.0914   3.1893   3.1908   3.2565
     3.2566   3.5411   3.5688   3.5696   3.5696   3.5703   3.7599   3.7602
     3.7606   3.7649   3.8619   3.8625   3.9618   3.9644   4.2348   4.2350
     4.2355   4.2377   4.3380   4.3381   4.5908   4.5937   4.6453   4.8995
     4.9167   4.9168   4.9174   4.9180   4.9976   5.0005   5.1170   5.1203
     5.3051   5.3061   5.3593   6.1298

          k = 0.0000-0.3536-0.3536 ( 25026 PWs)   bands (ev):

    -5.6057  -5.1240  -5.1219  -4.6394  -4.6386  -4.2114  -4.2092  -4.2083
    -4.2080  -3.7694  -3.7221  -3.7194  -3.5551  -3.5533  -3.0872  -3.0837
    -3.0833  -3.0827  -2.7889  -2.7884  -2.5925  -2.5915  -2.5904  -2.5901
    -2.2677  -2.2653  -1.7725  -1.3745  -0.7247  -0.7238  -0.5531  -0.5505
    -0.5493  -0.5483  -0.5464  -0.5451  -0.3777  -0.3771  -0.3768  -0.3754
    -0.2995  -0.2972   0.7181   0.7465   0.7477   0.9110   0.9111   0.9131
     0.9134   1.9249   1.9261   2.1982   2.1985   2.1989   2.1998   2.3014
     2.3037   2.3045   2.3971   2.5771   2.5788   2.5797   2.5803   2.7741
     2.7760   3.0544   3.0550   3.0880   3.0900   3.1880   3.1895   3.2572
     3.2573   3.5424   3.5683   3.5690   3.5690   3.5698   3.7563   3.7606
     3.7610   3.7613   3.8615   3.8621   3.9633   3.9659   4.2333   4.2356
     4.2362   4.2363   4.3369   4.3371   4.5887   4.5915   4.6425   4.9016
     4.9171   4.9178   4.9184   4.9185   4.9999   5.0027   5.1190   5.1225
     5.3037   5.3047   5.3597   6.1333

          k =-0.7071 0.0000 0.0000 ( 24924 PWs)   bands (ev):

    -5.3606  -5.3586  -4.8863  -4.8861  -4.8854  -4.8852  -3.5231  -3.5225
    -3.5209  -3.5207  -3.5207  -3.5205  -3.5190  -3.5184  -3.3127  -3.3092
    -3.3087  -3.3087  -3.3082  -3.3082  -3.3078  -3.3042  -1.6396  -1.6372
    -1.5127  -1.5121  -1.5105  -1.5103  -1.5101  -1.5099  -1.5083  -1.5076
    -0.4534  -0.4512  -0.4510  -0.4508  -0.4505  -0.4504  -0.4501  -0.4479
     0.5591   0.5609   0.5622   0.5623   0.5624   0.5624   0.5637   0.5655
     2.4958   2.4966   2.4984   2.4990   2.5065   2.5075   2.5077   2.5077
     2.5085   2.5086   2.5090   2.5100   2.5852   2.5860   2.5861   2.5868
     2.5872   2.5880   2.5881   2.5890   3.3445   3.3458   3.4132   3.4139
     3.4140   3.4144   3.4149   3.4153   3.4155   3.4161   3.7700   3.7704
     3.7708   3.7713   3.8981   3.8988   3.8991   3.8991   3.8993   3.8994
     3.8996   3.9003   4.2055   4.2058   4.4377   4.4418   4.4418   4.4423
     4.4424   4.4430   4.4430   4.4471   5.0269   5.0289   5.0303   5.0323
     5.6763   5.6791   5.6797   5.6826

          k =-0.7071-0.3536 0.0000 ( 24948 PWs)   bands (ev):

    -5.2419  -5.2408  -5.2399  -5.2388  -4.3070  -4.3058  -4.3058  -4.3046
    -3.4603  -3.4575  -3.4569  -3.4566  -3.4564  -3.4561  -3.4555  -3.4527
    -3.2224  -3.2211  -3.2204  -3.2191  -2.5685  -2.5679  -2.5670  -2.5664
    -1.5996  -1.5978  -1.5977  -1.5959  -1.4636  -1.4618  -0.7172  -0.7160
    -0.7154  -0.7142  -0.4435  -0.4431  -0.4415  -0.4411   0.1541   0.1553
     0.1566   0.1567   0.1570   0.1571   0.1584   0.1596   1.5195   1.5209
     1.5210   1.5225   2.2898   2.2909   2.3820   2.3825   2.3829   2.3833
     2.9496   2.9519   2.9522   2.9526   2.9526   2.9530   2.9533   2.9554
     3.0162   3.0167   3.0171   3.0176   3.0185   3.0192   3.0195   3.0202
     3.0683   3.0685   3.0688   3.0690   3.4980   3.4993   3.5000   3.5012
     3.5991   3.5994   3.5996   3.6000   4.0745   4.0759   4.0762   4.0765
     4.0766   4.0769   4.0773   4.0786   4.5679   4.5705   4.5709   4.5711
     4.5713   4.5715   4.5719   4.5746   4.9518   4.9528   4.9538   4.9548
     5.5305   5.5328   5.5329   5.5354

     highest occupied level (ev):     6.2507

!    total energy              =    -460.37251805 Ry
     estimated scf accuracy    <          8.3E-18 Ry

     The total energy is the sum of the following terms:
     one-electron contribution =     135.11848411 Ry
     hartree contribution      =      29.10123008 Ry
     xc contribution           =    -167.97547069 Ry
     ewald contribution        =    -456.61676155 Ry

     convergence has been achieved in  38 iterations

     Forces acting on atoms (cartesian axes, Ry/au):

     atom    1 type  1   force =     0.00131028   -0.00091032   -0.00091032
     atom    2 type  1   force =    -0.00526567    0.00000000    0.00000000
     atom    3 type  1   force =     0.00129578   -0.00088415    0.00088415
     atom    4 type  1   force =     0.00007284   -0.00008580    0.00003165
     atom    5 type  1   force =     0.00001514   -0.00000298    0.00000020
     atom    6 type  1   force =     0.00007111   -0.00008394   -0.00002965
     atom    7 type  1   force =     0.00131028    0.00091032    0.00091032
     atom    8 type  1   force =    -0.00020496   -0.00003267   -0.00003267
     atom    9 type  1   force =    -0.00002247    0.00001921   -0.00002478
     atom   10 type  1   force =     0.00001536   -0.00001819    0.00001819
     atom   11 type  1   force =    -0.00000071    0.00001687   -0.00001687
     atom   12 type  1   force =     0.00007111    0.00002965    0.00008394
     atom   13 type  1   force =     0.00013986    0.00000000    0.00000000
     atom   14 type  1   force =    -0.00020496    0.00003267    0.00003267
     atom   15 type  1   force =    -0.00002247    0.00002478   -0.00001921
     atom   16 type  1   force =     0.00007284   -0.00003165    0.00008580
     atom   17 type  1   force =     0.00001514   -0.00000020    0.00000298
     atom   18 type  1   force =     0.00001121   -0.00001770    0.00001770
     atom   19 type  1   force =     0.00129578    0.00088415   -0.00088415
     atom   20 type  1   force =     0.00007284    0.00003165   -0.00008580
     atom   21 type  1   force =    -0.00000503    0.00001740    0.00001740
     atom   22 type  1   force =     0.00001734   -0.00001606   -0.00001606
     atom   23 type  1   force =    -0.00002214    0.00001505    0.00002514
     atom   24 type  1   force =    -0.00020192   -0.00002981    0.00002981
     atom   25 type  1   force =    -0.00002247   -0.00002478    0.00001921
     atom   26 type  1   force =     0.00001536    0.00001819   -0.00001819
     atom   27 type  1   force =    -0.00001695    0.00000000    0.00000000
     atom   28 type  1   force =     0.00001734    0.00001606    0.00001606
     atom   29 type  1   force =    -0.00002214   -0.00002514   -0.00001505
     atom   30 type  1   force =     0.00001641   -0.00000059   -0.00000188
     atom   31 type  1   force =    -0.00002247   -0.00001921    0.00002478
     atom   32 type  1   force =     0.00007284    0.00008580   -0.00003165
     atom   33 type  1   force =    -0.00000503   -0.00001740   -0.00001740
     atom   34 type  1   force =     0.00001471   -0.00000000    0.00000000
     atom   35 type  1   force =    -0.00001196   -0.00000287    0.00000287
     atom   36 type  1   force =     0.00001641    0.00000188    0.00000059
     atom   37 type  1   force =     0.00001514    0.00000020   -0.00000298
     atom   38 type  1   force =     0.00007111   -0.00002965   -0.00008394
     atom   39 type  1   force =    -0.00002214    0.00002514    0.00001505
     atom   40 type  1   force =    -0.00020192    0.00002981   -0.00002981
     atom   41 type  1   force =     0.00013932    0.00000000    0.00000000
     atom   42 type  1   force =     0.00001170   -0.00001715   -0.00001715
     atom   43 type  1   force =    -0.00000071   -0.00001687    0.00001687
     atom   44 type  1   force =     0.00007111    0.00008394    0.00002965
     atom   45 type  1   force =    -0.00002214   -0.00001505   -0.00002514
     atom   46 type  1   force =     0.00001641   -0.00000188   -0.00000059
     atom   47 type  1   force =    -0.00000999   -0.00000091   -0.00000091
     atom   48 type  1   force =     0.00001094    0.00000000    0.00000000
     atom   49 type  1   force =     0.00001514    0.00000298   -0.00000020
     atom   50 type  1   force =     0.00001121    0.00001770   -0.00001770
     atom   51 type  1   force =    -0.00001196    0.00000287   -0.00000287
     atom   52 type  1   force =     0.00001641    0.00000059    0.00000188
     atom   53 type  1   force =    -0.00000999    0.00000091    0.00000091
     atom   54 type  1   force =     0.00001170    0.00001715    0.00001715

     Total force =     0.006427     Total SCF correction =     0.000000

     Writing all to output data dir ./scratch_runs/atom02_x_plus/si_sup.save/ :
     XML data file, charge density, pseudopotentials, collected wavefunctions
 
     init_run     :      4.29s CPU      4.48s WALL (       1 calls)
     electrons    :    250.49s CPU    252.98s WALL (       1 calls)
     forces       :      1.98s CPU      2.00s WALL (       1 calls)

     Called by init_run:
     wfcinit      :      3.98s CPU      4.17s WALL (       1 calls)
     potinit      :      0.00s CPU      0.00s WALL (       1 calls)
     hinit0       :      0.01s CPU      0.02s WALL (       1 calls)

     Called by electrons:
     c_bands      :    226.25s CPU    228.46s WALL (      39 calls)
     sum_band     :     24.01s CPU     24.28s WALL (      39 calls)
     v_of_rho     :      0.09s CPU      0.09s WALL (      39 calls)
     mix_rho      :      0.12s CPU      0.13s WALL (      39 calls)

     Called by c_bands:
     init_us_2    :     15.48s CPU     15.50s WALL (    1440 calls)
     cegterg      :    191.01s CPU    193.18s WALL (     702 calls)

     Called by *egterg:
     cdiaghg      :     15.25s CPU     15.26s WALL (    2183 calls)
     h_psi        :    149.16s CPU    151.39s WALL (    2219 calls)
     g_psi        :      0.37s CPU      0.37s WALL (    1499 calls)

     Called by h_psi:
     h_psi:calbec :     36.47s CPU     36.50s WALL (    2219 calls)
     vloc_psi     :     72.00s CPU     74.14s WALL (    2219 calls)
     add_vuspsi   :     39.87s CPU     39.92s WALL (    2219 calls)

     General routines
     calbec       :     37.87s CPU     37.91s WALL (    2291 calls)
     fft          :      0.05s CPU      0.05s WALL (     121 calls)
     ffts         :      0.01s CPU      0.01s WALL (      39 calls)
     fftw         :     74.62s CPU     76.85s WALL (  447888 calls)
 
     Parallel routines
 
     PWSCF        :   4m17.03s CPU   4m20.05s WALL

 
   This run was terminated on:  13:25:28   1May2026            

=------------------------------------------------------------------------------=
   JOB DONE.
=------------------------------------------------------------------------------=

===== TIMING =====
Job:           atom02_x_plus
Start:         2026-05-01T13:21:07+02:00
End:           2026-05-01T13:25:28+02:00
Duration (s):  261
Duration (H:M:S): 00:04:21
==================
