
     Program PWSCF v.7.4 starts on 14Jun2026 at 11: 2:19 

     This program is part of the open-source Quantum ESPRESSO suite
     for quantum simulation of materials; please cite
         "P. Giannozzi et al., J. Phys.:Condens. Matter 21 395502 (2009);
         "P. Giannozzi et al., J. Phys.:Condens. Matter 29 465901 (2017);
         "P. Giannozzi et al., J. Chem. Phys. 152 154105 (2020);
          URL http://www.quantum-espresso.org", 
     in publications or presentations arising from this work. More details at
     http://www.quantum-espresso.org/quote

     Parallel version (MPI), running on    12 processors

     MPI processes distributed on     1 nodes
     6140 MiB available memory on the printing compute node when the environment starts
 
     Reading input from si.scf.in

     Current dimensions of program PWSCF are:
     Max number of different atomic species (ntypx) = 10
     Max number of k-points (npk) =  40000
     Max angular momentum in pseudopotentials (lmaxx) =  4
     file Si_NC_PBE.upf: wavefunction(s)  4f renormalized
     Message from routine setup:
     using ibrav=0 with symmetry is DISCOURAGED, use correct ibrav instead
 
     R & G space division:  proc/nbgrp/npool/nimage =      12
     Subspace diagonalization in iterative solution of the eigenvalue problem:
     a serial algorithm will be used

 
     Parallelization info
     --------------------
     sticks:   dense  smooth     PW     G-vecs:    dense   smooth      PW
     Min          61      61     18                 1078     1078     185
     Max          62      62     19                 1079     1079     187
     Sum         733     733    223                12939    12939    2229
 
     Using Slab Decomposition
 


     bravais-lattice index     =            0
     lattice parameter (alat)  =       7.2571  a.u.
     unit-cell volume          =     270.2564 (a.u.)^3
     number of atoms/cell      =            2
     number of atomic types    =            1
     number of electrons       =         8.00
     number of Kohn-Sham states=            4
     kinetic-energy cutoff     =      50.0000  Ry
     charge density cutoff     =     200.0000  Ry
     scf convergence threshold =      1.0E-08
     mixing beta               =       0.7000
     number of iterations used =            8  plain     mixing
     Exchange-correlation= PBE
                           (   1   4   3   4   0   0   0)

     celldm(1)=   7.257109  celldm(2)=   0.000000  celldm(3)=   0.000000
     celldm(4)=   0.000000  celldm(5)=   0.000000  celldm(6)=   0.000000

     crystal axes: (cart. coord. in units of alat)
               a(1) = (  -0.707107   0.000000   0.707107 )  
               a(2) = (   0.000000   0.707107   0.707107 )  
               a(3) = (  -0.707107   0.707107   0.000000 )  

     reciprocal axes: (cart. coord. in units 2 pi/alat)
               b(1) = ( -0.707107 -0.707107  0.707107 )  
               b(2) = (  0.707107  0.707107  0.707107 )  
               b(3) = ( -0.707107  0.707107 -0.707107 )  


     PseudoPot. # 1 for Si read from file:
     ../../../pseudopotentzialak/Si_NC_PBE.upf
     MD5 check sum: 2f548285ada518390005852429903be6
     Pseudo is Norm-conserving, Zval =  4.0
     Generated using FHI98PP, converted with fhi2upf.x v.5.0.2
     Using radial grid of  495 points,  3 beta functions with: 
                l(1) =   0
                l(2) =   1
                l(3) =   3

     atomic species   valence    mass     pseudopotential
     Si                4.00    28.08600     Si( 1.00)

     48 Sym. Ops., with inversion, found (24 have fractional translation)



   Cartesian axes

     site n.     atom                  positions (alat units)
         1        Si     tau(   1) = (   0.0000000   0.0000000   0.0000000  )
         2        Si     tau(   2) = (  -0.3535534   0.3535534   0.3535534  )

     number of k points=    72
                       cart. coord. in units 2pi/alat
        k(    1) = (   0.0000000   0.0000000   0.0000000), wk =   0.0011574
        k(    2) = (  -0.0589256   0.0589256  -0.0589256), wk =   0.0092593
        k(    3) = (  -0.1178511   0.1178511  -0.1178511), wk =   0.0092593
        k(    4) = (  -0.1767767   0.1767767  -0.1767767), wk =   0.0092593
        k(    5) = (  -0.2357023   0.2357023  -0.2357023), wk =   0.0092593
        k(    6) = (  -0.2946278   0.2946278  -0.2946278), wk =   0.0092593
        k(    7) = (   0.3535534  -0.3535534   0.3535534), wk =   0.0046296
        k(    8) = (   0.0000000   0.1178511   0.0000000), wk =   0.0069444
        k(    9) = (  -0.0589256   0.1767767  -0.0589256), wk =   0.0277778
        k(   10) = (  -0.1178511   0.2357023  -0.1178511), wk =   0.0277778
        k(   11) = (  -0.1767767   0.2946278  -0.1767767), wk =   0.0277778
        k(   12) = (  -0.2357023   0.3535534  -0.2357023), wk =   0.0277778
        k(   13) = (   0.4124790  -0.2946278   0.4124790), wk =   0.0277778
        k(   14) = (   0.3535534  -0.2357023   0.3535534), wk =   0.0277778
        k(   15) = (   0.2946278  -0.1767767   0.2946278), wk =   0.0277778
        k(   16) = (   0.2357023  -0.1178511   0.2357023), wk =   0.0277778
        k(   17) = (   0.1767767  -0.0589256   0.1767767), wk =   0.0277778
        k(   18) = (   0.1178511  -0.0000000   0.1178511), wk =   0.0138889
        k(   19) = (   0.0000000   0.2357023   0.0000000), wk =   0.0069444
        k(   20) = (  -0.0589256   0.2946278  -0.0589256), wk =   0.0277778
        k(   21) = (  -0.1178511   0.3535534  -0.1178511), wk =   0.0277778
        k(   22) = (  -0.1767767   0.4124790  -0.1767767), wk =   0.0277778
        k(   23) = (   0.4714045  -0.2357023   0.4714045), wk =   0.0277778
        k(   24) = (   0.4124790  -0.1767767   0.4124790), wk =   0.0277778
        k(   25) = (   0.3535534  -0.1178511   0.3535534), wk =   0.0277778
        k(   26) = (   0.2946278  -0.0589256   0.2946278), wk =   0.0277778
        k(   27) = (   0.2357023  -0.0000000   0.2357023), wk =   0.0138889
        k(   28) = (   0.0000000   0.3535534   0.0000000), wk =   0.0069444
        k(   29) = (  -0.0589256   0.4124790  -0.0589256), wk =   0.0277778
        k(   30) = (  -0.1178511   0.4714045  -0.1178511), wk =   0.0277778
        k(   31) = (   0.5303301  -0.1767767   0.5303301), wk =   0.0277778
        k(   32) = (   0.4714045  -0.1178511   0.4714045), wk =   0.0277778
        k(   33) = (   0.4124790  -0.0589256   0.4124790), wk =   0.0277778
        k(   34) = (   0.3535534   0.0000000   0.3535534), wk =   0.0138889
        k(   35) = (   0.0000000   0.4714045   0.0000000), wk =   0.0069444
        k(   36) = (  -0.0589256   0.5303301  -0.0589256), wk =   0.0277778
        k(   37) = (   0.5892557  -0.1178511   0.5892557), wk =   0.0277778
        k(   38) = (   0.5303301  -0.0589256   0.5303301), wk =   0.0277778
        k(   39) = (   0.4714045  -0.0000000   0.4714045), wk =   0.0138889
        k(   40) = (   0.0000000   0.5892557   0.0000000), wk =   0.0069444
        k(   41) = (   0.6481812  -0.0589256   0.6481812), wk =   0.0277778
        k(   42) = (   0.5892557  -0.0000000   0.5892557), wk =   0.0138889
        k(   43) = (   0.0000000  -0.7071068   0.0000000), wk =   0.0034722
        k(   44) = (  -0.1178511   0.2357023   0.0000000), wk =   0.0277778
        k(   45) = (  -0.1767767   0.2946278  -0.0589256), wk =   0.0555556
        k(   46) = (  -0.2357023   0.3535534  -0.1178511), wk =   0.0555556
        k(   47) = (   0.4124790  -0.2946278   0.5303301), wk =   0.0555556
        k(   48) = (   0.3535534  -0.2357023   0.4714045), wk =   0.0277778
        k(   49) = (  -0.1178511   0.3535534   0.0000000), wk =   0.0277778
        k(   50) = (  -0.1767767   0.4124790  -0.0589256), wk =   0.0555556
        k(   51) = (   0.4714045  -0.2357023   0.5892557), wk =   0.0555556
        k(   52) = (   0.4124790  -0.1767767   0.5303301), wk =   0.0555556
        k(   53) = (   0.3535534  -0.1178511   0.4714045), wk =   0.0555556
        k(   54) = (   0.2946278  -0.0589256   0.4124790), wk =   0.0555556
        k(   55) = (   0.2357023  -0.0000000   0.3535534), wk =   0.0277778
        k(   56) = (  -0.1178511   0.4714045   0.0000000), wk =   0.0277778
        k(   57) = (   0.5303301  -0.1767767   0.6481812), wk =   0.0555556
        k(   58) = (   0.4714045  -0.1178511   0.5892557), wk =   0.0555556
        k(   59) = (   0.4124790  -0.0589256   0.5303301), wk =   0.0555556
        k(   60) = (   0.3535534   0.0000000   0.4714045), wk =   0.0277778
        k(   61) = (   0.5892557  -0.1178511   0.7071068), wk =   0.0277778
        k(   62) = (   0.5303301  -0.0589256   0.6481812), wk =   0.0555556
        k(   63) = (   0.4714045  -0.0000000   0.5892557), wk =   0.0277778
        k(   64) = (  -0.1178511  -0.7071068   0.0000000), wk =   0.0138889
        k(   65) = (   0.4714045  -0.2357023   0.7071068), wk =   0.0277778
        k(   66) = (   0.4124790  -0.1767767   0.6481812), wk =   0.0555556
        k(   67) = (   0.3535534  -0.1178511   0.5892557), wk =   0.0277778
        k(   68) = (   0.4714045  -0.1178511   0.7071068), wk =   0.0277778
        k(   69) = (   0.4124790  -0.0589256   0.6481812), wk =   0.0555556
        k(   70) = (   0.3535534   0.0000000   0.5892557), wk =   0.0277778
        k(   71) = (  -0.2357023  -0.7071068   0.0000000), wk =   0.0138889
        k(   72) = (  -0.3535534  -0.7071068   0.0000000), wk =   0.0069444

     Dense  grid:    12939 G-vectors     FFT dimensions: (  36,  36,  36)

     Estimated max dynamical RAM per process >       1.85 MB

     Estimated total dynamical RAM >      22.18 MB

     Initial potential from superposition of free atoms

     starting charge       7.9986, renormalised to       8.0000
     Starting wfcs are   32 randomized atomic wfcs

     total cpu time spent up to now is        0.4 secs

     per-process dynamical memory:    32.9 Mb

     Self-consistent Calculation

     iteration #  1     ecut=    50.00 Ry     beta= 0.70
     Davidson diagonalization with overlap
     ethr =  1.00E-02,  avg # of iterations =  1.9

     Threshold (ethr) on eigenvalues was too large:
     Diagonalizing with lowered threshold

     Davidson diagonalization with overlap
     ethr =  6.72E-04,  avg # of iterations =  1.0

     total cpu time spent up to now is        0.7 secs

     total energy              =     -15.75965646 Ry
     estimated scf accuracy    <       0.05616590 Ry

     iteration #  2     ecut=    50.00 Ry     beta= 0.70
     Davidson diagonalization with overlap
     ethr =  7.02E-04,  avg # of iterations =  1.0

     total cpu time spent up to now is        0.8 secs

     total energy              =     -15.76205271 Ry
     estimated scf accuracy    <       0.00261463 Ry

     iteration #  3     ecut=    50.00 Ry     beta= 0.70
     Davidson diagonalization with overlap
     ethr =  3.27E-05,  avg # of iterations =  2.0

     total cpu time spent up to now is        1.0 secs

     total energy              =     -15.76241284 Ry
     estimated scf accuracy    <       0.00004973 Ry

     iteration #  4     ecut=    50.00 Ry     beta= 0.70
     Davidson diagonalization with overlap
     ethr =  6.22E-07,  avg # of iterations =  3.4

     total cpu time spent up to now is        1.2 secs

     total energy              =     -15.76243868 Ry
     estimated scf accuracy    <       0.00000017 Ry

     iteration #  5     ecut=    50.00 Ry     beta= 0.70
     Davidson diagonalization with overlap
     ethr =  2.09E-09,  avg # of iterations =  5.9

     total cpu time spent up to now is        1.5 secs

     total energy              =     -15.76243966 Ry
     estimated scf accuracy    <       0.00000004 Ry

     iteration #  6     ecut=    50.00 Ry     beta= 0.70
     Davidson diagonalization with overlap
     ethr =  5.53E-10,  avg # of iterations =  2.0

     total cpu time spent up to now is        1.7 secs

     End of self-consistent calculation

          k = 0.0000 0.0000 0.0000 (  1639 PWs)   bands (ev):

    -5.7482   6.2208   6.2208   6.2208

          k =-0.0589 0.0589-0.0589 (  1612 PWs)   bands (ev):

    -5.6571   5.3599   6.0775   6.0775

          k =-0.1179 0.1179-0.1179 (  1591 PWs)   bands (ev):

    -5.3866   3.8379   5.7714   5.7714

          k =-0.1768 0.1768-0.1768 (  1618 PWs)   bands (ev):

    -4.9476   2.2925   5.4622   5.4622

          k =-0.2357 0.2357-0.2357 (  1616 PWs)   bands (ev):

    -4.3699   0.8856   5.2213   5.2213

          k =-0.2946 0.2946-0.2946 (  1616 PWs)   bands (ev):

    -3.7489  -0.2443   5.0727   5.0727

          k = 0.3536-0.3536 0.3536 (  1622 PWs)   bands (ev):

    -3.4147  -0.7498   5.0228   5.0228

          k = 0.0000 0.1179 0.0000 (  1615 PWs)   bands (ev):

    -5.6266   5.5215   5.7923   5.7923

          k =-0.0589 0.1768-0.0589 (  1599 PWs)   bands (ev):

    -5.4154   4.2898   5.4289   5.6174

          k =-0.1179 0.2357-0.1179 (  1610 PWs)   bands (ev):

    -5.0310   2.7893   5.1158   5.2939

          k =-0.1768 0.2946-0.1768 (  1606 PWs)   bands (ev):

    -4.4944   1.3535   4.9056   4.9408

          k =-0.2357 0.3536-0.2357 (  1616 PWs)   bands (ev):

    -3.8682   0.1232   4.6446   4.8154

          k = 0.4125-0.2946 0.4125 (  1615 PWs)   bands (ev):

    -3.3772  -0.6467   4.4397   4.8460

          k = 0.3536-0.2357 0.3536 (  1616 PWs)   bands (ev):

    -3.4981  -0.4690   4.3447   4.9889

          k = 0.2946-0.1768 0.2946 (  1611 PWs)   bands (ev):

    -4.0803   0.5035   4.3723   5.2284

          k = 0.2357-0.1179 0.2357 (  1605 PWs)   bands (ev):

    -4.6889   1.8177   4.5326   5.5384

          k = 0.1768-0.0589 0.1768 (  1600 PWs)   bands (ev):

    -5.1782   3.2755   4.8373   5.8675

          k = 0.1179-0.0000 0.1179 (  1593 PWs)   bands (ev):

    -5.5060   4.6276   5.3598   6.1027

          k = 0.0000 0.2357 0.0000 (  1607 PWs)   bands (ev):

    -5.2635   4.1754   5.0305   5.0305

          k =-0.0589 0.2946-0.0589 (  1616 PWs)   bands (ev):

    -4.9360   3.0907   4.6821   4.6960

          k =-0.1179 0.3536-0.1179 (  1611 PWs)   bands (ev):

    -4.4473   1.7818   4.2292   4.4772

          k =-0.1768 0.4125-0.1768 (  1610 PWs)   bands (ev):

    -3.8389   0.5477   3.7899   4.3929

          k = 0.4714-0.2357 0.4714 (  1607 PWs)   bands (ev):

    -3.2550  -0.3864   3.4454   4.4464

          k = 0.4125-0.1768 0.4125 (  1602 PWs)   bands (ev):

    -3.1406  -0.5462   3.2317   4.6301

          k = 0.3536-0.1179 0.3536 (  1610 PWs)   bands (ev):

    -3.6402   0.2127   3.1757   4.9249

          k = 0.2946-0.0589 0.2946 (  1613 PWs)   bands (ev):

    -4.2651   1.3591   3.3210   5.2927

          k = 0.2357-0.0000 0.2357 (  1604 PWs)   bands (ev):

    -4.7977   2.5001   3.8124   5.6563

          k = 0.0000 0.3536 0.0000 (  1612 PWs)   bands (ev):

    -4.6650   2.6979   4.3336   4.3336

          k =-0.0589 0.4125-0.0589 (  1617 PWs)   bands (ev):

    -4.2279   1.7889   3.8684   4.0870

          k =-0.1179 0.4714-0.1179 (  1620 PWs)   bands (ev):

    -3.6521   0.7608   3.2365   3.9796

          k = 0.5303-0.1768 0.5303 (  1617 PWs)   bands (ev):

    -3.0276  -0.1648   2.6900   4.0180

          k = 0.4714-0.1179 0.4714 (  1607 PWs)   bands (ev):

    -2.7037  -0.5792   2.3271   4.1979

          k = 0.4125-0.0589 0.4125 (  1611 PWs)   bands (ev):

    -3.0798  -0.0854   2.2081   4.5025

          k = 0.3536 0.0000 0.3536 (  1604 PWs)   bands (ev):

    -3.7023   0.7372   2.4726   4.8945

          k = 0.0000 0.4714 0.0000 (  1624 PWs)   bands (ev):

    -3.8419   1.2054   3.8056   3.8056

          k =-0.0589 0.5303-0.0589 (  1618 PWs)   bands (ev):

    -3.3066   0.4198   3.3204   3.6628

          k = 0.5893-0.1179 0.5893 (  1619 PWs)   bands (ev):

    -2.6771  -0.3486   2.5932   3.6689

          k = 0.5303-0.0589 0.5303 (  1620 PWs)   bands (ev):

    -2.2081  -0.8396   2.0148   3.8226

          k = 0.4714-0.0000 0.4714 (  1612 PWs)   bands (ev):

    -2.4812  -0.5533   1.8130   4.1111

          k = 0.0000 0.5893 0.0000 (  1628 PWs)   bands (ev):

    -2.8115  -0.2452   3.4802   3.4802

          k = 0.6482-0.0589 0.6482 (  1622 PWs)   bands (ev):

    -2.1975  -0.9332   3.0494   3.4465

          k = 0.5893-0.0000 0.5893 (  1622 PWs)   bands (ev):

    -1.7417  -1.3374   2.3797   3.5636

          k = 0.0000-0.7071 0.0000 (  1604 PWs)   bands (ev):

    -1.6002  -1.6002   3.3706   3.3706

          k =-0.1179 0.2357 0.0000 (  1603 PWs)   bands (ev):

    -5.1463   3.4895   4.5902   5.5149

          k =-0.1768 0.2946-0.0589 (  1607 PWs)   bands (ev):

    -4.7094   2.2496   4.0574   5.2402

          k =-0.2357 0.3536-0.1179 (  1609 PWs)   bands (ev):

    -4.1336   0.9486   3.7871   4.9132

          k = 0.4125-0.2946 0.5303 (  1612 PWs)   bands (ev):

    -3.5113  -0.1412   3.6593   4.6670

          k = 0.3536-0.2357 0.4714 (  1602 PWs)   bands (ev):

    -3.1728  -0.6395   3.6236   4.5754

          k =-0.1179 0.3536 0.0000 (  1617 PWs)   bands (ev):

    -4.5544   2.2961   3.8947   4.5960

          k =-0.1768 0.4125-0.0589 (  1611 PWs)   bands (ev):

    -4.0212   1.2466   3.3571   4.3079

          k = 0.4714-0.2357 0.5893 (  1617 PWs)   bands (ev):

    -3.3952   0.1926   3.0000   4.0973

          k = 0.4125-0.1768 0.5303 (  1607 PWs)   bands (ev):

    -2.8981  -0.5138   2.7542   4.0792

          k = 0.3536-0.1179 0.4714 (  1610 PWs)   bands (ev):

    -3.0338  -0.3266   2.6361   4.2517

          k = 0.2946-0.0589 0.4125 (  1610 PWs)   bands (ev):

    -3.6245   0.5503   2.7107   4.5685

          k = 0.2357-0.0000 0.3536 (  1606 PWs)   bands (ev):

    -4.2277   1.5293   3.1263   4.9499

          k =-0.1179 0.4714 0.0000 (  1626 PWs)   bands (ev):

    -3.7431   1.0302   3.3848   3.8123

          k = 0.5303-0.1768 0.6482 (  1621 PWs)   bands (ev):

    -3.1369   0.1950   2.7973   3.5954

          k = 0.4714-0.1179 0.5893 (  1616 PWs)   bands (ev):

    -2.5472  -0.5196   2.2764   3.6033

          k = 0.4125-0.0589 0.5303 (  1614 PWs)   bands (ev):

    -2.4762  -0.5905   1.9879   3.8018

          k = 0.3536 0.0000 0.4714 (  1621 PWs)   bands (ev):

    -3.0142  -0.0000   2.0747   4.1468

          k = 0.5893-0.1179 0.7071 (  1625 PWs)   bands (ev):

    -2.7341  -0.2818   3.1007   3.2972

          k = 0.5303-0.0589 0.6482 (  1620 PWs)   bands (ev):

    -2.1047  -0.9249   2.4731   3.2534

          k = 0.4714-0.0000 0.5893 (  1620 PWs)   bands (ev):

    -1.9501  -1.0383   1.9754   3.4505

          k =-0.1179-0.7071 0.0000 (  1622 PWs)   bands (ev):

    -1.5621  -1.5621   3.0653   3.0653

          k = 0.4714-0.2357 0.7071 (  1610 PWs)   bands (ev):

    -3.4564   0.5730   2.6556   3.9294

          k = 0.4125-0.1768 0.6482 (  1611 PWs)   bands (ev):

    -2.8318  -0.1967   2.3083   3.5927

          k = 0.3536-0.1179 0.5893 (  1610 PWs)   bands (ev):

    -2.4712  -0.6258   2.2151   3.4634

          k = 0.4714-0.1179 0.7071 (  1618 PWs)   bands (ev):

    -2.5201  -0.4261   2.4568   3.0756

          k = 0.4125-0.0589 0.6482 (  1615 PWs)   bands (ev):

    -1.9967  -0.9328   2.1417   2.9214

          k = 0.3536 0.0000 0.5893 (  1612 PWs)   bands (ev):

    -2.2284  -0.7028   2.0169   3.1464

          k =-0.2357-0.7071 0.0000 (  1618 PWs)   bands (ev):

    -1.4806  -1.4806   2.5805   2.5805

          k =-0.3536-0.7071 0.0000 (  1628 PWs)   bands (ev):

    -1.4367  -1.4367   2.3731   2.3731

     highest occupied level (ev):     6.2208

!    total energy              =     -15.76243967 Ry
     estimated scf accuracy    <          4.6E-09 Ry

     The total energy is the sum of the following terms:
     one-electron contribution =       4.75611744 Ry
     hartree contribution      =       1.09465372 Ry
     xc contribution           =      -4.81736021 Ry
     ewald contribution        =     -16.79585061 Ry

     convergence has been achieved in   6 iterations

     Forces acting on atoms (cartesian axes, Ry/au):

     atom    1 type  1   force =     0.00000000    0.00000000    0.00000000
     atom    2 type  1   force =     0.00000000    0.00000000    0.00000000

     Total force =     0.000000     Total SCF correction =     0.000000

     Writing all to output data dir ./tmp/si.save/ :
     XML data file, charge density, pseudopotentials, collected wavefunctions
 
     init_run     :      0.34s CPU      0.39s WALL (       1 calls)
     electrons    :      1.17s CPU      1.28s WALL (       1 calls)
     forces       :      0.01s CPU      0.01s WALL (       1 calls)

     Called by init_run:
     wfcinit      :      0.32s CPU      0.36s WALL (       1 calls)
     potinit      :      0.01s CPU      0.01s WALL (       1 calls)
     hinit0       :      0.01s CPU      0.01s WALL (       1 calls)

     Called by electrons:
     c_bands      :      1.00s CPU      1.09s WALL (       7 calls)
     sum_band     :      0.15s CPU      0.17s WALL (       7 calls)
     v_of_rho     :      0.02s CPU      0.02s WALL (       7 calls)
     mix_rho      :      0.00s CPU      0.00s WALL (       7 calls)

     Called by c_bands:
     init_us_2    :      0.06s CPU      0.06s WALL (    1152 calls)
     cegterg      :      0.90s CPU      0.98s WALL (     504 calls)

     Called by *egterg:
     cdiaghg      :      0.08s CPU      0.09s WALL (    1666 calls)
     h_psi        :      0.97s CPU      1.08s WALL (    1810 calls)
     g_psi        :      0.00s CPU      0.00s WALL (    1234 calls)

     Called by h_psi:
     h_psi:calbec :      0.08s CPU      0.09s WALL (    1810 calls)
     vloc_psi     :      0.86s CPU      0.96s WALL (    1810 calls)
     add_vuspsi   :      0.02s CPU      0.02s WALL (    1810 calls)

     General routines
     calbec       :      0.09s CPU      0.09s WALL (    2098 calls)
     fft          :      0.01s CPU      0.01s WALL (      72 calls)
     ffts         :      0.00s CPU      0.00s WALL (       7 calls)
     fftw         :      0.88s CPU      0.97s WALL (   18404 calls)
 
     Parallel routines
 
     PWSCF        :      1.58s CPU      1.80s WALL

 
   This run was terminated on:  11: 2:21  14Jun2026            

=------------------------------------------------------------------------------=
   JOB DONE.
=------------------------------------------------------------------------------=
