
     Program PWSCF v.7.4 starts on 26Apr2026 at 10: 4:25 

     This program is part of the open-source Quantum ESPRESSO suite
     for quantum simulation of materials; please cite
         "P. Giannozzi et al., J. Phys.:Condens. Matter 21 395502 (2009);
         "P. Giannozzi et al., J. Phys.:Condens. Matter 29 465901 (2017);
         "P. Giannozzi et al., J. Chem. Phys. 152 154105 (2020);
          URL http://www.quantum-espresso.org", 
     in publications or presentations arising from this work. More details at
     http://www.quantum-espresso.org/quote

     Parallel version (MPI), running on    12 processors

     MPI processes distributed on     1 nodes
     54578 MiB available memory on the printing compute node when the environment starts
 
     Reading input from si.scf.in

     Current dimensions of program PWSCF are:
     Max number of different atomic species (ntypx) = 10
     Max number of k-points (npk) =  40000
     Max angular momentum in pseudopotentials (lmaxx) =  4
     Message from routine setup:
     using ibrav=0 with symmetry is DISCOURAGED, use correct ibrav instead
 
     R & G space division:  proc/nbgrp/npool/nimage =      12
     Subspace diagonalization in iterative solution of the eigenvalue problem:
     a serial algorithm will be used

 
     Parallelization info
     --------------------
     sticks:   dense  smooth     PW     G-vecs:    dense   smooth      PW
     Min          41      41     13                  614      614     113
     Max          42      42     14                  618      618     115
     Sum         499     499    163                 7391     7391    1363
 
     Using Slab Decomposition
 


     bravais-lattice index     =            0
     lattice parameter (alat)  =       7.2074  a.u.
     unit-cell volume          =     264.7386 (a.u.)^3
     number of atoms/cell      =            2
     number of atomic types    =            1
     number of electrons       =         8.00
     number of Kohn-Sham states=            4
     kinetic-energy cutoff     =      35.0000  Ry
     charge density cutoff     =     140.0000  Ry
     scf convergence threshold =      1.0E-16
     mixing beta               =       0.7000
     number of iterations used =            8  plain     mixing
     Exchange-correlation= SLA  PW   NOGX NOGC
                           (   1   4   0   0   0   0   0)

     celldm(1)=   7.207380  celldm(2)=   0.000000  celldm(3)=   0.000000
     celldm(4)=   0.000000  celldm(5)=   0.000000  celldm(6)=   0.000000

     crystal axes: (cart. coord. in units of alat)
               a(1) = (  -0.707107   0.000000   0.707107 )  
               a(2) = (   0.000000   0.707107   0.707107 )  
               a(3) = (  -0.707107   0.707107   0.000000 )  

     reciprocal axes: (cart. coord. in units 2 pi/alat)
               b(1) = ( -0.707107 -0.707107  0.707107 )  
               b(2) = (  0.707107  0.707107  0.707107 )  
               b(3) = ( -0.707107  0.707107 -0.707107 )  


     PseudoPot. # 1 for Si read from file:
     ./Si.upf
     MD5 check sum: 9e2d726316af3d4752eea8ab0afbb951
     Pseudo is Norm-conserving + core correction, Zval =  4.0
     Generated using ONCVPSP code by D. R. Hamann
     Using radial grid of 1510 points,  6 beta functions with: 
                l(1) =   0
                l(2) =   0
                l(3) =   1
                l(4) =   1
                l(5) =   2
                l(6) =   2

     atomic species   valence    mass     pseudopotential
     Si                4.00    28.08600     Si( 1.00)

     48 Sym. Ops., with inversion, found (24 have fractional translation)



   Cartesian axes

     site n.     atom                  positions (alat units)
         1        Si     tau(   1) = (   0.0000000   0.0000000   0.0000000  )
         2        Si     tau(   2) = (  -0.3535534   0.3535534   0.3535534  )

     number of k points=    72
                       cart. coord. in units 2pi/alat
        k(    1) = (   0.0000000   0.0000000   0.0000000), wk =   0.0011574
        k(    2) = (  -0.0589256   0.0589256  -0.0589256), wk =   0.0092593
        k(    3) = (  -0.1178511   0.1178511  -0.1178511), wk =   0.0092593
        k(    4) = (  -0.1767767   0.1767767  -0.1767767), wk =   0.0092593
        k(    5) = (  -0.2357023   0.2357023  -0.2357023), wk =   0.0092593
        k(    6) = (  -0.2946278   0.2946278  -0.2946278), wk =   0.0092593
        k(    7) = (   0.3535534  -0.3535534   0.3535534), wk =   0.0046296
        k(    8) = (   0.0000000   0.1178511   0.0000000), wk =   0.0069444
        k(    9) = (  -0.0589256   0.1767767  -0.0589256), wk =   0.0277778
        k(   10) = (  -0.1178511   0.2357023  -0.1178511), wk =   0.0277778
        k(   11) = (  -0.1767767   0.2946278  -0.1767767), wk =   0.0277778
        k(   12) = (  -0.2357023   0.3535534  -0.2357023), wk =   0.0277778
        k(   13) = (   0.4124790  -0.2946278   0.4124790), wk =   0.0277778
        k(   14) = (   0.3535534  -0.2357023   0.3535534), wk =   0.0277778
        k(   15) = (   0.2946278  -0.1767767   0.2946278), wk =   0.0277778
        k(   16) = (   0.2357023  -0.1178511   0.2357023), wk =   0.0277778
        k(   17) = (   0.1767767  -0.0589256   0.1767767), wk =   0.0277778
        k(   18) = (   0.1178511  -0.0000000   0.1178511), wk =   0.0138889
        k(   19) = (   0.0000000   0.2357023   0.0000000), wk =   0.0069444
        k(   20) = (  -0.0589256   0.2946278  -0.0589256), wk =   0.0277778
        k(   21) = (  -0.1178511   0.3535534  -0.1178511), wk =   0.0277778
        k(   22) = (  -0.1767767   0.4124790  -0.1767767), wk =   0.0277778
        k(   23) = (   0.4714045  -0.2357023   0.4714045), wk =   0.0277778
        k(   24) = (   0.4124790  -0.1767767   0.4124790), wk =   0.0277778
        k(   25) = (   0.3535534  -0.1178511   0.3535534), wk =   0.0277778
        k(   26) = (   0.2946278  -0.0589256   0.2946278), wk =   0.0277778
        k(   27) = (   0.2357023  -0.0000000   0.2357023), wk =   0.0138889
        k(   28) = (   0.0000000   0.3535534   0.0000000), wk =   0.0069444
        k(   29) = (  -0.0589256   0.4124790  -0.0589256), wk =   0.0277778
        k(   30) = (  -0.1178511   0.4714045  -0.1178511), wk =   0.0277778
        k(   31) = (   0.5303301  -0.1767767   0.5303301), wk =   0.0277778
        k(   32) = (   0.4714045  -0.1178511   0.4714045), wk =   0.0277778
        k(   33) = (   0.4124790  -0.0589256   0.4124790), wk =   0.0277778
        k(   34) = (   0.3535534   0.0000000   0.3535534), wk =   0.0138889
        k(   35) = (   0.0000000   0.4714045   0.0000000), wk =   0.0069444
        k(   36) = (  -0.0589256   0.5303301  -0.0589256), wk =   0.0277778
        k(   37) = (   0.5892557  -0.1178511   0.5892557), wk =   0.0277778
        k(   38) = (   0.5303301  -0.0589256   0.5303301), wk =   0.0277778
        k(   39) = (   0.4714045  -0.0000000   0.4714045), wk =   0.0138889
        k(   40) = (   0.0000000   0.5892557   0.0000000), wk =   0.0069444
        k(   41) = (   0.6481812  -0.0589256   0.6481812), wk =   0.0277778
        k(   42) = (   0.5892557  -0.0000000   0.5892557), wk =   0.0138889
        k(   43) = (   0.0000000  -0.7071068   0.0000000), wk =   0.0034722
        k(   44) = (  -0.1178511   0.2357023   0.0000000), wk =   0.0277778
        k(   45) = (  -0.1767767   0.2946278  -0.0589256), wk =   0.0555556
        k(   46) = (  -0.2357023   0.3535534  -0.1178511), wk =   0.0555556
        k(   47) = (   0.4124790  -0.2946278   0.5303301), wk =   0.0555556
        k(   48) = (   0.3535534  -0.2357023   0.4714045), wk =   0.0277778
        k(   49) = (  -0.1178511   0.3535534   0.0000000), wk =   0.0277778
        k(   50) = (  -0.1767767   0.4124790  -0.0589256), wk =   0.0555556
        k(   51) = (   0.4714045  -0.2357023   0.5892557), wk =   0.0555556
        k(   52) = (   0.4124790  -0.1767767   0.5303301), wk =   0.0555556
        k(   53) = (   0.3535534  -0.1178511   0.4714045), wk =   0.0555556
        k(   54) = (   0.2946278  -0.0589256   0.4124790), wk =   0.0555556
        k(   55) = (   0.2357023  -0.0000000   0.3535534), wk =   0.0277778
        k(   56) = (  -0.1178511   0.4714045   0.0000000), wk =   0.0277778
        k(   57) = (   0.5303301  -0.1767767   0.6481812), wk =   0.0555556
        k(   58) = (   0.4714045  -0.1178511   0.5892557), wk =   0.0555556
        k(   59) = (   0.4124790  -0.0589256   0.5303301), wk =   0.0555556
        k(   60) = (   0.3535534   0.0000000   0.4714045), wk =   0.0277778
        k(   61) = (   0.5892557  -0.1178511   0.7071068), wk =   0.0277778
        k(   62) = (   0.5303301  -0.0589256   0.6481812), wk =   0.0555556
        k(   63) = (   0.4714045  -0.0000000   0.5892557), wk =   0.0277778
        k(   64) = (  -0.1178511  -0.7071068   0.0000000), wk =   0.0138889
        k(   65) = (   0.4714045  -0.2357023   0.7071068), wk =   0.0277778
        k(   66) = (   0.4124790  -0.1767767   0.6481812), wk =   0.0555556
        k(   67) = (   0.3535534  -0.1178511   0.5892557), wk =   0.0277778
        k(   68) = (   0.4714045  -0.1178511   0.7071068), wk =   0.0277778
        k(   69) = (   0.4124790  -0.0589256   0.6481812), wk =   0.0555556
        k(   70) = (   0.3535534   0.0000000   0.5892557), wk =   0.0277778
        k(   71) = (  -0.2357023  -0.7071068   0.0000000), wk =   0.0138889
        k(   72) = (  -0.3535534  -0.7071068   0.0000000), wk =   0.0069444

     Dense  grid:     7391 G-vectors     FFT dimensions: (  32,  32,  32)

     Estimated max dynamical RAM per process >       1.83 MB

     Estimated total dynamical RAM >      21.94 MB

     Initial potential from superposition of free atoms

     starting charge       7.9989, renormalised to       8.0000
     Starting wfcs are    8 randomized atomic wfcs

     total cpu time spent up to now is        0.1 secs

     per-process dynamical memory:    28.1 Mb

     Self-consistent Calculation

     iteration #  1     ecut=    35.00 Ry     beta= 0.70
     Davidson diagonalization with overlap
     ethr =  1.00E-02,  avg # of iterations =  2.0

     Threshold (ethr) on eigenvalues was too large:
     Diagonalizing with lowered threshold

     Davidson diagonalization with overlap
     ethr =  6.13E-04,  avg # of iterations =  2.0

     total cpu time spent up to now is        0.2 secs

     total energy              =     -17.04756169 Ry
     estimated scf accuracy    <       0.05802900 Ry

     iteration #  2     ecut=    35.00 Ry     beta= 0.70
     Davidson diagonalization with overlap
     ethr =  7.25E-04,  avg # of iterations =  1.0

     total cpu time spent up to now is        0.3 secs

     total energy              =     -17.04991318 Ry
     estimated scf accuracy    <       0.00246815 Ry

     iteration #  3     ecut=    35.00 Ry     beta= 0.70
     Davidson diagonalization with overlap
     ethr =  3.09E-05,  avg # of iterations =  3.0

     total cpu time spent up to now is        0.4 secs

     total energy              =     -17.05076886 Ry
     estimated scf accuracy    <       0.00009768 Ry

     iteration #  4     ecut=    35.00 Ry     beta= 0.70
     Davidson diagonalization with overlap
     ethr =  1.22E-06,  avg # of iterations =  4.0

     total cpu time spent up to now is        0.4 secs

     total energy              =     -17.05083233 Ry
     estimated scf accuracy    <       0.00000435 Ry

     iteration #  5     ecut=    35.00 Ry     beta= 0.70
     Davidson diagonalization with overlap
     ethr =  5.44E-08,  avg # of iterations =  4.2

     total cpu time spent up to now is        0.5 secs

     total energy              =     -17.05083577 Ry
     estimated scf accuracy    <       0.00000018 Ry

     iteration #  6     ecut=    35.00 Ry     beta= 0.70
     Davidson diagonalization with overlap
     ethr =  2.31E-09,  avg # of iterations =  3.6

     total cpu time spent up to now is        0.6 secs

     total energy              =     -17.05083586 Ry
     estimated scf accuracy    <       0.00000002 Ry

     iteration #  7     ecut=    35.00 Ry     beta= 0.70
     Davidson diagonalization with overlap
     ethr =  2.74E-10,  avg # of iterations =  3.0

     total cpu time spent up to now is        0.6 secs

     total energy              =     -17.05083587 Ry
     estimated scf accuracy    <          8.6E-11 Ry

     iteration #  8     ecut=    35.00 Ry     beta= 0.70
     Davidson diagonalization with overlap
     ethr =  1.07E-12,  avg # of iterations =  7.0

     total cpu time spent up to now is        0.7 secs

     total energy              =     -17.05083587 Ry
     estimated scf accuracy    <          1.2E-11 Ry

     iteration #  9     ecut=    35.00 Ry     beta= 0.70
     Davidson diagonalization with overlap
     ethr =  1.45E-13,  avg # of iterations =  2.4

     total cpu time spent up to now is        0.8 secs

     total energy              =     -17.05083587 Ry
     estimated scf accuracy    <          2.9E-13 Ry

     iteration # 10     ecut=    35.00 Ry     beta= 0.70
     Davidson diagonalization with overlap
     ethr =  1.00E-13,  avg # of iterations =  1.0

     total cpu time spent up to now is        0.8 secs

     total energy              =     -17.05083587 Ry
     estimated scf accuracy    <          3.9E-15 Ry

     iteration # 11     ecut=    35.00 Ry     beta= 0.70
     Davidson diagonalization with overlap
     ethr =  1.00E-13,  avg # of iterations =  1.0

     total cpu time spent up to now is        0.8 secs

     total energy              =     -17.05083587 Ry
     estimated scf accuracy    <          6.6E-15 Ry

     iteration # 12     ecut=    35.00 Ry     beta= 0.70
     Davidson diagonalization with overlap
     ethr =  1.00E-13,  avg # of iterations =  1.0

     total cpu time spent up to now is        0.9 secs

     total energy              =     -17.05083587 Ry
     estimated scf accuracy    <          7.2E-16 Ry

     iteration # 13     ecut=    35.00 Ry     beta= 0.70
     Davidson diagonalization with overlap
     ethr =  1.00E-13,  avg # of iterations =  1.0

     total cpu time spent up to now is        0.9 secs

     End of self-consistent calculation

          k = 0.0000 0.0000 0.0000 (   941 PWs)   bands (ev):

    -5.8518   6.2489   6.2489   6.2489

          k =-0.0589 0.0589-0.0589 (   923 PWs)   bands (ev):

    -5.7592   5.3779   6.1020   6.1020

          k =-0.1179 0.1179-0.1179 (   917 PWs)   bands (ev):

    -5.4844   3.8346   5.7902   5.7902

          k =-0.1768 0.1768-0.1768 (   923 PWs)   bands (ev):

    -5.0379   2.2658   5.4775   5.4775

          k =-0.2357 0.2357-0.2357 (   926 PWs)   bands (ev):

    -4.4490   0.8357   5.2350   5.2350

          k =-0.2946 0.2946-0.2946 (   929 PWs)   bands (ev):

    -3.8122  -0.3173   5.0860   5.0860

          k = 0.3536-0.3536 0.3536 (   912 PWs)   bands (ev):

    -3.4657  -0.8374   5.0360   5.0360

          k = 0.0000 0.1179 0.0000 (   933 PWs)   bands (ev):

    -5.7282   5.5548   5.8073   5.8073

          k =-0.0589 0.1768-0.0589 (   926 PWs)   bands (ev):

    -5.5137   4.3006   5.4366   5.6346

          k =-0.1179 0.2357-0.1179 (   925 PWs)   bands (ev):

    -5.1230   2.7754   5.1196   5.3049

          k =-0.1768 0.2946-0.1768 (   927 PWs)   bands (ev):

    -4.5766   1.3155   4.9085   4.9460

          k =-0.2357 0.3536-0.2357 (   920 PWs)   bands (ev):

    -3.9362   0.0616   4.6451   4.8197

          k = 0.4125-0.2946 0.4125 (   922 PWs)   bands (ev):

    -3.4291  -0.7286   4.4361   4.8532

          k = 0.3536-0.2357 0.3536 (   927 PWs)   bands (ev):

    -3.5546  -0.5454   4.3375   5.0002

          k = 0.2946-0.1768 0.2946 (   926 PWs)   bands (ev):

    -4.1535   0.4497   4.3627   5.2443

          k = 0.2357-0.1179 0.2357 (   923 PWs)   bands (ev):

    -4.7747   1.7879   4.5221   5.5592

          k = 0.1768-0.0589 0.1768 (   921 PWs)   bands (ev):

    -5.2727   3.2707   4.8282   5.8933

          k = 0.1179-0.0000 0.1179 (   925 PWs)   bands (ev):

    -5.6057   4.6438   5.3595   6.1315

          k = 0.0000 0.2357 0.0000 (   921 PWs)   bands (ev):

    -5.3596   4.2057   5.0296   5.0296

          k =-0.0589 0.2946-0.0589 (   927 PWs)   bands (ev):

    -5.0268   3.1008   4.6766   4.6902

          k =-0.1179 0.3536-0.1179 (   926 PWs)   bands (ev):

    -4.5296   1.7660   4.2140   4.4694

          k =-0.1768 0.4125-0.1768 (   919 PWs)   bands (ev):

    -3.9088   0.5068   3.7663   4.3859

          k = 0.4714-0.2357 0.4714 (   928 PWs)   bands (ev):

    -3.3085  -0.4507   3.4147   4.4424

          k = 0.4125-0.1768 0.4125 (   932 PWs)   bands (ev):

    -3.1894  -0.6160   3.1949   4.6311

          k = 0.3536-0.1179 0.3536 (   922 PWs)   bands (ev):

    -3.7046   0.1637   3.1336   4.9326

          k = 0.2946-0.0589 0.2946 (   924 PWs)   bands (ev):

    -4.3434   1.3358   3.2748   5.3083

          k = 0.2357-0.0000 0.2357 (   925 PWs)   bands (ev):

    -4.8857   2.4977   3.7706   5.6794

          k = 0.0000 0.3536 0.0000 (   902 PWs)   bands (ev):

    -4.7517   2.7170   4.3215   4.3215

          k =-0.0589 0.4125-0.0589 (   922 PWs)   bands (ev):

    -4.3074   1.7949   3.8410   4.0717

          k =-0.1179 0.4714-0.1179 (   918 PWs)   bands (ev):

    -3.7209   0.7473   3.1894   3.9639

          k = 0.5303-0.1768 0.5303 (   920 PWs)   bands (ev):

    -3.0814  -0.2006   2.6294   4.0044

          k = 0.4714-0.1179 0.4714 (   925 PWs)   bands (ev):

    -2.7456  -0.6292   2.2570   4.1887

          k = 0.4125-0.0589 0.4125 (   926 PWs)   bands (ev):

    -3.1327  -0.1205   2.1306   4.5000

          k = 0.3536 0.0000 0.3536 (   919 PWs)   bands (ev):

    -3.7697   0.7193   2.3970   4.9007

          k = 0.0000 0.4714 0.0000 (   922 PWs)   bands (ev):

    -3.9156   1.2079   3.7860   3.7860

          k =-0.0589 0.5303-0.0589 (   928 PWs)   bands (ev):

    -3.3713   0.4122   3.2797   3.6416

          k = 0.5893-0.1179 0.5893 (   932 PWs)   bands (ev):

    -2.7289  -0.3677   2.5228   3.6486

          k = 0.5303-0.0589 0.5303 (   933 PWs)   bands (ev):

    -2.2445  -0.8714   1.9239   3.8057

          k = 0.4714-0.0000 0.4714 (   935 PWs)   bands (ev):

    -2.5213  -0.5825   1.7153   4.1001

          k = 0.0000 0.5893 0.0000 (   942 PWs)   bands (ev):

    -2.8689  -0.2627   3.4562   3.4562

          k = 0.6482-0.0589 0.6482 (   938 PWs)   bands (ev):

    -2.2442  -0.9601   3.0029   3.4223

          k = 0.5893-0.0000 0.5893 (   944 PWs)   bands (ev):

    -1.7736  -1.3733   2.3021   3.5418

          k = 0.0000-0.7071 0.0000 (   934 PWs)   bands (ev):

    -1.6384  -1.6384   3.3452   3.3452

          k =-0.1179 0.2357 0.0000 (   917 PWs)   bands (ev):

    -5.2403   3.4996   4.5710   5.5329

          k =-0.1768 0.2946-0.0589 (   929 PWs)   bands (ev):

    -4.7960   2.2383   4.0303   5.2522

          k =-0.2357 0.3536-0.1179 (   924 PWs)   bands (ev):

    -4.2091   0.9116   3.7606   4.9176

          k = 0.4125-0.2946 0.5303 (   926 PWs)   bands (ev):

    -3.5713  -0.2025   3.6344   4.6654

          k = 0.3536-0.2357 0.4714 (   920 PWs)   bands (ev):

    -3.2208  -0.7157   3.5995   4.5714

          k =-0.1179 0.3536 0.0000 (   928 PWs)   bands (ev):

    -4.6389   2.3030   3.8620   4.5912

          k =-0.1768 0.4125-0.0589 (   923 PWs)   bands (ev):

    -4.0962   1.2352   3.3133   4.2935

          k = 0.4714-0.2357 0.5893 (   927 PWs)   bands (ev):

    -3.4565   0.1569   2.9526   4.0766

          k = 0.4125-0.1768 0.5303 (   929 PWs)   bands (ev):

    -2.9438  -0.5703   2.7026   4.0581

          k = 0.3536-0.1179 0.4714 (   933 PWs)   bands (ev):

    -3.0840  -0.3774   2.5792   4.2355

          k = 0.2946-0.0589 0.4125 (   922 PWs)   bands (ev):

    -3.6904   0.5232   2.6488   4.5610

          k = 0.2357-0.0000 0.3536 (   922 PWs)   bands (ev):

    -4.3058   1.5210   3.0686   4.9533

          k =-0.1179 0.4714 0.0000 (   926 PWs)   bands (ev):

    -3.8145   1.0295   3.3432   3.7856

          k = 0.5303-0.1768 0.6482 (   926 PWs)   bands (ev):

    -3.1965   0.1820   2.7353   3.5609

          k = 0.4714-0.1179 0.5893 (   927 PWs)   bands (ev):

    -2.5914  -0.5494   2.1982   3.5693

          k = 0.4125-0.0589 0.5303 (   927 PWs)   bands (ev):

    -2.5158  -0.6243   1.8997   3.7730

          k = 0.3536 0.0000 0.4714 (   929 PWs)   bands (ev):

    -3.0673  -0.0220   1.9873   4.1271

          k = 0.5893-0.1179 0.7071 (   931 PWs)   bands (ev):

    -2.7888  -0.2979   3.0547   3.2569

          k = 0.5303-0.0589 0.6482 (   932 PWs)   bands (ev):

    -2.1459  -0.9497   2.3984   3.2113

          k = 0.4714-0.0000 0.5893 (   928 PWs)   bands (ev):

    -1.9811  -1.0693   1.8812   3.4132

          k =-0.1179-0.7071 0.0000 (   940 PWs)   bands (ev):

    -1.5977  -1.5977   3.0192   3.0192

          k = 0.4714-0.2357 0.7071 (   918 PWs)   bands (ev):

    -3.5207   0.5623   2.5870   3.8992

          k = 0.4125-0.1768 0.6482 (   922 PWs)   bands (ev):

    -2.8819  -0.2217   2.2325   3.5507

          k = 0.3536-0.1179 0.5893 (   930 PWs)   bands (ev):

    -2.5102  -0.6638   2.1392   3.4171

          k = 0.4714-0.1179 0.7071 (   921 PWs)   bands (ev):

    -2.5674  -0.4423   2.3827   3.0170

          k = 0.4125-0.0589 0.6482 (   924 PWs)   bands (ev):

    -2.0306  -0.9573   2.0541   2.8579

          k = 0.3536 0.0000 0.5893 (   922 PWs)   bands (ev):

    -2.2659  -0.7253   1.9252   3.0897

          k =-0.2357-0.7071 0.0000 (   920 PWs)   bands (ev):

    -1.5102  -1.5102   2.5081   2.5081

          k =-0.3536-0.7071 0.0000 (   932 PWs)   bands (ev):

    -1.4627  -1.4627   2.2904   2.2904

     highest occupied level (ev):     6.2489

!    total energy              =     -17.05083587 Ry
     estimated scf accuracy    <          5.2E-17 Ry

     The total energy is the sum of the following terms:
     one-electron contribution =       5.00439632 Ry
     hartree contribution      =       1.07781976 Ry
     xc contribution           =      -6.22131344 Ry
     ewald contribution        =     -16.91173851 Ry

     convergence has been achieved in  13 iterations

     Forces acting on atoms (cartesian axes, Ry/au):

     atom    1 type  1   force =     0.00000000    0.00000000    0.00000000
     atom    2 type  1   force =     0.00000000    0.00000000    0.00000000

     Total force =     0.000000     Total SCF correction =     0.000000

     Writing all to output data dir ./tmp/si.save/ :
     XML data file, charge density, pseudopotentials, collected wavefunctions
 
     init_run     :      0.05s CPU      0.06s WALL (       1 calls)
     electrons    :      0.78s CPU      0.82s WALL (       1 calls)
     forces       :      0.00s CPU      0.00s WALL (       1 calls)

     Called by init_run:
     wfcinit      :      0.04s CPU      0.04s WALL (       1 calls)
     potinit      :      0.00s CPU      0.00s WALL (       1 calls)
     hinit0       :      0.00s CPU      0.01s WALL (       1 calls)

     Called by electrons:
     c_bands      :      0.68s CPU      0.72s WALL (      14 calls)
     sum_band     :      0.09s CPU      0.10s WALL (      14 calls)
     v_of_rho     :      0.00s CPU      0.00s WALL (      14 calls)
     mix_rho      :      0.00s CPU      0.00s WALL (      14 calls)

     Called by c_bands:
     init_us_2    :      0.02s CPU      0.02s WALL (    2160 calls)
     cegterg      :      0.61s CPU      0.65s WALL (    1008 calls)

     Called by *egterg:
     cdiaghg      :      0.04s CPU      0.05s WALL (    3540 calls)
     h_psi        :      0.53s CPU      0.57s WALL (    3684 calls)
     g_psi        :      0.00s CPU      0.00s WALL (    2604 calls)

     Called by h_psi:
     h_psi:calbec :      0.04s CPU      0.04s WALL (    3684 calls)
     vloc_psi     :      0.47s CPU      0.50s WALL (    3684 calls)
     add_vuspsi   :      0.01s CPU      0.01s WALL (    3684 calls)

     General routines
     calbec       :      0.04s CPU      0.04s WALL (    3972 calls)
     fft          :      0.00s CPU      0.01s WALL (      46 calls)
     ffts         :      0.00s CPU      0.00s WALL (      14 calls)
     fftw         :      0.50s CPU      0.53s WALL (   29460 calls)
 
     Parallel routines
 
     PWSCF        :      0.87s CPU      0.94s WALL

 
   This run was terminated on:  10: 4:26  26Apr2026            

=------------------------------------------------------------------------------=
   JOB DONE.
=------------------------------------------------------------------------------=
