
     Program PWSCF v.7.4 starts on 15Jun2026 at 23: 9: 7 

     This program is part of the open-source Quantum ESPRESSO suite
     for quantum simulation of materials; please cite
         "P. Giannozzi et al., J. Phys.:Condens. Matter 21 395502 (2009);
         "P. Giannozzi et al., J. Phys.:Condens. Matter 29 465901 (2017);
         "P. Giannozzi et al., J. Chem. Phys. 152 154105 (2020);
          URL http://www.quantum-espresso.org", 
     in publications or presentations arising from this work. More details at
     http://www.quantum-espresso.org/quote

     Parallel version (MPI), running on    12 processors

     MPI processes distributed on     1 nodes
     111473 MiB available memory on the printing compute node when the environment starts
 
     Reading input from al.scf.in

     Current dimensions of program PWSCF are:
     Max number of different atomic species (ntypx) = 10
     Max number of k-points (npk) =  40000
     Max angular momentum in pseudopotentials (lmaxx) =  4
read_pp_mesh; mismatch in mesh size, discarding the one in header
     Message from routine setup:
     using ibrav=0 with symmetry is DISCOURAGED, use correct ibrav instead
 
     R & G space division:  proc/nbgrp/npool/nimage =      12
     Subspace diagonalization in iterative solution of the eigenvalue problem:
     a serial algorithm will be used

 
     Parallelization info
     --------------------
     sticks:   dense  smooth     PW     G-vecs:    dense   smooth      PW
     Min          33      33     10                  433      433      80
     Max          34      34     11                  435      435      83
     Sum         397     397    127                 5209     5209     965
 
     Using Slab Decomposition
 


     bravais-lattice index     =            0
     lattice parameter (alat)  =       5.3955  a.u.
     unit-cell volume          =     111.0634 (a.u.)^3
     number of atoms/cell      =            1
     number of atomic types    =            1
     number of electrons       =         3.00
     number of Kohn-Sham states=            6
     kinetic-energy cutoff     =      50.0000  Ry
     charge density cutoff     =     200.0000  Ry
     scf convergence threshold =      1.0E-16
     mixing beta               =       0.7000
     number of iterations used =            8  plain     mixing
     Exchange-correlation= SLA PW PBX PBC
                           (   1   4   3   4   0   0   0)

     celldm(1)=   5.395462  celldm(2)=   0.000000  celldm(3)=   0.000000
     celldm(4)=   0.000000  celldm(5)=   0.000000  celldm(6)=   0.000000

     crystal axes: (cart. coord. in units of alat)
               a(1) = (  -0.707107   0.000000   0.707107 )  
               a(2) = (   0.000000   0.707107   0.707107 )  
               a(3) = (  -0.707107   0.707107   0.000000 )  

     reciprocal axes: (cart. coord. in units 2 pi/alat)
               b(1) = ( -0.707107 -0.707107  0.707107 )  
               b(2) = (  0.707107  0.707107  0.707107 )  
               b(3) = ( -0.707107  0.707107 -0.707107 )  


     PseudoPot. # 1 for Al read from file:
     ../../../pseudopotentzialak/Al.upf
     MD5 check sum: fd3ab6bbf4b2322b308692f0f9c61a66
     Pseudo is Projector augmented-wave + core cor, Zval =  3.0
     Generated using ATOMPAW code
     Shape of augmentation charge: SINC**2
     Using radial grid of 2342 points,  4 beta functions with: 
                l(1) =   0
                l(2) =   0
                l(3) =   1
                l(4) =   1
     Q(r) pseudized with 0 coefficients 


     atomic species   valence    mass     pseudopotential
     Al                3.00    26.98150     Al( 1.00)

     48 Sym. Ops., with inversion, found


                                    s                        frac. trans.

      isym =  1     identity                                     

 cryst.   s( 1) = (     1          0          0      )
                  (     0          1          0      )
                  (     0          0          1      )

 cart.    s( 1) = (  1.0000000  0.0000000  0.0000000 )
                  (  0.0000000  1.0000000  0.0000000 )
                  (  0.0000000  0.0000000  1.0000000 )


      isym =  2     180 deg rotation - cart. axis [0,0,1]        

 cryst.   s( 2) = (     0          1         -1      )
                  (     1          0         -1      )
                  (     0          0         -1      )

 cart.    s( 2) = ( -1.0000000  0.0000000  0.0000000 )
                  (  0.0000000 -1.0000000  0.0000000 )
                  (  0.0000000  0.0000000  1.0000000 )


      isym =  3     180 deg rotation - cart. axis [0,1,0]        

 cryst.   s( 3) = (    -1          0          0      )
                  (    -1          0          1      )
                  (    -1          1          0      )

 cart.    s( 3) = ( -1.0000000  0.0000000  0.0000000 )
                  (  0.0000000  1.0000000  0.0000000 )
                  (  0.0000000  0.0000000 -1.0000000 )


      isym =  4     180 deg rotation - cart. axis [1,0,0]        

 cryst.   s( 4) = (     0         -1          1      )
                  (     0         -1          0      )
                  (     1         -1          0      )

 cart.    s( 4) = (  1.0000000  0.0000000  0.0000000 )
                  (  0.0000000 -1.0000000  0.0000000 )
                  (  0.0000000  0.0000000 -1.0000000 )


      isym =  5     180 deg rotation - cart. axis [1,1,0]        

 cryst.   s( 5) = (     0         -1          0      )
                  (    -1          0          0      )
                  (     0          0         -1      )

 cart.    s( 5) = (  0.0000000  1.0000000  0.0000000 )
                  (  1.0000000  0.0000000  0.0000000 )
                  (  0.0000000  0.0000000 -1.0000000 )


      isym =  6     180 deg rotation - cart. axis [1,-1,0]       

 cryst.   s( 6) = (    -1          0          1      )
                  (     0         -1          1      )
                  (     0          0          1      )

 cart.    s( 6) = (  0.0000000 -1.0000000  0.0000000 )
                  ( -1.0000000  0.0000000  0.0000000 )
                  (  0.0000000  0.0000000 -1.0000000 )


      isym =  7      90 deg rotation - cart. axis [0,0,-1]       

 cryst.   s( 7) = (     0          1          0      )
                  (     0          1         -1      )
                  (    -1          1          0      )

 cart.    s( 7) = (  0.0000000  1.0000000  0.0000000 )
                  ( -1.0000000  0.0000000  0.0000000 )
                  (  0.0000000  0.0000000  1.0000000 )


      isym =  8      90 deg rotation - cart. axis [0,0,1]        

 cryst.   s( 8) = (     1          0         -1      )
                  (     1          0          0      )
                  (     1         -1          0      )

 cart.    s( 8) = (  0.0000000 -1.0000000  0.0000000 )
                  (  1.0000000  0.0000000  0.0000000 )
                  (  0.0000000  0.0000000  1.0000000 )


      isym =  9     180 deg rotation - cart. axis [1,0,1]        

 cryst.   s( 9) = (    -1          0          0      )
                  (     0          0         -1      )
                  (     0         -1          0      )

 cart.    s( 9) = (  0.0000000  0.0000000  1.0000000 )
                  (  0.0000000 -1.0000000  0.0000000 )
                  (  1.0000000  0.0000000  0.0000000 )


      isym = 10     180 deg rotation - cart. axis [-1,0,1]       

 cryst.   s(10) = (     1          0          0      )
                  (     1         -1          0      )
                  (     1          0         -1      )

 cart.    s(10) = (  0.0000000  0.0000000 -1.0000000 )
                  (  0.0000000 -1.0000000  0.0000000 )
                  ( -1.0000000  0.0000000  0.0000000 )


      isym = 11      90 deg rotation - cart. axis [0,1,0]        

 cryst.   s(11) = (     0          1         -1      )
                  (    -1          1          0      )
                  (     0          1          0      )

 cart.    s(11) = (  0.0000000  0.0000000  1.0000000 )
                  (  0.0000000  1.0000000  0.0000000 )
                  ( -1.0000000  0.0000000  0.0000000 )


      isym = 12      90 deg rotation - cart. axis [0,-1,0]       

 cryst.   s(12) = (     0         -1          1      )
                  (     0          0          1      )
                  (    -1          0          1      )

 cart.    s(12) = (  0.0000000  0.0000000 -1.0000000 )
                  (  0.0000000  1.0000000  0.0000000 )
                  (  1.0000000  0.0000000  0.0000000 )


      isym = 13     180 deg rotation - cart. axis [0,1,1]        

 cryst.   s(13) = (    -1          1          0      )
                  (     0          1          0      )
                  (     0          1         -1      )

 cart.    s(13) = ( -1.0000000  0.0000000  0.0000000 )
                  (  0.0000000  0.0000000  1.0000000 )
                  (  0.0000000  1.0000000  0.0000000 )


      isym = 14     180 deg rotation - cart. axis [0,1,-1]       

 cryst.   s(14) = (     0          0         -1      )
                  (     0         -1          0      )
                  (    -1          0          0      )

 cart.    s(14) = ( -1.0000000  0.0000000  0.0000000 )
                  (  0.0000000  0.0000000 -1.0000000 )
                  (  0.0000000 -1.0000000  0.0000000 )


      isym = 15      90 deg rotation - cart. axis [-1,0,0]       

 cryst.   s(15) = (     0          0          1      )
                  (    -1          0          1      )
                  (     0         -1          1      )

 cart.    s(15) = (  1.0000000  0.0000000  0.0000000 )
                  (  0.0000000  0.0000000  1.0000000 )
                  (  0.0000000 -1.0000000  0.0000000 )


      isym = 16      90 deg rotation - cart. axis [1,0,0]        

 cryst.   s(16) = (     1         -1          0      )
                  (     1          0         -1      )
                  (     1          0          0      )

 cart.    s(16) = (  1.0000000  0.0000000  0.0000000 )
                  (  0.0000000  0.0000000 -1.0000000 )
                  (  0.0000000  1.0000000  0.0000000 )


      isym = 17     120 deg rotation - cart. axis [-1,-1,-1]     

 cryst.   s(17) = (    -1          0          1      )
                  (    -1          1          0      )
                  (    -1          0          0      )

 cart.    s(17) = (  0.0000000  1.0000000  0.0000000 )
                  (  0.0000000  0.0000000  1.0000000 )
                  (  1.0000000  0.0000000  0.0000000 )


      isym = 18     120 deg rotation - cart. axis [-1,1,1]       

 cryst.   s(18) = (     0          1          0      )
                  (     0          0          1      )
                  (     1          0          0      )

 cart.    s(18) = (  0.0000000 -1.0000000  0.0000000 )
                  (  0.0000000  0.0000000  1.0000000 )
                  ( -1.0000000  0.0000000  0.0000000 )


      isym = 19     120 deg rotation - cart. axis [1,1,-1]       

 cryst.   s(19) = (     1          0         -1      )
                  (     0          0         -1      )
                  (     0          1         -1      )

 cart.    s(19) = (  0.0000000  1.0000000  0.0000000 )
                  (  0.0000000  0.0000000 -1.0000000 )
                  ( -1.0000000  0.0000000  0.0000000 )


      isym = 20     120 deg rotation - cart. axis [1,-1,1]       

 cryst.   s(20) = (     0         -1          0      )
                  (     1         -1          0      )
                  (     0         -1          1      )

 cart.    s(20) = (  0.0000000 -1.0000000  0.0000000 )
                  (  0.0000000  0.0000000 -1.0000000 )
                  (  1.0000000  0.0000000  0.0000000 )


      isym = 21     120 deg rotation - cart. axis [1,1,1]        

 cryst.   s(21) = (     0          0         -1      )
                  (     0          1         -1      )
                  (     1          0         -1      )

 cart.    s(21) = (  0.0000000  0.0000000  1.0000000 )
                  (  1.0000000  0.0000000  0.0000000 )
                  (  0.0000000  1.0000000  0.0000000 )


      isym = 22     120 deg rotation - cart. axis [-1,1,-1]      

 cryst.   s(22) = (    -1          1          0      )
                  (    -1          0          0      )
                  (    -1          0          1      )

 cart.    s(22) = (  0.0000000  0.0000000  1.0000000 )
                  ( -1.0000000  0.0000000  0.0000000 )
                  (  0.0000000 -1.0000000  0.0000000 )


      isym = 23     120 deg rotation - cart. axis [1,-1,-1]      

 cryst.   s(23) = (     0          0          1      )
                  (     1          0          0      )
                  (     0          1          0      )

 cart.    s(23) = (  0.0000000  0.0000000 -1.0000000 )
                  ( -1.0000000  0.0000000  0.0000000 )
                  (  0.0000000  1.0000000  0.0000000 )


      isym = 24     120 deg rotation - cart. axis [-1,-1,1]      

 cryst.   s(24) = (     1         -1          0      )
                  (     0         -1          1      )
                  (     0         -1          0      )

 cart.    s(24) = (  0.0000000  0.0000000 -1.0000000 )
                  (  1.0000000  0.0000000  0.0000000 )
                  (  0.0000000 -1.0000000  0.0000000 )


      isym = 25     inversion                                    

 cryst.   s(25) = (    -1          0          0      )
                  (     0         -1          0      )
                  (     0          0         -1      )

 cart.    s(25) = ( -1.0000000  0.0000000  0.0000000 )
                  (  0.0000000 -1.0000000  0.0000000 )
                  (  0.0000000  0.0000000 -1.0000000 )


      isym = 26     inv. 180 deg rotation - cart. axis [0,0,1]   

 cryst.   s(26) = (     0         -1          1      )
                  (    -1          0          1      )
                  (     0          0          1      )

 cart.    s(26) = (  1.0000000  0.0000000  0.0000000 )
                  (  0.0000000  1.0000000  0.0000000 )
                  (  0.0000000  0.0000000 -1.0000000 )


      isym = 27     inv. 180 deg rotation - cart. axis [0,1,0]   

 cryst.   s(27) = (     1          0          0      )
                  (     1          0         -1      )
                  (     1         -1          0      )

 cart.    s(27) = (  1.0000000  0.0000000  0.0000000 )
                  (  0.0000000 -1.0000000  0.0000000 )
                  (  0.0000000  0.0000000  1.0000000 )


      isym = 28     inv. 180 deg rotation - cart. axis [1,0,0]   

 cryst.   s(28) = (     0          1         -1      )
                  (     0          1          0      )
                  (    -1          1          0      )

 cart.    s(28) = ( -1.0000000  0.0000000  0.0000000 )
                  (  0.0000000  1.0000000  0.0000000 )
                  (  0.0000000  0.0000000  1.0000000 )


      isym = 29     inv. 180 deg rotation - cart. axis [1,1,0]   

 cryst.   s(29) = (     0          1          0      )
                  (     1          0          0      )
                  (     0          0          1      )

 cart.    s(29) = (  0.0000000 -1.0000000  0.0000000 )
                  ( -1.0000000  0.0000000  0.0000000 )
                  (  0.0000000  0.0000000  1.0000000 )


      isym = 30     inv. 180 deg rotation - cart. axis [1,-1,0]  

 cryst.   s(30) = (     1          0         -1      )
                  (     0          1         -1      )
                  (     0          0         -1      )

 cart.    s(30) = (  0.0000000  1.0000000  0.0000000 )
                  (  1.0000000  0.0000000  0.0000000 )
                  (  0.0000000  0.0000000  1.0000000 )


      isym = 31     inv.  90 deg rotation - cart. axis [0,0,-1]  

 cryst.   s(31) = (     0         -1          0      )
                  (     0         -1          1      )
                  (     1         -1          0      )

 cart.    s(31) = (  0.0000000 -1.0000000  0.0000000 )
                  (  1.0000000  0.0000000  0.0000000 )
                  (  0.0000000  0.0000000 -1.0000000 )


      isym = 32     inv.  90 deg rotation - cart. axis [0,0,1]   

 cryst.   s(32) = (    -1          0          1      )
                  (    -1          0          0      )
                  (    -1          1          0      )

 cart.    s(32) = (  0.0000000  1.0000000  0.0000000 )
                  ( -1.0000000  0.0000000  0.0000000 )
                  (  0.0000000  0.0000000 -1.0000000 )


      isym = 33     inv. 180 deg rotation - cart. axis [1,0,1]   

 cryst.   s(33) = (     1          0          0      )
                  (     0          0          1      )
                  (     0          1          0      )

 cart.    s(33) = (  0.0000000  0.0000000 -1.0000000 )
                  (  0.0000000  1.0000000  0.0000000 )
                  ( -1.0000000  0.0000000  0.0000000 )


      isym = 34     inv. 180 deg rotation - cart. axis [-1,0,1]  

 cryst.   s(34) = (    -1          0          0      )
                  (    -1          1          0      )
                  (    -1          0          1      )

 cart.    s(34) = (  0.0000000  0.0000000  1.0000000 )
                  (  0.0000000  1.0000000  0.0000000 )
                  (  1.0000000  0.0000000  0.0000000 )


      isym = 35     inv.  90 deg rotation - cart. axis [0,1,0]   

 cryst.   s(35) = (     0         -1          1      )
                  (     1         -1          0      )
                  (     0         -1          0      )

 cart.    s(35) = (  0.0000000  0.0000000 -1.0000000 )
                  (  0.0000000 -1.0000000  0.0000000 )
                  (  1.0000000  0.0000000  0.0000000 )


      isym = 36     inv.  90 deg rotation - cart. axis [0,-1,0]  

 cryst.   s(36) = (     0          1         -1      )
                  (     0          0         -1      )
                  (     1          0         -1      )

 cart.    s(36) = (  0.0000000  0.0000000  1.0000000 )
                  (  0.0000000 -1.0000000  0.0000000 )
                  ( -1.0000000  0.0000000  0.0000000 )


      isym = 37     inv. 180 deg rotation - cart. axis [0,1,1]   

 cryst.   s(37) = (     1         -1          0      )
                  (     0         -1          0      )
                  (     0         -1          1      )

 cart.    s(37) = (  1.0000000  0.0000000  0.0000000 )
                  (  0.0000000  0.0000000 -1.0000000 )
                  (  0.0000000 -1.0000000  0.0000000 )


      isym = 38     inv. 180 deg rotation - cart. axis [0,1,-1]  

 cryst.   s(38) = (     0          0          1      )
                  (     0          1          0      )
                  (     1          0          0      )

 cart.    s(38) = (  1.0000000  0.0000000  0.0000000 )
                  (  0.0000000  0.0000000  1.0000000 )
                  (  0.0000000  1.0000000  0.0000000 )


      isym = 39     inv.  90 deg rotation - cart. axis [-1,0,0]  

 cryst.   s(39) = (     0          0         -1      )
                  (     1          0         -1      )
                  (     0          1         -1      )

 cart.    s(39) = ( -1.0000000  0.0000000  0.0000000 )
                  (  0.0000000  0.0000000 -1.0000000 )
                  (  0.0000000  1.0000000  0.0000000 )


      isym = 40     inv.  90 deg rotation - cart. axis [1,0,0]   

 cryst.   s(40) = (    -1          1          0      )
                  (    -1          0          1      )
                  (    -1          0          0      )

 cart.    s(40) = ( -1.0000000  0.0000000  0.0000000 )
                  (  0.0000000  0.0000000  1.0000000 )
                  (  0.0000000 -1.0000000  0.0000000 )


      isym = 41     inv. 120 deg rotation - cart. axis [-1,-1,-1]

 cryst.   s(41) = (     1          0         -1      )
                  (     1         -1          0      )
                  (     1          0          0      )

 cart.    s(41) = (  0.0000000 -1.0000000  0.0000000 )
                  (  0.0000000  0.0000000 -1.0000000 )
                  ( -1.0000000  0.0000000  0.0000000 )


      isym = 42     inv. 120 deg rotation - cart. axis [-1,1,1]  

 cryst.   s(42) = (     0         -1          0      )
                  (     0          0         -1      )
                  (    -1          0          0      )

 cart.    s(42) = (  0.0000000  1.0000000  0.0000000 )
                  (  0.0000000  0.0000000 -1.0000000 )
                  (  1.0000000  0.0000000  0.0000000 )


      isym = 43     inv. 120 deg rotation - cart. axis [1,1,-1]  

 cryst.   s(43) = (    -1          0          1      )
                  (     0          0          1      )
                  (     0         -1          1      )

 cart.    s(43) = (  0.0000000 -1.0000000  0.0000000 )
                  (  0.0000000  0.0000000  1.0000000 )
                  (  1.0000000  0.0000000  0.0000000 )


      isym = 44     inv. 120 deg rotation - cart. axis [1,-1,1]  

 cryst.   s(44) = (     0          1          0      )
                  (    -1          1          0      )
                  (     0          1         -1      )

 cart.    s(44) = (  0.0000000  1.0000000  0.0000000 )
                  (  0.0000000  0.0000000  1.0000000 )
                  ( -1.0000000  0.0000000  0.0000000 )


      isym = 45     inv. 120 deg rotation - cart. axis [1,1,1]   

 cryst.   s(45) = (     0          0          1      )
                  (     0         -1          1      )
                  (    -1          0          1      )

 cart.    s(45) = (  0.0000000  0.0000000 -1.0000000 )
                  ( -1.0000000  0.0000000  0.0000000 )
                  (  0.0000000 -1.0000000  0.0000000 )


      isym = 46     inv. 120 deg rotation - cart. axis [-1,1,-1] 

 cryst.   s(46) = (     1         -1          0      )
                  (     1          0          0      )
                  (     1          0         -1      )

 cart.    s(46) = (  0.0000000  0.0000000 -1.0000000 )
                  (  1.0000000  0.0000000  0.0000000 )
                  (  0.0000000  1.0000000  0.0000000 )


      isym = 47     inv. 120 deg rotation - cart. axis [1,-1,-1] 

 cryst.   s(47) = (     0          0         -1      )
                  (    -1          0          0      )
                  (     0         -1          0      )

 cart.    s(47) = (  0.0000000  0.0000000  1.0000000 )
                  (  1.0000000  0.0000000  0.0000000 )
                  (  0.0000000 -1.0000000  0.0000000 )


      isym = 48     inv. 120 deg rotation - cart. axis [-1,-1,1] 

 cryst.   s(48) = (    -1          1          0      )
                  (     0          1         -1      )
                  (     0          1          0      )

 cart.    s(48) = (  0.0000000  0.0000000  1.0000000 )
                  ( -1.0000000  0.0000000  0.0000000 )
                  (  0.0000000  1.0000000  0.0000000 )


   Cartesian axes

     site n.     atom                  positions (alat units)
         1        Al     tau(   1) = (   0.0000000   0.0000000   0.0000000  )

   Crystallographic axes

     site n.     atom                  positions (cryst. coord.)
         1        Al     tau(   1) = (  0.0000000  0.0000000  0.0000000  )

     number of k points=   413  Methfessel-Paxton smearing, width (Ry)=  0.0200
                       cart. coord. in units 2pi/alat
        k(    1) = (   0.0000000   0.0000000   0.0000000), wk =   0.0001447
        k(    2) = (  -0.0294628   0.0294628  -0.0294628), wk =   0.0011574
        k(    3) = (  -0.0589256   0.0589256  -0.0589256), wk =   0.0011574
        k(    4) = (  -0.0883883   0.0883883  -0.0883883), wk =   0.0011574
        k(    5) = (  -0.1178511   0.1178511  -0.1178511), wk =   0.0011574
        k(    6) = (  -0.1473139   0.1473139  -0.1473139), wk =   0.0011574
        k(    7) = (  -0.1767767   0.1767767  -0.1767767), wk =   0.0011574
        k(    8) = (  -0.2062395   0.2062395  -0.2062395), wk =   0.0011574
        k(    9) = (  -0.2357023   0.2357023  -0.2357023), wk =   0.0011574
        k(   10) = (  -0.2651650   0.2651650  -0.2651650), wk =   0.0011574
        k(   11) = (  -0.2946278   0.2946278  -0.2946278), wk =   0.0011574
        k(   12) = (  -0.3240906   0.3240906  -0.3240906), wk =   0.0011574
        k(   13) = (   0.3535534  -0.3535534   0.3535534), wk =   0.0005787
        k(   14) = (   0.0000000   0.0589256   0.0000000), wk =   0.0008681
        k(   15) = (  -0.0294628   0.0883883  -0.0294628), wk =   0.0034722
        k(   16) = (  -0.0589256   0.1178511  -0.0589256), wk =   0.0034722
        k(   17) = (  -0.0883883   0.1473139  -0.0883883), wk =   0.0034722
        k(   18) = (  -0.1178511   0.1767767  -0.1178511), wk =   0.0034722
        k(   19) = (  -0.1473139   0.2062395  -0.1473139), wk =   0.0034722
        k(   20) = (  -0.1767767   0.2357023  -0.1767767), wk =   0.0034722
        k(   21) = (  -0.2062395   0.2651650  -0.2062395), wk =   0.0034722
        k(   22) = (  -0.2357023   0.2946278  -0.2357023), wk =   0.0034722
        k(   23) = (  -0.2651650   0.3240906  -0.2651650), wk =   0.0034722
        k(   24) = (  -0.2946278   0.3535534  -0.2946278), wk =   0.0034722
        k(   25) = (   0.3830162  -0.3240906   0.3830162), wk =   0.0034722
        k(   26) = (   0.3535534  -0.2946278   0.3535534), wk =   0.0034722
        k(   27) = (   0.3240906  -0.2651650   0.3240906), wk =   0.0034722
        k(   28) = (   0.2946278  -0.2357023   0.2946278), wk =   0.0034722
        k(   29) = (   0.2651650  -0.2062395   0.2651650), wk =   0.0034722
        k(   30) = (   0.2357023  -0.1767767   0.2357023), wk =   0.0034722
        k(   31) = (   0.2062395  -0.1473139   0.2062395), wk =   0.0034722
        k(   32) = (   0.1767767  -0.1178511   0.1767767), wk =   0.0034722
        k(   33) = (   0.1473139  -0.0883883   0.1473139), wk =   0.0034722
        k(   34) = (   0.1178511  -0.0589256   0.1178511), wk =   0.0034722
        k(   35) = (   0.0883883  -0.0294628   0.0883883), wk =   0.0034722
        k(   36) = (   0.0589256  -0.0000000   0.0589256), wk =   0.0017361
        k(   37) = (   0.0000000   0.1178511   0.0000000), wk =   0.0008681
        k(   38) = (  -0.0294628   0.1473139  -0.0294628), wk =   0.0034722
        k(   39) = (  -0.0589256   0.1767767  -0.0589256), wk =   0.0034722
        k(   40) = (  -0.0883883   0.2062395  -0.0883883), wk =   0.0034722
        k(   41) = (  -0.1178511   0.2357023  -0.1178511), wk =   0.0034722
        k(   42) = (  -0.1473139   0.2651650  -0.1473139), wk =   0.0034722
        k(   43) = (  -0.1767767   0.2946278  -0.1767767), wk =   0.0034722
        k(   44) = (  -0.2062395   0.3240906  -0.2062395), wk =   0.0034722
        k(   45) = (  -0.2357023   0.3535534  -0.2357023), wk =   0.0034722
        k(   46) = (  -0.2651650   0.3830162  -0.2651650), wk =   0.0034722
        k(   47) = (   0.4124790  -0.2946278   0.4124790), wk =   0.0034722
        k(   48) = (   0.3830162  -0.2651650   0.3830162), wk =   0.0034722
        k(   49) = (   0.3535534  -0.2357023   0.3535534), wk =   0.0034722
        k(   50) = (   0.3240906  -0.2062395   0.3240906), wk =   0.0034722
        k(   51) = (   0.2946278  -0.1767767   0.2946278), wk =   0.0034722
        k(   52) = (   0.2651650  -0.1473139   0.2651650), wk =   0.0034722
        k(   53) = (   0.2357023  -0.1178511   0.2357023), wk =   0.0034722
        k(   54) = (   0.2062395  -0.0883883   0.2062395), wk =   0.0034722
        k(   55) = (   0.1767767  -0.0589256   0.1767767), wk =   0.0034722
        k(   56) = (   0.1473139  -0.0294628   0.1473139), wk =   0.0034722
        k(   57) = (   0.1178511  -0.0000000   0.1178511), wk =   0.0017361
        k(   58) = (   0.0000000   0.1767767   0.0000000), wk =   0.0008681
        k(   59) = (  -0.0294628   0.2062395  -0.0294628), wk =   0.0034722
        k(   60) = (  -0.0589256   0.2357023  -0.0589256), wk =   0.0034722
        k(   61) = (  -0.0883883   0.2651650  -0.0883883), wk =   0.0034722
        k(   62) = (  -0.1178511   0.2946278  -0.1178511), wk =   0.0034722
        k(   63) = (  -0.1473139   0.3240906  -0.1473139), wk =   0.0034722
        k(   64) = (  -0.1767767   0.3535534  -0.1767767), wk =   0.0034722
        k(   65) = (  -0.2062395   0.3830162  -0.2062395), wk =   0.0034722
        k(   66) = (  -0.2357023   0.4124790  -0.2357023), wk =   0.0034722
        k(   67) = (   0.4419417  -0.2651650   0.4419417), wk =   0.0034722
        k(   68) = (   0.4124790  -0.2357023   0.4124790), wk =   0.0034722
        k(   69) = (   0.3830162  -0.2062395   0.3830162), wk =   0.0034722
        k(   70) = (   0.3535534  -0.1767767   0.3535534), wk =   0.0034722
        k(   71) = (   0.3240906  -0.1473139   0.3240906), wk =   0.0034722
        k(   72) = (   0.2946278  -0.1178511   0.2946278), wk =   0.0034722
        k(   73) = (   0.2651650  -0.0883883   0.2651650), wk =   0.0034722
        k(   74) = (   0.2357023  -0.0589256   0.2357023), wk =   0.0034722
        k(   75) = (   0.2062395  -0.0294628   0.2062395), wk =   0.0034722
        k(   76) = (   0.1767767   0.0000000   0.1767767), wk =   0.0017361
        k(   77) = (   0.0000000   0.2357023   0.0000000), wk =   0.0008681
        k(   78) = (  -0.0294628   0.2651650  -0.0294628), wk =   0.0034722
        k(   79) = (  -0.0589256   0.2946278  -0.0589256), wk =   0.0034722
        k(   80) = (  -0.0883883   0.3240906  -0.0883883), wk =   0.0034722
        k(   81) = (  -0.1178511   0.3535534  -0.1178511), wk =   0.0034722
        k(   82) = (  -0.1473139   0.3830162  -0.1473139), wk =   0.0034722
        k(   83) = (  -0.1767767   0.4124790  -0.1767767), wk =   0.0034722
        k(   84) = (  -0.2062395   0.4419417  -0.2062395), wk =   0.0034722
        k(   85) = (   0.4714045  -0.2357023   0.4714045), wk =   0.0034722
        k(   86) = (   0.4419417  -0.2062395   0.4419417), wk =   0.0034722
        k(   87) = (   0.4124790  -0.1767767   0.4124790), wk =   0.0034722
        k(   88) = (   0.3830162  -0.1473139   0.3830162), wk =   0.0034722
        k(   89) = (   0.3535534  -0.1178511   0.3535534), wk =   0.0034722
        k(   90) = (   0.3240906  -0.0883883   0.3240906), wk =   0.0034722
        k(   91) = (   0.2946278  -0.0589256   0.2946278), wk =   0.0034722
        k(   92) = (   0.2651650  -0.0294628   0.2651650), wk =   0.0034722
        k(   93) = (   0.2357023  -0.0000000   0.2357023), wk =   0.0017361
        k(   94) = (   0.0000000   0.2946278   0.0000000), wk =   0.0008681
        k(   95) = (  -0.0294628   0.3240906  -0.0294628), wk =   0.0034722
        k(   96) = (  -0.0589256   0.3535534  -0.0589256), wk =   0.0034722
        k(   97) = (  -0.0883883   0.3830162  -0.0883883), wk =   0.0034722
        k(   98) = (  -0.1178511   0.4124790  -0.1178511), wk =   0.0034722
        k(   99) = (  -0.1473139   0.4419417  -0.1473139), wk =   0.0034722
        k(  100) = (  -0.1767767   0.4714045  -0.1767767), wk =   0.0034722
        k(  101) = (   0.5008673  -0.2062395   0.5008673), wk =   0.0034722
        k(  102) = (   0.4714045  -0.1767767   0.4714045), wk =   0.0034722
        k(  103) = (   0.4419417  -0.1473139   0.4419417), wk =   0.0034722
        k(  104) = (   0.4124790  -0.1178511   0.4124790), wk =   0.0034722
        k(  105) = (   0.3830162  -0.0883883   0.3830162), wk =   0.0034722
        k(  106) = (   0.3535534  -0.0589256   0.3535534), wk =   0.0034722
        k(  107) = (   0.3240906  -0.0294628   0.3240906), wk =   0.0034722
        k(  108) = (   0.2946278  -0.0000000   0.2946278), wk =   0.0017361
        k(  109) = (   0.0000000   0.3535534   0.0000000), wk =   0.0008681
        k(  110) = (  -0.0294628   0.3830162  -0.0294628), wk =   0.0034722
        k(  111) = (  -0.0589256   0.4124790  -0.0589256), wk =   0.0034722
        k(  112) = (  -0.0883883   0.4419417  -0.0883883), wk =   0.0034722
        k(  113) = (  -0.1178511   0.4714045  -0.1178511), wk =   0.0034722
        k(  114) = (  -0.1473139   0.5008673  -0.1473139), wk =   0.0034722
        k(  115) = (   0.5303301  -0.1767767   0.5303301), wk =   0.0034722
        k(  116) = (   0.5008673  -0.1473139   0.5008673), wk =   0.0034722
        k(  117) = (   0.4714045  -0.1178511   0.4714045), wk =   0.0034722
        k(  118) = (   0.4419417  -0.0883883   0.4419417), wk =   0.0034722
        k(  119) = (   0.4124790  -0.0589256   0.4124790), wk =   0.0034722
        k(  120) = (   0.3830162  -0.0294628   0.3830162), wk =   0.0034722
        k(  121) = (   0.3535534   0.0000000   0.3535534), wk =   0.0017361
        k(  122) = (   0.0000000   0.4124790   0.0000000), wk =   0.0008681
        k(  123) = (  -0.0294628   0.4419417  -0.0294628), wk =   0.0034722
        k(  124) = (  -0.0589256   0.4714045  -0.0589256), wk =   0.0034722
        k(  125) = (  -0.0883883   0.5008673  -0.0883883), wk =   0.0034722
        k(  126) = (  -0.1178511   0.5303301  -0.1178511), wk =   0.0034722
        k(  127) = (   0.5597929  -0.1473139   0.5597929), wk =   0.0034722
        k(  128) = (   0.5303301  -0.1178511   0.5303301), wk =   0.0034722
        k(  129) = (   0.5008673  -0.0883883   0.5008673), wk =   0.0034722
        k(  130) = (   0.4714045  -0.0589256   0.4714045), wk =   0.0034722
        k(  131) = (   0.4419417  -0.0294628   0.4419417), wk =   0.0034722
        k(  132) = (   0.4124790  -0.0000000   0.4124790), wk =   0.0017361
        k(  133) = (   0.0000000   0.4714045   0.0000000), wk =   0.0008681
        k(  134) = (  -0.0294628   0.5008673  -0.0294628), wk =   0.0034722
        k(  135) = (  -0.0589256   0.5303301  -0.0589256), wk =   0.0034722
        k(  136) = (  -0.0883883   0.5597929  -0.0883883), wk =   0.0034722
        k(  137) = (   0.5892557  -0.1178511   0.5892557), wk =   0.0034722
        k(  138) = (   0.5597929  -0.0883883   0.5597929), wk =   0.0034722
        k(  139) = (   0.5303301  -0.0589256   0.5303301), wk =   0.0034722
        k(  140) = (   0.5008673  -0.0294628   0.5008673), wk =   0.0034722
        k(  141) = (   0.4714045  -0.0000000   0.4714045), wk =   0.0017361
        k(  142) = (   0.0000000   0.5303301   0.0000000), wk =   0.0008681
        k(  143) = (  -0.0294628   0.5597929  -0.0294628), wk =   0.0034722
        k(  144) = (  -0.0589256   0.5892557  -0.0589256), wk =   0.0034722
        k(  145) = (   0.6187184  -0.0883883   0.6187184), wk =   0.0034722
        k(  146) = (   0.5892557  -0.0589256   0.5892557), wk =   0.0034722
        k(  147) = (   0.5597929  -0.0294628   0.5597929), wk =   0.0034722
        k(  148) = (   0.5303301   0.0000000   0.5303301), wk =   0.0017361
        k(  149) = (   0.0000000   0.5892557   0.0000000), wk =   0.0008681
        k(  150) = (  -0.0294628   0.6187184  -0.0294628), wk =   0.0034722
        k(  151) = (   0.6481812  -0.0589256   0.6481812), wk =   0.0034722
        k(  152) = (   0.6187184  -0.0294628   0.6187184), wk =   0.0034722
        k(  153) = (   0.5892557  -0.0000000   0.5892557), wk =   0.0017361
        k(  154) = (   0.0000000   0.6481812   0.0000000), wk =   0.0008681
        k(  155) = (   0.6776440  -0.0294628   0.6776440), wk =   0.0034722
        k(  156) = (   0.6481812  -0.0000000   0.6481812), wk =   0.0017361
        k(  157) = (   0.0000000  -0.7071068   0.0000000), wk =   0.0004340
        k(  158) = (  -0.0589256   0.1178511   0.0000000), wk =   0.0034722
        k(  159) = (  -0.0883883   0.1473139  -0.0294628), wk =   0.0069444
        k(  160) = (  -0.1178511   0.1767767  -0.0589256), wk =   0.0069444
        k(  161) = (  -0.1473139   0.2062395  -0.0883883), wk =   0.0069444
        k(  162) = (  -0.1767767   0.2357023  -0.1178511), wk =   0.0069444
        k(  163) = (  -0.2062395   0.2651650  -0.1473139), wk =   0.0069444
        k(  164) = (  -0.2357023   0.2946278  -0.1767767), wk =   0.0069444
        k(  165) = (  -0.2651650   0.3240906  -0.2062395), wk =   0.0069444
        k(  166) = (  -0.2946278   0.3535534  -0.2357023), wk =   0.0069444
        k(  167) = (   0.3830162  -0.3240906   0.4419417), wk =   0.0069444
        k(  168) = (   0.3535534  -0.2946278   0.4124790), wk =   0.0034722
        k(  169) = (  -0.0589256   0.1767767   0.0000000), wk =   0.0034722
        k(  170) = (  -0.0883883   0.2062395  -0.0294628), wk =   0.0069444
        k(  171) = (  -0.1178511   0.2357023  -0.0589256), wk =   0.0069444
        k(  172) = (  -0.1473139   0.2651650  -0.0883883), wk =   0.0069444
        k(  173) = (  -0.1767767   0.2946278  -0.1178511), wk =   0.0069444
        k(  174) = (  -0.2062395   0.3240906  -0.1473139), wk =   0.0069444
        k(  175) = (  -0.2357023   0.3535534  -0.1767767), wk =   0.0069444
        k(  176) = (  -0.2651650   0.3830162  -0.2062395), wk =   0.0069444
        k(  177) = (   0.4124790  -0.2946278   0.4714045), wk =   0.0069444
        k(  178) = (   0.3830162  -0.2651650   0.4419417), wk =   0.0069444
        k(  179) = (   0.3535534  -0.2357023   0.4124790), wk =   0.0069444
        k(  180) = (   0.3240906  -0.2062395   0.3830162), wk =   0.0069444
        k(  181) = (   0.2946278  -0.1767767   0.3535534), wk =   0.0069444
        k(  182) = (   0.2651650  -0.1473139   0.3240906), wk =   0.0069444
        k(  183) = (   0.2357023  -0.1178511   0.2946278), wk =   0.0069444
        k(  184) = (   0.2062395  -0.0883883   0.2651650), wk =   0.0069444
        k(  185) = (   0.1767767  -0.0589256   0.2357023), wk =   0.0069444
        k(  186) = (   0.1473139  -0.0294628   0.2062395), wk =   0.0069444
        k(  187) = (   0.1178511  -0.0000000   0.1767767), wk =   0.0034722
        k(  188) = (  -0.0589256   0.2357023   0.0000000), wk =   0.0034722
        k(  189) = (  -0.0883883   0.2651650  -0.0294628), wk =   0.0069444
        k(  190) = (  -0.1178511   0.2946278  -0.0589256), wk =   0.0069444
        k(  191) = (  -0.1473139   0.3240906  -0.0883883), wk =   0.0069444
        k(  192) = (  -0.1767767   0.3535534  -0.1178511), wk =   0.0069444
        k(  193) = (  -0.2062395   0.3830162  -0.1473139), wk =   0.0069444
        k(  194) = (  -0.2357023   0.4124790  -0.1767767), wk =   0.0069444
        k(  195) = (   0.4419417  -0.2651650   0.5008673), wk =   0.0069444
        k(  196) = (   0.4124790  -0.2357023   0.4714045), wk =   0.0069444
        k(  197) = (   0.3830162  -0.2062395   0.4419417), wk =   0.0069444
        k(  198) = (   0.3535534  -0.1767767   0.4124790), wk =   0.0069444
        k(  199) = (   0.3240906  -0.1473139   0.3830162), wk =   0.0069444
        k(  200) = (   0.2946278  -0.1178511   0.3535534), wk =   0.0069444
        k(  201) = (   0.2651650  -0.0883883   0.3240906), wk =   0.0069444
        k(  202) = (   0.2357023  -0.0589256   0.2946278), wk =   0.0069444
        k(  203) = (   0.2062395  -0.0294628   0.2651650), wk =   0.0069444
        k(  204) = (   0.1767767   0.0000000   0.2357023), wk =   0.0034722
        k(  205) = (  -0.0589256   0.2946278   0.0000000), wk =   0.0034722
        k(  206) = (  -0.0883883   0.3240906  -0.0294628), wk =   0.0069444
        k(  207) = (  -0.1178511   0.3535534  -0.0589256), wk =   0.0069444
        k(  208) = (  -0.1473139   0.3830162  -0.0883883), wk =   0.0069444
        k(  209) = (  -0.1767767   0.4124790  -0.1178511), wk =   0.0069444
        k(  210) = (  -0.2062395   0.4419417  -0.1473139), wk =   0.0069444
        k(  211) = (   0.4714045  -0.2357023   0.5303301), wk =   0.0069444
        k(  212) = (   0.4419417  -0.2062395   0.5008673), wk =   0.0069444
        k(  213) = (   0.4124790  -0.1767767   0.4714045), wk =   0.0069444
        k(  214) = (   0.3830162  -0.1473139   0.4419417), wk =   0.0069444
        k(  215) = (   0.3535534  -0.1178511   0.4124790), wk =   0.0069444
        k(  216) = (   0.3240906  -0.0883883   0.3830162), wk =   0.0069444
        k(  217) = (   0.2946278  -0.0589256   0.3535534), wk =   0.0069444
        k(  218) = (   0.2651650  -0.0294628   0.3240906), wk =   0.0069444
        k(  219) = (   0.2357023  -0.0000000   0.2946278), wk =   0.0034722
        k(  220) = (  -0.0589256   0.3535534   0.0000000), wk =   0.0034722
        k(  221) = (  -0.0883883   0.3830162  -0.0294628), wk =   0.0069444
        k(  222) = (  -0.1178511   0.4124790  -0.0589256), wk =   0.0069444
        k(  223) = (  -0.1473139   0.4419417  -0.0883883), wk =   0.0069444
        k(  224) = (  -0.1767767   0.4714045  -0.1178511), wk =   0.0069444
        k(  225) = (   0.5008673  -0.2062395   0.5597929), wk =   0.0069444
        k(  226) = (   0.4714045  -0.1767767   0.5303301), wk =   0.0069444
        k(  227) = (   0.4419417  -0.1473139   0.5008673), wk =   0.0069444
        k(  228) = (   0.4124790  -0.1178511   0.4714045), wk =   0.0069444
        k(  229) = (   0.3830162  -0.0883883   0.4419417), wk =   0.0069444
        k(  230) = (   0.3535534  -0.0589256   0.4124790), wk =   0.0069444
        k(  231) = (   0.3240906  -0.0294628   0.3830162), wk =   0.0069444
        k(  232) = (   0.2946278  -0.0000000   0.3535534), wk =   0.0034722
        k(  233) = (  -0.0589256   0.4124790   0.0000000), wk =   0.0034722
        k(  234) = (  -0.0883883   0.4419417  -0.0294628), wk =   0.0069444
        k(  235) = (  -0.1178511   0.4714045  -0.0589256), wk =   0.0069444
        k(  236) = (  -0.1473139   0.5008673  -0.0883883), wk =   0.0069444
        k(  237) = (   0.5303301  -0.1767767   0.5892557), wk =   0.0069444
        k(  238) = (   0.5008673  -0.1473139   0.5597929), wk =   0.0069444
        k(  239) = (   0.4714045  -0.1178511   0.5303301), wk =   0.0069444
        k(  240) = (   0.4419417  -0.0883883   0.5008673), wk =   0.0069444
        k(  241) = (   0.4124790  -0.0589256   0.4714045), wk =   0.0069444
        k(  242) = (   0.3830162  -0.0294628   0.4419417), wk =   0.0069444
        k(  243) = (   0.3535534  -0.0000000   0.4124790), wk =   0.0034722
        k(  244) = (  -0.0589256   0.4714045   0.0000000), wk =   0.0034722
        k(  245) = (  -0.0883883   0.5008673  -0.0294628), wk =   0.0069444
        k(  246) = (  -0.1178511   0.5303301  -0.0589256), wk =   0.0069444
        k(  247) = (   0.5597929  -0.1473139   0.6187184), wk =   0.0069444
        k(  248) = (   0.5303301  -0.1178511   0.5892557), wk =   0.0069444
        k(  249) = (   0.5008673  -0.0883883   0.5597929), wk =   0.0069444
        k(  250) = (   0.4714045  -0.0589256   0.5303301), wk =   0.0069444
        k(  251) = (   0.4419417  -0.0294628   0.5008673), wk =   0.0069444
        k(  252) = (   0.4124790  -0.0000000   0.4714045), wk =   0.0034722
        k(  253) = (  -0.0589256   0.5303301   0.0000000), wk =   0.0034722
        k(  254) = (  -0.0883883   0.5597929  -0.0294628), wk =   0.0069444
        k(  255) = (   0.5892557  -0.1178511   0.6481812), wk =   0.0069444
        k(  256) = (   0.5597929  -0.0883883   0.6187184), wk =   0.0069444
        k(  257) = (   0.5303301  -0.0589256   0.5892557), wk =   0.0069444
        k(  258) = (   0.5008673  -0.0294628   0.5597929), wk =   0.0069444
        k(  259) = (   0.4714045  -0.0000000   0.5303301), wk =   0.0034722
        k(  260) = (  -0.0589256   0.5892557   0.0000000), wk =   0.0034722
        k(  261) = (   0.6187184  -0.0883883   0.6776440), wk =   0.0069444
        k(  262) = (   0.5892557  -0.0589256   0.6481812), wk =   0.0069444
        k(  263) = (   0.5597929  -0.0294628   0.6187184), wk =   0.0069444
        k(  264) = (   0.5303301   0.0000000   0.5892557), wk =   0.0034722
        k(  265) = (   0.6481812  -0.0589256   0.7071068), wk =   0.0034722
        k(  266) = (   0.6187184  -0.0294628   0.6776440), wk =   0.0069444
        k(  267) = (   0.5892557  -0.0000000   0.6481812), wk =   0.0034722
        k(  268) = (  -0.0589256  -0.7071068   0.0000000), wk =   0.0017361
        k(  269) = (  -0.1178511   0.2357023   0.0000000), wk =   0.0034722
        k(  270) = (  -0.1473139   0.2651650  -0.0294628), wk =   0.0069444
        k(  271) = (  -0.1767767   0.2946278  -0.0589256), wk =   0.0069444
        k(  272) = (  -0.2062395   0.3240906  -0.0883883), wk =   0.0069444
        k(  273) = (  -0.2357023   0.3535534  -0.1178511), wk =   0.0069444
        k(  274) = (  -0.2651650   0.3830162  -0.1473139), wk =   0.0069444
        k(  275) = (   0.4124790  -0.2946278   0.5303301), wk =   0.0069444
        k(  276) = (   0.3830162  -0.2651650   0.5008673), wk =   0.0069444
        k(  277) = (   0.3535534  -0.2357023   0.4714045), wk =   0.0034722
        k(  278) = (  -0.1178511   0.2946278   0.0000000), wk =   0.0034722
        k(  279) = (  -0.1473139   0.3240906  -0.0294628), wk =   0.0069444
        k(  280) = (  -0.1767767   0.3535534  -0.0589256), wk =   0.0069444
        k(  281) = (  -0.2062395   0.3830162  -0.0883883), wk =   0.0069444
        k(  282) = (  -0.2357023   0.4124790  -0.1178511), wk =   0.0069444
        k(  283) = (   0.4419417  -0.2651650   0.5597929), wk =   0.0069444
        k(  284) = (   0.4124790  -0.2357023   0.5303301), wk =   0.0069444
        k(  285) = (   0.3830162  -0.2062395   0.5008673), wk =   0.0069444
        k(  286) = (   0.3535534  -0.1767767   0.4714045), wk =   0.0069444
        k(  287) = (   0.3240906  -0.1473139   0.4419417), wk =   0.0069444
        k(  288) = (   0.2946278  -0.1178511   0.4124790), wk =   0.0069444
        k(  289) = (   0.2651650  -0.0883883   0.3830162), wk =   0.0069444
        k(  290) = (   0.2357023  -0.0589256   0.3535534), wk =   0.0069444
        k(  291) = (   0.2062395  -0.0294628   0.3240906), wk =   0.0069444
        k(  292) = (   0.1767767   0.0000000   0.2946278), wk =   0.0034722
        k(  293) = (  -0.1178511   0.3535534   0.0000000), wk =   0.0034722
        k(  294) = (  -0.1473139   0.3830162  -0.0294628), wk =   0.0069444
        k(  295) = (  -0.1767767   0.4124790  -0.0589256), wk =   0.0069444
        k(  296) = (  -0.2062395   0.4419417  -0.0883883), wk =   0.0069444
        k(  297) = (   0.4714045  -0.2357023   0.5892557), wk =   0.0069444
        k(  298) = (   0.4419417  -0.2062395   0.5597929), wk =   0.0069444
        k(  299) = (   0.4124790  -0.1767767   0.5303301), wk =   0.0069444
        k(  300) = (   0.3830162  -0.1473139   0.5008673), wk =   0.0069444
        k(  301) = (   0.3535534  -0.1178511   0.4714045), wk =   0.0069444
        k(  302) = (   0.3240906  -0.0883883   0.4419417), wk =   0.0069444
        k(  303) = (   0.2946278  -0.0589256   0.4124790), wk =   0.0069444
        k(  304) = (   0.2651650  -0.0294628   0.3830162), wk =   0.0069444
        k(  305) = (   0.2357023  -0.0000000   0.3535534), wk =   0.0034722
        k(  306) = (  -0.1178511   0.4124790   0.0000000), wk =   0.0034722
        k(  307) = (  -0.1473139   0.4419417  -0.0294628), wk =   0.0069444
        k(  308) = (  -0.1767767   0.4714045  -0.0589256), wk =   0.0069444
        k(  309) = (   0.5008673  -0.2062395   0.6187184), wk =   0.0069444
        k(  310) = (   0.4714045  -0.1767767   0.5892557), wk =   0.0069444
        k(  311) = (   0.4419417  -0.1473139   0.5597929), wk =   0.0069444
        k(  312) = (   0.4124790  -0.1178511   0.5303301), wk =   0.0069444
        k(  313) = (   0.3830162  -0.0883883   0.5008673), wk =   0.0069444
        k(  314) = (   0.3535534  -0.0589256   0.4714045), wk =   0.0069444
        k(  315) = (   0.3240906  -0.0294628   0.4419417), wk =   0.0069444
        k(  316) = (   0.2946278  -0.0000000   0.4124790), wk =   0.0034722
        k(  317) = (  -0.1178511   0.4714045   0.0000000), wk =   0.0034722
        k(  318) = (  -0.1473139   0.5008673  -0.0294628), wk =   0.0069444
        k(  319) = (   0.5303301  -0.1767767   0.6481812), wk =   0.0069444
        k(  320) = (   0.5008673  -0.1473139   0.6187184), wk =   0.0069444
        k(  321) = (   0.4714045  -0.1178511   0.5892557), wk =   0.0069444
        k(  322) = (   0.4419417  -0.0883883   0.5597929), wk =   0.0069444
        k(  323) = (   0.4124790  -0.0589256   0.5303301), wk =   0.0069444
        k(  324) = (   0.3830162  -0.0294628   0.5008673), wk =   0.0069444
        k(  325) = (   0.3535534   0.0000000   0.4714045), wk =   0.0034722
        k(  326) = (  -0.1178511   0.5303301   0.0000000), wk =   0.0034722
        k(  327) = (   0.5597929  -0.1473139   0.6776440), wk =   0.0069444
        k(  328) = (   0.5303301  -0.1178511   0.6481812), wk =   0.0069444
        k(  329) = (   0.5008673  -0.0883883   0.6187184), wk =   0.0069444
        k(  330) = (   0.4714045  -0.0589256   0.5892557), wk =   0.0069444
        k(  331) = (   0.4419417  -0.0294628   0.5597929), wk =   0.0069444
        k(  332) = (   0.4124790  -0.0000000   0.5303301), wk =   0.0034722
        k(  333) = (   0.5892557  -0.1178511   0.7071068), wk =   0.0034722
        k(  334) = (   0.5597929  -0.0883883   0.6776440), wk =   0.0069444
        k(  335) = (   0.5303301  -0.0589256   0.6481812), wk =   0.0069444
        k(  336) = (   0.5008673  -0.0294628   0.6187184), wk =   0.0069444
        k(  337) = (   0.4714045  -0.0000000   0.5892557), wk =   0.0034722
        k(  338) = (   0.5892557  -0.0589256   0.7071068), wk =   0.0034722
        k(  339) = (   0.5597929  -0.0294628   0.6776440), wk =   0.0069444
        k(  340) = (   0.5303301  -0.0000000   0.6481812), wk =   0.0034722
        k(  341) = (  -0.1178511  -0.7071068   0.0000000), wk =   0.0017361
        k(  342) = (  -0.1767767   0.3535534   0.0000000), wk =   0.0034722
        k(  343) = (  -0.2062395   0.3830162  -0.0294628), wk =   0.0069444
        k(  344) = (  -0.2357023   0.4124790  -0.0589256), wk =   0.0069444
        k(  345) = (   0.4419417  -0.2651650   0.6187184), wk =   0.0069444
        k(  346) = (   0.4124790  -0.2357023   0.5892557), wk =   0.0069444
        k(  347) = (   0.3830162  -0.2062395   0.5597929), wk =   0.0069444
        k(  348) = (   0.3535534  -0.1767767   0.5303301), wk =   0.0034722
        k(  349) = (  -0.1767767   0.4124790   0.0000000), wk =   0.0034722
        k(  350) = (  -0.2062395   0.4419417  -0.0294628), wk =   0.0069444
        k(  351) = (   0.4714045  -0.2357023   0.6481812), wk =   0.0069444
        k(  352) = (   0.4419417  -0.2062395   0.6187184), wk =   0.0069444
        k(  353) = (   0.4124790  -0.1767767   0.5892557), wk =   0.0069444
        k(  354) = (   0.3830162  -0.1473139   0.5597929), wk =   0.0069444
        k(  355) = (   0.3535534  -0.1178511   0.5303301), wk =   0.0069444
        k(  356) = (   0.3240906  -0.0883883   0.5008673), wk =   0.0069444
        k(  357) = (   0.2946278  -0.0589256   0.4714045), wk =   0.0069444
        k(  358) = (   0.2651650  -0.0294628   0.4419417), wk =   0.0069444
        k(  359) = (   0.2357023  -0.0000000   0.4124790), wk =   0.0034722
        k(  360) = (  -0.1767767   0.4714045   0.0000000), wk =   0.0034722
        k(  361) = (   0.5008673  -0.2062395   0.6776440), wk =   0.0069444
        k(  362) = (   0.4714045  -0.1767767   0.6481812), wk =   0.0069444
        k(  363) = (   0.4419417  -0.1473139   0.6187184), wk =   0.0069444
        k(  364) = (   0.4124790  -0.1178511   0.5892557), wk =   0.0069444
        k(  365) = (   0.3830162  -0.0883883   0.5597929), wk =   0.0069444
        k(  366) = (   0.3535534  -0.0589256   0.5303301), wk =   0.0069444
        k(  367) = (   0.3240906  -0.0294628   0.5008673), wk =   0.0069444
        k(  368) = (   0.2946278  -0.0000000   0.4714045), wk =   0.0034722
        k(  369) = (   0.5303301  -0.1767767   0.7071068), wk =   0.0034722
        k(  370) = (   0.5008673  -0.1473139   0.6776440), wk =   0.0069444
        k(  371) = (   0.4714045  -0.1178511   0.6481812), wk =   0.0069444
        k(  372) = (   0.4419417  -0.0883883   0.6187184), wk =   0.0069444
        k(  373) = (   0.4124790  -0.0589256   0.5892557), wk =   0.0069444
        k(  374) = (   0.3830162  -0.0294628   0.5597929), wk =   0.0069444
        k(  375) = (   0.3535534   0.0000000   0.5303301), wk =   0.0034722
        k(  376) = (   0.5303301  -0.1178511   0.7071068), wk =   0.0034722
        k(  377) = (   0.5008673  -0.0883883   0.6776440), wk =   0.0069444
        k(  378) = (   0.4714045  -0.0589256   0.6481812), wk =   0.0069444
        k(  379) = (   0.4419417  -0.0294628   0.6187184), wk =   0.0069444
        k(  380) = (   0.4124790  -0.0000000   0.5892557), wk =   0.0034722
        k(  381) = (   0.5303301  -0.0589256   0.7071068), wk =   0.0034722
        k(  382) = (   0.5008673  -0.0294628   0.6776440), wk =   0.0069444
        k(  383) = (   0.4714045  -0.0000000   0.6481812), wk =   0.0034722
        k(  384) = (  -0.1767767  -0.7071068   0.0000000), wk =   0.0017361
        k(  385) = (   0.4714045  -0.2357023   0.7071068), wk =   0.0034722
        k(  386) = (   0.4419417  -0.2062395   0.6776440), wk =   0.0069444
        k(  387) = (   0.4124790  -0.1767767   0.6481812), wk =   0.0069444
        k(  388) = (   0.3830162  -0.1473139   0.6187184), wk =   0.0069444
        k(  389) = (   0.3535534  -0.1178511   0.5892557), wk =   0.0034722
        k(  390) = (   0.4714045  -0.1767767   0.7071068), wk =   0.0034722
        k(  391) = (   0.4419417  -0.1473139   0.6776440), wk =   0.0069444
        k(  392) = (   0.4124790  -0.1178511   0.6481812), wk =   0.0069444
        k(  393) = (   0.3830162  -0.0883883   0.6187184), wk =   0.0069444
        k(  394) = (   0.3535534  -0.0589256   0.5892557), wk =   0.0069444
        k(  395) = (   0.3240906  -0.0294628   0.5597929), wk =   0.0069444
        k(  396) = (   0.2946278   0.0000000   0.5303301), wk =   0.0034722
        k(  397) = (   0.4714045  -0.1178511   0.7071068), wk =   0.0034722
        k(  398) = (   0.4419417  -0.0883883   0.6776440), wk =   0.0069444
        k(  399) = (   0.4124790  -0.0589256   0.6481812), wk =   0.0069444
        k(  400) = (   0.3830162  -0.0294628   0.6187184), wk =   0.0069444
        k(  401) = (   0.3535534   0.0000000   0.5892557), wk =   0.0034722
        k(  402) = (   0.4714045  -0.0589256   0.7071068), wk =   0.0034722
        k(  403) = (   0.4419417  -0.0294628   0.6776440), wk =   0.0069444
        k(  404) = (   0.4124790  -0.0000000   0.6481812), wk =   0.0034722
        k(  405) = (  -0.2357023  -0.7071068   0.0000000), wk =   0.0017361
        k(  406) = (   0.4124790  -0.1178511   0.7071068), wk =   0.0034722
        k(  407) = (   0.3830162  -0.0883883   0.6776440), wk =   0.0069444
        k(  408) = (   0.3535534  -0.0589256   0.6481812), wk =   0.0034722
        k(  409) = (   0.4124790  -0.0589256   0.7071068), wk =   0.0034722
        k(  410) = (   0.3830162  -0.0294628   0.6776440), wk =   0.0069444
        k(  411) = (   0.3535534  -0.0000000   0.6481812), wk =   0.0034722
        k(  412) = (  -0.2946278  -0.7071068   0.0000000), wk =   0.0017361
        k(  413) = (  -0.3535534  -0.7071068   0.0000000), wk =   0.0008681

                       cryst. coord.
        k(    1) = (   0.0000000   0.0000000   0.0000000), wk =   0.0001447
        k(    2) = (   0.0000000   0.0000000   0.0416667), wk =   0.0011574
        k(    3) = (   0.0000000   0.0000000   0.0833333), wk =   0.0011574
        k(    4) = (   0.0000000   0.0000000   0.1250000), wk =   0.0011574
        k(    5) = (   0.0000000   0.0000000   0.1666667), wk =   0.0011574
        k(    6) = (   0.0000000   0.0000000   0.2083333), wk =   0.0011574
        k(    7) = (   0.0000000   0.0000000   0.2500000), wk =   0.0011574
        k(    8) = (   0.0000000   0.0000000   0.2916667), wk =   0.0011574
        k(    9) = (   0.0000000   0.0000000   0.3333333), wk =   0.0011574
        k(   10) = (   0.0000000   0.0000000   0.3750000), wk =   0.0011574
        k(   11) = (   0.0000000   0.0000000   0.4166667), wk =   0.0011574
        k(   12) = (   0.0000000   0.0000000   0.4583333), wk =   0.0011574
        k(   13) = (   0.0000000   0.0000000  -0.5000000), wk =   0.0005787
        k(   14) = (   0.0000000   0.0416667   0.0416667), wk =   0.0008681
        k(   15) = (   0.0000000   0.0416667   0.0833333), wk =   0.0034722
        k(   16) = (   0.0000000   0.0416667   0.1250000), wk =   0.0034722
        k(   17) = (   0.0000000   0.0416667   0.1666667), wk =   0.0034722
        k(   18) = (   0.0000000   0.0416667   0.2083333), wk =   0.0034722
        k(   19) = (   0.0000000   0.0416667   0.2500000), wk =   0.0034722
        k(   20) = (   0.0000000   0.0416667   0.2916667), wk =   0.0034722
        k(   21) = (   0.0000000   0.0416667   0.3333333), wk =   0.0034722
        k(   22) = (   0.0000000   0.0416667   0.3750000), wk =   0.0034722
        k(   23) = (   0.0000000   0.0416667   0.4166667), wk =   0.0034722
        k(   24) = (   0.0000000   0.0416667   0.4583333), wk =   0.0034722
        k(   25) = (   0.0000000   0.0416667  -0.5000000), wk =   0.0034722
        k(   26) = (   0.0000000   0.0416667  -0.4583333), wk =   0.0034722
        k(   27) = (   0.0000000   0.0416667  -0.4166667), wk =   0.0034722
        k(   28) = (   0.0000000   0.0416667  -0.3750000), wk =   0.0034722
        k(   29) = (   0.0000000   0.0416667  -0.3333333), wk =   0.0034722
        k(   30) = (   0.0000000   0.0416667  -0.2916667), wk =   0.0034722
        k(   31) = (   0.0000000   0.0416667  -0.2500000), wk =   0.0034722
        k(   32) = (   0.0000000   0.0416667  -0.2083333), wk =   0.0034722
        k(   33) = (   0.0000000   0.0416667  -0.1666667), wk =   0.0034722
        k(   34) = (   0.0000000   0.0416667  -0.1250000), wk =   0.0034722
        k(   35) = (   0.0000000   0.0416667  -0.0833333), wk =   0.0034722
        k(   36) = (   0.0000000   0.0416667  -0.0416667), wk =   0.0017361
        k(   37) = (   0.0000000   0.0833333   0.0833333), wk =   0.0008681
        k(   38) = (   0.0000000   0.0833333   0.1250000), wk =   0.0034722
        k(   39) = (   0.0000000   0.0833333   0.1666667), wk =   0.0034722
        k(   40) = (   0.0000000   0.0833333   0.2083333), wk =   0.0034722
        k(   41) = (   0.0000000   0.0833333   0.2500000), wk =   0.0034722
        k(   42) = (   0.0000000   0.0833333   0.2916667), wk =   0.0034722
        k(   43) = (   0.0000000   0.0833333   0.3333333), wk =   0.0034722
        k(   44) = (   0.0000000   0.0833333   0.3750000), wk =   0.0034722
        k(   45) = (   0.0000000   0.0833333   0.4166667), wk =   0.0034722
        k(   46) = (   0.0000000   0.0833333   0.4583333), wk =   0.0034722
        k(   47) = (   0.0000000   0.0833333  -0.5000000), wk =   0.0034722
        k(   48) = (   0.0000000   0.0833333  -0.4583333), wk =   0.0034722
        k(   49) = (   0.0000000   0.0833333  -0.4166667), wk =   0.0034722
        k(   50) = (   0.0000000   0.0833333  -0.3750000), wk =   0.0034722
        k(   51) = (   0.0000000   0.0833333  -0.3333333), wk =   0.0034722
        k(   52) = (   0.0000000   0.0833333  -0.2916667), wk =   0.0034722
        k(   53) = (   0.0000000   0.0833333  -0.2500000), wk =   0.0034722
        k(   54) = (   0.0000000   0.0833333  -0.2083333), wk =   0.0034722
        k(   55) = (   0.0000000   0.0833333  -0.1666667), wk =   0.0034722
        k(   56) = (   0.0000000   0.0833333  -0.1250000), wk =   0.0034722
        k(   57) = (   0.0000000   0.0833333  -0.0833333), wk =   0.0017361
        k(   58) = (   0.0000000   0.1250000   0.1250000), wk =   0.0008681
        k(   59) = (   0.0000000   0.1250000   0.1666667), wk =   0.0034722
        k(   60) = (   0.0000000   0.1250000   0.2083333), wk =   0.0034722
        k(   61) = (   0.0000000   0.1250000   0.2500000), wk =   0.0034722
        k(   62) = (   0.0000000   0.1250000   0.2916667), wk =   0.0034722
        k(   63) = (   0.0000000   0.1250000   0.3333333), wk =   0.0034722
        k(   64) = (   0.0000000   0.1250000   0.3750000), wk =   0.0034722
        k(   65) = (   0.0000000   0.1250000   0.4166667), wk =   0.0034722
        k(   66) = (   0.0000000   0.1250000   0.4583333), wk =   0.0034722
        k(   67) = (   0.0000000   0.1250000  -0.5000000), wk =   0.0034722
        k(   68) = (   0.0000000   0.1250000  -0.4583333), wk =   0.0034722
        k(   69) = (   0.0000000   0.1250000  -0.4166667), wk =   0.0034722
        k(   70) = (   0.0000000   0.1250000  -0.3750000), wk =   0.0034722
        k(   71) = (   0.0000000   0.1250000  -0.3333333), wk =   0.0034722
        k(   72) = (   0.0000000   0.1250000  -0.2916667), wk =   0.0034722
        k(   73) = (   0.0000000   0.1250000  -0.2500000), wk =   0.0034722
        k(   74) = (   0.0000000   0.1250000  -0.2083333), wk =   0.0034722
        k(   75) = (   0.0000000   0.1250000  -0.1666667), wk =   0.0034722
        k(   76) = (   0.0000000   0.1250000  -0.1250000), wk =   0.0017361
        k(   77) = (   0.0000000   0.1666667   0.1666667), wk =   0.0008681
        k(   78) = (   0.0000000   0.1666667   0.2083333), wk =   0.0034722
        k(   79) = (   0.0000000   0.1666667   0.2500000), wk =   0.0034722
        k(   80) = (   0.0000000   0.1666667   0.2916667), wk =   0.0034722
        k(   81) = (   0.0000000   0.1666667   0.3333333), wk =   0.0034722
        k(   82) = (   0.0000000   0.1666667   0.3750000), wk =   0.0034722
        k(   83) = (   0.0000000   0.1666667   0.4166667), wk =   0.0034722
        k(   84) = (   0.0000000   0.1666667   0.4583333), wk =   0.0034722
        k(   85) = (   0.0000000   0.1666667  -0.5000000), wk =   0.0034722
        k(   86) = (   0.0000000   0.1666667  -0.4583333), wk =   0.0034722
        k(   87) = (   0.0000000   0.1666667  -0.4166667), wk =   0.0034722
        k(   88) = (   0.0000000   0.1666667  -0.3750000), wk =   0.0034722
        k(   89) = (   0.0000000   0.1666667  -0.3333333), wk =   0.0034722
        k(   90) = (   0.0000000   0.1666667  -0.2916667), wk =   0.0034722
        k(   91) = (   0.0000000   0.1666667  -0.2500000), wk =   0.0034722
        k(   92) = (   0.0000000   0.1666667  -0.2083333), wk =   0.0034722
        k(   93) = (   0.0000000   0.1666667  -0.1666667), wk =   0.0017361
        k(   94) = (   0.0000000   0.2083333   0.2083333), wk =   0.0008681
        k(   95) = (   0.0000000   0.2083333   0.2500000), wk =   0.0034722
        k(   96) = (   0.0000000   0.2083333   0.2916667), wk =   0.0034722
        k(   97) = (   0.0000000   0.2083333   0.3333333), wk =   0.0034722
        k(   98) = (   0.0000000   0.2083333   0.3750000), wk =   0.0034722
        k(   99) = (   0.0000000   0.2083333   0.4166667), wk =   0.0034722
        k(  100) = (   0.0000000   0.2083333   0.4583333), wk =   0.0034722
        k(  101) = (   0.0000000   0.2083333  -0.5000000), wk =   0.0034722
        k(  102) = (   0.0000000   0.2083333  -0.4583333), wk =   0.0034722
        k(  103) = (   0.0000000   0.2083333  -0.4166667), wk =   0.0034722
        k(  104) = (   0.0000000   0.2083333  -0.3750000), wk =   0.0034722
        k(  105) = (   0.0000000   0.2083333  -0.3333333), wk =   0.0034722
        k(  106) = (   0.0000000   0.2083333  -0.2916667), wk =   0.0034722
        k(  107) = (   0.0000000   0.2083333  -0.2500000), wk =   0.0034722
        k(  108) = (   0.0000000   0.2083333  -0.2083333), wk =   0.0017361
        k(  109) = (   0.0000000   0.2500000   0.2500000), wk =   0.0008681
        k(  110) = (   0.0000000   0.2500000   0.2916667), wk =   0.0034722
        k(  111) = (   0.0000000   0.2500000   0.3333333), wk =   0.0034722
        k(  112) = (   0.0000000   0.2500000   0.3750000), wk =   0.0034722
        k(  113) = (   0.0000000   0.2500000   0.4166667), wk =   0.0034722
        k(  114) = (   0.0000000   0.2500000   0.4583333), wk =   0.0034722
        k(  115) = (   0.0000000   0.2500000  -0.5000000), wk =   0.0034722
        k(  116) = (   0.0000000   0.2500000  -0.4583333), wk =   0.0034722
        k(  117) = (   0.0000000   0.2500000  -0.4166667), wk =   0.0034722
        k(  118) = (   0.0000000   0.2500000  -0.3750000), wk =   0.0034722
        k(  119) = (   0.0000000   0.2500000  -0.3333333), wk =   0.0034722
        k(  120) = (   0.0000000   0.2500000  -0.2916667), wk =   0.0034722
        k(  121) = (   0.0000000   0.2500000  -0.2500000), wk =   0.0017361
        k(  122) = (   0.0000000   0.2916667   0.2916667), wk =   0.0008681
        k(  123) = (   0.0000000   0.2916667   0.3333333), wk =   0.0034722
        k(  124) = (   0.0000000   0.2916667   0.3750000), wk =   0.0034722
        k(  125) = (   0.0000000   0.2916667   0.4166667), wk =   0.0034722
        k(  126) = (   0.0000000   0.2916667   0.4583333), wk =   0.0034722
        k(  127) = (   0.0000000   0.2916667  -0.5000000), wk =   0.0034722
        k(  128) = (   0.0000000   0.2916667  -0.4583333), wk =   0.0034722
        k(  129) = (   0.0000000   0.2916667  -0.4166667), wk =   0.0034722
        k(  130) = (   0.0000000   0.2916667  -0.3750000), wk =   0.0034722
        k(  131) = (   0.0000000   0.2916667  -0.3333333), wk =   0.0034722
        k(  132) = (   0.0000000   0.2916667  -0.2916667), wk =   0.0017361
        k(  133) = (   0.0000000   0.3333333   0.3333333), wk =   0.0008681
        k(  134) = (   0.0000000   0.3333333   0.3750000), wk =   0.0034722
        k(  135) = (   0.0000000   0.3333333   0.4166667), wk =   0.0034722
        k(  136) = (   0.0000000   0.3333333   0.4583333), wk =   0.0034722
        k(  137) = (   0.0000000   0.3333333  -0.5000000), wk =   0.0034722
        k(  138) = (   0.0000000   0.3333333  -0.4583333), wk =   0.0034722
        k(  139) = (   0.0000000   0.3333333  -0.4166667), wk =   0.0034722
        k(  140) = (   0.0000000   0.3333333  -0.3750000), wk =   0.0034722
        k(  141) = (   0.0000000   0.3333333  -0.3333333), wk =   0.0017361
        k(  142) = (   0.0000000   0.3750000   0.3750000), wk =   0.0008681
        k(  143) = (   0.0000000   0.3750000   0.4166667), wk =   0.0034722
        k(  144) = (   0.0000000   0.3750000   0.4583333), wk =   0.0034722
        k(  145) = (   0.0000000   0.3750000  -0.5000000), wk =   0.0034722
        k(  146) = (   0.0000000   0.3750000  -0.4583333), wk =   0.0034722
        k(  147) = (   0.0000000   0.3750000  -0.4166667), wk =   0.0034722
        k(  148) = (   0.0000000   0.3750000  -0.3750000), wk =   0.0017361
        k(  149) = (   0.0000000   0.4166667   0.4166667), wk =   0.0008681
        k(  150) = (   0.0000000   0.4166667   0.4583333), wk =   0.0034722
        k(  151) = (   0.0000000   0.4166667  -0.5000000), wk =   0.0034722
        k(  152) = (   0.0000000   0.4166667  -0.4583333), wk =   0.0034722
        k(  153) = (   0.0000000   0.4166667  -0.4166667), wk =   0.0017361
        k(  154) = (   0.0000000   0.4583333   0.4583333), wk =   0.0008681
        k(  155) = (   0.0000000   0.4583333  -0.5000000), wk =   0.0034722
        k(  156) = (   0.0000000   0.4583333  -0.4583333), wk =   0.0017361
        k(  157) = (   0.0000000  -0.5000000  -0.5000000), wk =   0.0004340
        k(  158) = (   0.0416667   0.0833333   0.1250000), wk =   0.0034722
        k(  159) = (   0.0416667   0.0833333   0.1666667), wk =   0.0069444
        k(  160) = (   0.0416667   0.0833333   0.2083333), wk =   0.0069444
        k(  161) = (   0.0416667   0.0833333   0.2500000), wk =   0.0069444
        k(  162) = (   0.0416667   0.0833333   0.2916667), wk =   0.0069444
        k(  163) = (   0.0416667   0.0833333   0.3333333), wk =   0.0069444
        k(  164) = (   0.0416667   0.0833333   0.3750000), wk =   0.0069444
        k(  165) = (   0.0416667   0.0833333   0.4166667), wk =   0.0069444
        k(  166) = (   0.0416667   0.0833333   0.4583333), wk =   0.0069444
        k(  167) = (   0.0416667   0.0833333  -0.5000000), wk =   0.0069444
        k(  168) = (   0.0416667   0.0833333  -0.4583333), wk =   0.0034722
        k(  169) = (   0.0416667   0.1250000   0.1666667), wk =   0.0034722
        k(  170) = (   0.0416667   0.1250000   0.2083333), wk =   0.0069444
        k(  171) = (   0.0416667   0.1250000   0.2500000), wk =   0.0069444
        k(  172) = (   0.0416667   0.1250000   0.2916667), wk =   0.0069444
        k(  173) = (   0.0416667   0.1250000   0.3333333), wk =   0.0069444
        k(  174) = (   0.0416667   0.1250000   0.3750000), wk =   0.0069444
        k(  175) = (   0.0416667   0.1250000   0.4166667), wk =   0.0069444
        k(  176) = (   0.0416667   0.1250000   0.4583333), wk =   0.0069444
        k(  177) = (   0.0416667   0.1250000  -0.5000000), wk =   0.0069444
        k(  178) = (   0.0416667   0.1250000  -0.4583333), wk =   0.0069444
        k(  179) = (   0.0416667   0.1250000  -0.4166667), wk =   0.0069444
        k(  180) = (   0.0416667   0.1250000  -0.3750000), wk =   0.0069444
        k(  181) = (   0.0416667   0.1250000  -0.3333333), wk =   0.0069444
        k(  182) = (   0.0416667   0.1250000  -0.2916667), wk =   0.0069444
        k(  183) = (   0.0416667   0.1250000  -0.2500000), wk =   0.0069444
        k(  184) = (   0.0416667   0.1250000  -0.2083333), wk =   0.0069444
        k(  185) = (   0.0416667   0.1250000  -0.1666667), wk =   0.0069444
        k(  186) = (   0.0416667   0.1250000  -0.1250000), wk =   0.0069444
        k(  187) = (   0.0416667   0.1250000  -0.0833333), wk =   0.0034722
        k(  188) = (   0.0416667   0.1666667   0.2083333), wk =   0.0034722
        k(  189) = (   0.0416667   0.1666667   0.2500000), wk =   0.0069444
        k(  190) = (   0.0416667   0.1666667   0.2916667), wk =   0.0069444
        k(  191) = (   0.0416667   0.1666667   0.3333333), wk =   0.0069444
        k(  192) = (   0.0416667   0.1666667   0.3750000), wk =   0.0069444
        k(  193) = (   0.0416667   0.1666667   0.4166667), wk =   0.0069444
        k(  194) = (   0.0416667   0.1666667   0.4583333), wk =   0.0069444
        k(  195) = (   0.0416667   0.1666667  -0.5000000), wk =   0.0069444
        k(  196) = (   0.0416667   0.1666667  -0.4583333), wk =   0.0069444
        k(  197) = (   0.0416667   0.1666667  -0.4166667), wk =   0.0069444
        k(  198) = (   0.0416667   0.1666667  -0.3750000), wk =   0.0069444
        k(  199) = (   0.0416667   0.1666667  -0.3333333), wk =   0.0069444
        k(  200) = (   0.0416667   0.1666667  -0.2916667), wk =   0.0069444
        k(  201) = (   0.0416667   0.1666667  -0.2500000), wk =   0.0069444
        k(  202) = (   0.0416667   0.1666667  -0.2083333), wk =   0.0069444
        k(  203) = (   0.0416667   0.1666667  -0.1666667), wk =   0.0069444
        k(  204) = (   0.0416667   0.1666667  -0.1250000), wk =   0.0034722
        k(  205) = (   0.0416667   0.2083333   0.2500000), wk =   0.0034722
        k(  206) = (   0.0416667   0.2083333   0.2916667), wk =   0.0069444
        k(  207) = (   0.0416667   0.2083333   0.3333333), wk =   0.0069444
        k(  208) = (   0.0416667   0.2083333   0.3750000), wk =   0.0069444
        k(  209) = (   0.0416667   0.2083333   0.4166667), wk =   0.0069444
        k(  210) = (   0.0416667   0.2083333   0.4583333), wk =   0.0069444
        k(  211) = (   0.0416667   0.2083333  -0.5000000), wk =   0.0069444
        k(  212) = (   0.0416667   0.2083333  -0.4583333), wk =   0.0069444
        k(  213) = (   0.0416667   0.2083333  -0.4166667), wk =   0.0069444
        k(  214) = (   0.0416667   0.2083333  -0.3750000), wk =   0.0069444
        k(  215) = (   0.0416667   0.2083333  -0.3333333), wk =   0.0069444
        k(  216) = (   0.0416667   0.2083333  -0.2916667), wk =   0.0069444
        k(  217) = (   0.0416667   0.2083333  -0.2500000), wk =   0.0069444
        k(  218) = (   0.0416667   0.2083333  -0.2083333), wk =   0.0069444
        k(  219) = (   0.0416667   0.2083333  -0.1666667), wk =   0.0034722
        k(  220) = (   0.0416667   0.2500000   0.2916667), wk =   0.0034722
        k(  221) = (   0.0416667   0.2500000   0.3333333), wk =   0.0069444
        k(  222) = (   0.0416667   0.2500000   0.3750000), wk =   0.0069444
        k(  223) = (   0.0416667   0.2500000   0.4166667), wk =   0.0069444
        k(  224) = (   0.0416667   0.2500000   0.4583333), wk =   0.0069444
        k(  225) = (   0.0416667   0.2500000  -0.5000000), wk =   0.0069444
        k(  226) = (   0.0416667   0.2500000  -0.4583333), wk =   0.0069444
        k(  227) = (   0.0416667   0.2500000  -0.4166667), wk =   0.0069444
        k(  228) = (   0.0416667   0.2500000  -0.3750000), wk =   0.0069444
        k(  229) = (   0.0416667   0.2500000  -0.3333333), wk =   0.0069444
        k(  230) = (   0.0416667   0.2500000  -0.2916667), wk =   0.0069444
        k(  231) = (   0.0416667   0.2500000  -0.2500000), wk =   0.0069444
        k(  232) = (   0.0416667   0.2500000  -0.2083333), wk =   0.0034722
        k(  233) = (   0.0416667   0.2916667   0.3333333), wk =   0.0034722
        k(  234) = (   0.0416667   0.2916667   0.3750000), wk =   0.0069444
        k(  235) = (   0.0416667   0.2916667   0.4166667), wk =   0.0069444
        k(  236) = (   0.0416667   0.2916667   0.4583333), wk =   0.0069444
        k(  237) = (   0.0416667   0.2916667  -0.5000000), wk =   0.0069444
        k(  238) = (   0.0416667   0.2916667  -0.4583333), wk =   0.0069444
        k(  239) = (   0.0416667   0.2916667  -0.4166667), wk =   0.0069444
        k(  240) = (   0.0416667   0.2916667  -0.3750000), wk =   0.0069444
        k(  241) = (   0.0416667   0.2916667  -0.3333333), wk =   0.0069444
        k(  242) = (   0.0416667   0.2916667  -0.2916667), wk =   0.0069444
        k(  243) = (   0.0416667   0.2916667  -0.2500000), wk =   0.0034722
        k(  244) = (   0.0416667   0.3333333   0.3750000), wk =   0.0034722
        k(  245) = (   0.0416667   0.3333333   0.4166667), wk =   0.0069444
        k(  246) = (   0.0416667   0.3333333   0.4583333), wk =   0.0069444
        k(  247) = (   0.0416667   0.3333333  -0.5000000), wk =   0.0069444
        k(  248) = (   0.0416667   0.3333333  -0.4583333), wk =   0.0069444
        k(  249) = (   0.0416667   0.3333333  -0.4166667), wk =   0.0069444
        k(  250) = (   0.0416667   0.3333333  -0.3750000), wk =   0.0069444
        k(  251) = (   0.0416667   0.3333333  -0.3333333), wk =   0.0069444
        k(  252) = (   0.0416667   0.3333333  -0.2916667), wk =   0.0034722
        k(  253) = (   0.0416667   0.3750000   0.4166667), wk =   0.0034722
        k(  254) = (   0.0416667   0.3750000   0.4583333), wk =   0.0069444
        k(  255) = (   0.0416667   0.3750000  -0.5000000), wk =   0.0069444
        k(  256) = (   0.0416667   0.3750000  -0.4583333), wk =   0.0069444
        k(  257) = (   0.0416667   0.3750000  -0.4166667), wk =   0.0069444
        k(  258) = (   0.0416667   0.3750000  -0.3750000), wk =   0.0069444
        k(  259) = (   0.0416667   0.3750000  -0.3333333), wk =   0.0034722
        k(  260) = (   0.0416667   0.4166667   0.4583333), wk =   0.0034722
        k(  261) = (   0.0416667   0.4166667  -0.5000000), wk =   0.0069444
        k(  262) = (   0.0416667   0.4166667  -0.4583333), wk =   0.0069444
        k(  263) = (   0.0416667   0.4166667  -0.4166667), wk =   0.0069444
        k(  264) = (   0.0416667   0.4166667  -0.3750000), wk =   0.0034722
        k(  265) = (   0.0416667   0.4583333  -0.5000000), wk =   0.0034722
        k(  266) = (   0.0416667   0.4583333  -0.4583333), wk =   0.0069444
        k(  267) = (   0.0416667   0.4583333  -0.4166667), wk =   0.0034722
        k(  268) = (   0.0416667  -0.5000000  -0.4583333), wk =   0.0017361
        k(  269) = (   0.0833333   0.1666667   0.2500000), wk =   0.0034722
        k(  270) = (   0.0833333   0.1666667   0.2916667), wk =   0.0069444
        k(  271) = (   0.0833333   0.1666667   0.3333333), wk =   0.0069444
        k(  272) = (   0.0833333   0.1666667   0.3750000), wk =   0.0069444
        k(  273) = (   0.0833333   0.1666667   0.4166667), wk =   0.0069444
        k(  274) = (   0.0833333   0.1666667   0.4583333), wk =   0.0069444
        k(  275) = (   0.0833333   0.1666667  -0.5000000), wk =   0.0069444
        k(  276) = (   0.0833333   0.1666667  -0.4583333), wk =   0.0069444
        k(  277) = (   0.0833333   0.1666667  -0.4166667), wk =   0.0034722
        k(  278) = (   0.0833333   0.2083333   0.2916667), wk =   0.0034722
        k(  279) = (   0.0833333   0.2083333   0.3333333), wk =   0.0069444
        k(  280) = (   0.0833333   0.2083333   0.3750000), wk =   0.0069444
        k(  281) = (   0.0833333   0.2083333   0.4166667), wk =   0.0069444
        k(  282) = (   0.0833333   0.2083333   0.4583333), wk =   0.0069444
        k(  283) = (   0.0833333   0.2083333  -0.5000000), wk =   0.0069444
        k(  284) = (   0.0833333   0.2083333  -0.4583333), wk =   0.0069444
        k(  285) = (   0.0833333   0.2083333  -0.4166667), wk =   0.0069444
        k(  286) = (   0.0833333   0.2083333  -0.3750000), wk =   0.0069444
        k(  287) = (   0.0833333   0.2083333  -0.3333333), wk =   0.0069444
        k(  288) = (   0.0833333   0.2083333  -0.2916667), wk =   0.0069444
        k(  289) = (   0.0833333   0.2083333  -0.2500000), wk =   0.0069444
        k(  290) = (   0.0833333   0.2083333  -0.2083333), wk =   0.0069444
        k(  291) = (   0.0833333   0.2083333  -0.1666667), wk =   0.0069444
        k(  292) = (   0.0833333   0.2083333  -0.1250000), wk =   0.0034722
        k(  293) = (   0.0833333   0.2500000   0.3333333), wk =   0.0034722
        k(  294) = (   0.0833333   0.2500000   0.3750000), wk =   0.0069444
        k(  295) = (   0.0833333   0.2500000   0.4166667), wk =   0.0069444
        k(  296) = (   0.0833333   0.2500000   0.4583333), wk =   0.0069444
        k(  297) = (   0.0833333   0.2500000  -0.5000000), wk =   0.0069444
        k(  298) = (   0.0833333   0.2500000  -0.4583333), wk =   0.0069444
        k(  299) = (   0.0833333   0.2500000  -0.4166667), wk =   0.0069444
        k(  300) = (   0.0833333   0.2500000  -0.3750000), wk =   0.0069444
        k(  301) = (   0.0833333   0.2500000  -0.3333333), wk =   0.0069444
        k(  302) = (   0.0833333   0.2500000  -0.2916667), wk =   0.0069444
        k(  303) = (   0.0833333   0.2500000  -0.2500000), wk =   0.0069444
        k(  304) = (   0.0833333   0.2500000  -0.2083333), wk =   0.0069444
        k(  305) = (   0.0833333   0.2500000  -0.1666667), wk =   0.0034722
        k(  306) = (   0.0833333   0.2916667   0.3750000), wk =   0.0034722
        k(  307) = (   0.0833333   0.2916667   0.4166667), wk =   0.0069444
        k(  308) = (   0.0833333   0.2916667   0.4583333), wk =   0.0069444
        k(  309) = (   0.0833333   0.2916667  -0.5000000), wk =   0.0069444
        k(  310) = (   0.0833333   0.2916667  -0.4583333), wk =   0.0069444
        k(  311) = (   0.0833333   0.2916667  -0.4166667), wk =   0.0069444
        k(  312) = (   0.0833333   0.2916667  -0.3750000), wk =   0.0069444
        k(  313) = (   0.0833333   0.2916667  -0.3333333), wk =   0.0069444
        k(  314) = (   0.0833333   0.2916667  -0.2916667), wk =   0.0069444
        k(  315) = (   0.0833333   0.2916667  -0.2500000), wk =   0.0069444
        k(  316) = (   0.0833333   0.2916667  -0.2083333), wk =   0.0034722
        k(  317) = (   0.0833333   0.3333333   0.4166667), wk =   0.0034722
        k(  318) = (   0.0833333   0.3333333   0.4583333), wk =   0.0069444
        k(  319) = (   0.0833333   0.3333333  -0.5000000), wk =   0.0069444
        k(  320) = (   0.0833333   0.3333333  -0.4583333), wk =   0.0069444
        k(  321) = (   0.0833333   0.3333333  -0.4166667), wk =   0.0069444
        k(  322) = (   0.0833333   0.3333333  -0.3750000), wk =   0.0069444
        k(  323) = (   0.0833333   0.3333333  -0.3333333), wk =   0.0069444
        k(  324) = (   0.0833333   0.3333333  -0.2916667), wk =   0.0069444
        k(  325) = (   0.0833333   0.3333333  -0.2500000), wk =   0.0034722
        k(  326) = (   0.0833333   0.3750000   0.4583333), wk =   0.0034722
        k(  327) = (   0.0833333   0.3750000  -0.5000000), wk =   0.0069444
        k(  328) = (   0.0833333   0.3750000  -0.4583333), wk =   0.0069444
        k(  329) = (   0.0833333   0.3750000  -0.4166667), wk =   0.0069444
        k(  330) = (   0.0833333   0.3750000  -0.3750000), wk =   0.0069444
        k(  331) = (   0.0833333   0.3750000  -0.3333333), wk =   0.0069444
        k(  332) = (   0.0833333   0.3750000  -0.2916667), wk =   0.0034722
        k(  333) = (   0.0833333   0.4166667  -0.5000000), wk =   0.0034722
        k(  334) = (   0.0833333   0.4166667  -0.4583333), wk =   0.0069444
        k(  335) = (   0.0833333   0.4166667  -0.4166667), wk =   0.0069444
        k(  336) = (   0.0833333   0.4166667  -0.3750000), wk =   0.0069444
        k(  337) = (   0.0833333   0.4166667  -0.3333333), wk =   0.0034722
        k(  338) = (   0.0833333   0.4583333  -0.4583333), wk =   0.0034722
        k(  339) = (   0.0833333   0.4583333  -0.4166667), wk =   0.0069444
        k(  340) = (   0.0833333   0.4583333  -0.3750000), wk =   0.0034722
        k(  341) = (   0.0833333  -0.5000000  -0.4166667), wk =   0.0017361
        k(  342) = (   0.1250000   0.2500000   0.3750000), wk =   0.0034722
        k(  343) = (   0.1250000   0.2500000   0.4166667), wk =   0.0069444
        k(  344) = (   0.1250000   0.2500000   0.4583333), wk =   0.0069444
        k(  345) = (   0.1250000   0.2500000  -0.5000000), wk =   0.0069444
        k(  346) = (   0.1250000   0.2500000  -0.4583333), wk =   0.0069444
        k(  347) = (   0.1250000   0.2500000  -0.4166667), wk =   0.0069444
        k(  348) = (   0.1250000   0.2500000  -0.3750000), wk =   0.0034722
        k(  349) = (   0.1250000   0.2916667   0.4166667), wk =   0.0034722
        k(  350) = (   0.1250000   0.2916667   0.4583333), wk =   0.0069444
        k(  351) = (   0.1250000   0.2916667  -0.5000000), wk =   0.0069444
        k(  352) = (   0.1250000   0.2916667  -0.4583333), wk =   0.0069444
        k(  353) = (   0.1250000   0.2916667  -0.4166667), wk =   0.0069444
        k(  354) = (   0.1250000   0.2916667  -0.3750000), wk =   0.0069444
        k(  355) = (   0.1250000   0.2916667  -0.3333333), wk =   0.0069444
        k(  356) = (   0.1250000   0.2916667  -0.2916667), wk =   0.0069444
        k(  357) = (   0.1250000   0.2916667  -0.2500000), wk =   0.0069444
        k(  358) = (   0.1250000   0.2916667  -0.2083333), wk =   0.0069444
        k(  359) = (   0.1250000   0.2916667  -0.1666667), wk =   0.0034722
        k(  360) = (   0.1250000   0.3333333   0.4583333), wk =   0.0034722
        k(  361) = (   0.1250000   0.3333333  -0.5000000), wk =   0.0069444
        k(  362) = (   0.1250000   0.3333333  -0.4583333), wk =   0.0069444
        k(  363) = (   0.1250000   0.3333333  -0.4166667), wk =   0.0069444
        k(  364) = (   0.1250000   0.3333333  -0.3750000), wk =   0.0069444
        k(  365) = (   0.1250000   0.3333333  -0.3333333), wk =   0.0069444
        k(  366) = (   0.1250000   0.3333333  -0.2916667), wk =   0.0069444
        k(  367) = (   0.1250000   0.3333333  -0.2500000), wk =   0.0069444
        k(  368) = (   0.1250000   0.3333333  -0.2083333), wk =   0.0034722
        k(  369) = (   0.1250000   0.3750000  -0.5000000), wk =   0.0034722
        k(  370) = (   0.1250000   0.3750000  -0.4583333), wk =   0.0069444
        k(  371) = (   0.1250000   0.3750000  -0.4166667), wk =   0.0069444
        k(  372) = (   0.1250000   0.3750000  -0.3750000), wk =   0.0069444
        k(  373) = (   0.1250000   0.3750000  -0.3333333), wk =   0.0069444
        k(  374) = (   0.1250000   0.3750000  -0.2916667), wk =   0.0069444
        k(  375) = (   0.1250000   0.3750000  -0.2500000), wk =   0.0034722
        k(  376) = (   0.1250000   0.4166667  -0.4583333), wk =   0.0034722
        k(  377) = (   0.1250000   0.4166667  -0.4166667), wk =   0.0069444
        k(  378) = (   0.1250000   0.4166667  -0.3750000), wk =   0.0069444
        k(  379) = (   0.1250000   0.4166667  -0.3333333), wk =   0.0069444
        k(  380) = (   0.1250000   0.4166667  -0.2916667), wk =   0.0034722
        k(  381) = (   0.1250000   0.4583333  -0.4166667), wk =   0.0034722
        k(  382) = (   0.1250000   0.4583333  -0.3750000), wk =   0.0069444
        k(  383) = (   0.1250000   0.4583333  -0.3333333), wk =   0.0034722
        k(  384) = (   0.1250000  -0.5000000  -0.3750000), wk =   0.0017361
        k(  385) = (   0.1666667   0.3333333  -0.5000000), wk =   0.0034722
        k(  386) = (   0.1666667   0.3333333  -0.4583333), wk =   0.0069444
        k(  387) = (   0.1666667   0.3333333  -0.4166667), wk =   0.0069444
        k(  388) = (   0.1666667   0.3333333  -0.3750000), wk =   0.0069444
        k(  389) = (   0.1666667   0.3333333  -0.3333333), wk =   0.0034722
        k(  390) = (   0.1666667   0.3750000  -0.4583333), wk =   0.0034722
        k(  391) = (   0.1666667   0.3750000  -0.4166667), wk =   0.0069444
        k(  392) = (   0.1666667   0.3750000  -0.3750000), wk =   0.0069444
        k(  393) = (   0.1666667   0.3750000  -0.3333333), wk =   0.0069444
        k(  394) = (   0.1666667   0.3750000  -0.2916667), wk =   0.0069444
        k(  395) = (   0.1666667   0.3750000  -0.2500000), wk =   0.0069444
        k(  396) = (   0.1666667   0.3750000  -0.2083333), wk =   0.0034722
        k(  397) = (   0.1666667   0.4166667  -0.4166667), wk =   0.0034722
        k(  398) = (   0.1666667   0.4166667  -0.3750000), wk =   0.0069444
        k(  399) = (   0.1666667   0.4166667  -0.3333333), wk =   0.0069444
        k(  400) = (   0.1666667   0.4166667  -0.2916667), wk =   0.0069444
        k(  401) = (   0.1666667   0.4166667  -0.2500000), wk =   0.0034722
        k(  402) = (   0.1666667   0.4583333  -0.3750000), wk =   0.0034722
        k(  403) = (   0.1666667   0.4583333  -0.3333333), wk =   0.0069444
        k(  404) = (   0.1666667   0.4583333  -0.2916667), wk =   0.0034722
        k(  405) = (   0.1666667  -0.5000000  -0.3333333), wk =   0.0017361
        k(  406) = (   0.2083333   0.4166667  -0.3750000), wk =   0.0034722
        k(  407) = (   0.2083333   0.4166667  -0.3333333), wk =   0.0069444
        k(  408) = (   0.2083333   0.4166667  -0.2916667), wk =   0.0034722
        k(  409) = (   0.2083333   0.4583333  -0.3333333), wk =   0.0034722
        k(  410) = (   0.2083333   0.4583333  -0.2916667), wk =   0.0069444
        k(  411) = (   0.2083333   0.4583333  -0.2500000), wk =   0.0034722
        k(  412) = (   0.2083333  -0.5000000  -0.2916667), wk =   0.0017361
        k(  413) = (   0.2500000  -0.5000000  -0.2500000), wk =   0.0008681

     Dense  grid:     5209 G-vectors     FFT dimensions: (  25,  25,  25)

     Dynamical RAM for                 wfc:       0.01 MB

     Dynamical RAM for     wfc (w. buffer):       2.08 MB

     Dynamical RAM for           str. fact:       0.01 MB

     Dynamical RAM for           local pot:       0.00 MB

     Dynamical RAM for          nlocal pot:       0.01 MB

     Dynamical RAM for                qrad:       0.32 MB

     Dynamical RAM for          rho,v,vnew:       0.06 MB

     Dynamical RAM for               rhoin:       0.02 MB

     Dynamical RAM for            rho*nmix:       0.11 MB

     Dynamical RAM for           G-vectors:       0.03 MB

     Dynamical RAM for          h,s,v(r/c):       0.01 MB

     Dynamical RAM for          <psi|beta>:       0.00 MB

     Dynamical RAM for                 psi:       0.01 MB

     Dynamical RAM for                hpsi:       0.01 MB

     Dynamical RAM for                spsi:       0.01 MB

     Dynamical RAM for      wfcinit/wfcrot:       0.01 MB

     Dynamical RAM for           addusdens:       0.29 MB

     Dynamical RAM for          addusforce:       0.30 MB

     Estimated static dynamical RAM per process >       2.62 MB

     Estimated max dynamical RAM per process >       3.02 MB

     Estimated total dynamical RAM >      36.25 MB

     Initial potential from superposition of free atoms

     starting charge       2.9975, renormalised to       3.0000

     negative rho (up, down):  6.798E-04 0.000E+00
     Starting wfcs are    8 randomized atomic wfcs
     Checking if some PAW data can be deallocated... 

     total cpu time spent up to now is        0.4 secs

     per-process dynamical memory:    32.0 Mb

     Self-consistent Calculation

     iteration #  1     ecut=    50.00 Ry     beta= 0.70
     Davidson diagonalization with overlap

---- Real-time Memory Report at c_bands before calling an iterative solver
           103 MiB given to the printing process from OS
            31 MiB allocation reported by mallinfo(arena+hblkhd)
        111349 MiB available memory on the node where the printing process lives
------------------
     ethr =  1.00E-02,  avg # of iterations =  5.9

     Threshold (ethr) on eigenvalues was too large:
     Diagonalizing with lowered threshold

     Davidson diagonalization with overlap

---- Real-time Memory Report at c_bands before calling an iterative solver
           104 MiB given to the printing process from OS
            31 MiB allocation reported by mallinfo(arena+hblkhd)
        111326 MiB available memory on the node where the printing process lives
------------------
     ethr =  1.93E-04,  avg # of iterations =  2.2

     negative rho (up, down):  7.047E-04 0.000E+00

     total cpu time spent up to now is        1.5 secs

     total energy              =     -39.50165172 Ry
     estimated scf accuracy    <       0.00569739 Ry

     iteration #  2     ecut=    50.00 Ry     beta= 0.70
     Davidson diagonalization with overlap

---- Real-time Memory Report at c_bands before calling an iterative solver
           108 MiB given to the printing process from OS
            31 MiB allocation reported by mallinfo(arena+hblkhd)
        111305 MiB available memory on the node where the printing process lives
------------------
     ethr =  1.90E-04,  avg # of iterations =  1.0

     negative rho (up, down):  7.348E-04 0.000E+00

     total cpu time spent up to now is        1.8 secs

     total energy              =     -39.50183358 Ry
     estimated scf accuracy    <       0.00036809 Ry

     iteration #  3     ecut=    50.00 Ry     beta= 0.70
     Davidson diagonalization with overlap

---- Real-time Memory Report at c_bands before calling an iterative solver
           108 MiB given to the printing process from OS
            31 MiB allocation reported by mallinfo(arena+hblkhd)
        111308 MiB available memory on the node where the printing process lives
------------------
     ethr =  1.23E-05,  avg # of iterations =  2.1

     negative rho (up, down):  7.127E-04 0.000E+00

     total cpu time spent up to now is        2.2 secs

     total energy              =     -39.50185469 Ry
     estimated scf accuracy    <       0.00000050 Ry

     iteration #  4     ecut=    50.00 Ry     beta= 0.70
     Davidson diagonalization with overlap

---- Real-time Memory Report at c_bands before calling an iterative solver
           108 MiB given to the printing process from OS
            31 MiB allocation reported by mallinfo(arena+hblkhd)
        111308 MiB available memory on the node where the printing process lives
------------------
     c_bands:  1 eigenvalues not converged
     ethr =  1.67E-08,  avg # of iterations =  3.4

     negative rho (up, down):  6.936E-04 0.000E+00

     total cpu time spent up to now is        2.7 secs

     total energy              =     -39.50185596 Ry
     estimated scf accuracy    <       0.00000003 Ry

     iteration #  5     ecut=    50.00 Ry     beta= 0.70
     Davidson diagonalization with overlap

---- Real-time Memory Report at c_bands before calling an iterative solver
           108 MiB given to the printing process from OS
            31 MiB allocation reported by mallinfo(arena+hblkhd)
        111312 MiB available memory on the node where the printing process lives
------------------
     ethr =  1.12E-09,  avg # of iterations =  1.1

     negative rho (up, down):  6.929E-04 0.000E+00

     total cpu time spent up to now is        3.1 secs

     total energy              =     -39.50185596 Ry
     estimated scf accuracy    <          3.6E-09 Ry

     iteration #  6     ecut=    50.00 Ry     beta= 0.70
     Davidson diagonalization with overlap

---- Real-time Memory Report at c_bands before calling an iterative solver
           108 MiB given to the printing process from OS
            31 MiB allocation reported by mallinfo(arena+hblkhd)
        111312 MiB available memory on the node where the printing process lives
------------------
     ethr =  1.19E-10,  avg # of iterations =  1.0

     negative rho (up, down):  6.926E-04 0.000E+00

     total cpu time spent up to now is        3.4 secs

     total energy              =     -39.50185596 Ry
     estimated scf accuracy    <          1.6E-11 Ry

     iteration #  7     ecut=    50.00 Ry     beta= 0.70
     Davidson diagonalization with overlap

---- Real-time Memory Report at c_bands before calling an iterative solver
           108 MiB given to the printing process from OS
            31 MiB allocation reported by mallinfo(arena+hblkhd)
        111305 MiB available memory on the node where the printing process lives
------------------
     ethr =  5.42E-13,  avg # of iterations =  2.0

     negative rho (up, down):  6.925E-04 0.000E+00

     total cpu time spent up to now is        3.8 secs

     total energy              =     -39.50185596 Ry
     estimated scf accuracy    <          3.9E-14 Ry

     iteration #  8     ecut=    50.00 Ry     beta= 0.70
     Davidson diagonalization with overlap

---- Real-time Memory Report at c_bands before calling an iterative solver
           108 MiB given to the printing process from OS
            31 MiB allocation reported by mallinfo(arena+hblkhd)
        111393 MiB available memory on the node where the printing process lives
------------------
     ethr =  1.00E-13,  avg # of iterations =  1.0

     negative rho (up, down):  6.925E-04 0.000E+00

     total cpu time spent up to now is        4.2 secs

     total energy              =     -39.50185596 Ry
     estimated scf accuracy    <          1.1E-16 Ry

     iteration #  9     ecut=    50.00 Ry     beta= 0.70
     Davidson diagonalization with overlap

---- Real-time Memory Report at c_bands before calling an iterative solver
           108 MiB given to the printing process from OS
            31 MiB allocation reported by mallinfo(arena+hblkhd)
        111397 MiB available memory on the node where the printing process lives
------------------
     ethr =  1.00E-13,  avg # of iterations =  1.0

     negative rho (up, down):  6.925E-04 0.000E+00

     total cpu time spent up to now is        4.5 secs

     total energy              =     -39.50185596 Ry
     estimated scf accuracy    <          6.0E-16 Ry

     iteration # 10     ecut=    50.00 Ry     beta= 0.70
     Davidson diagonalization with overlap

---- Real-time Memory Report at c_bands before calling an iterative solver
           108 MiB given to the printing process from OS
            31 MiB allocation reported by mallinfo(arena+hblkhd)
        111404 MiB available memory on the node where the printing process lives
------------------
     ethr =  1.00E-13,  avg # of iterations =  1.0

     negative rho (up, down):  6.925E-04 0.000E+00

     total cpu time spent up to now is        4.9 secs

     End of self-consistent calculation

          k = 0.0000 0.0000 0.0000 (   645 PWs)   bands (ev):

    -3.1912  20.5922  20.5922  20.5922  22.0866  22.0866

     occupation numbers 
     1.0000  -0.0000  -0.0000  -0.0000  -0.0000  -0.0000

          k =-0.0295 0.0295-0.0295 (   645 PWs)   bands (ev):

    -3.1440  19.5942  20.3987  20.3987  22.3539  22.3542

     occupation numbers 
     1.0000  -0.0000  -0.0000  -0.0000  -0.0000  -0.0000

          k =-0.0589 0.0589-0.0589 (   655 PWs)   bands (ev):

    -3.0022  17.9775  20.0243  20.0243  22.7521  22.9424

     occupation numbers 
     1.0000  -0.0000  -0.0000  -0.0000  -0.0000  -0.0000

          k =-0.0884 0.0884-0.0884 (   652 PWs)   bands (ev):

    -2.7663  16.2885  19.6489  19.6489  22.6952  23.6267

     occupation numbers 
     1.0000  -0.0000  -0.0000  -0.0000  -0.0000  -0.0000

          k =-0.1179 0.1179-0.1179 (   655 PWs)   bands (ev):

    -2.4367  14.6135  19.3245  19.3245  22.5665  24.0017

     occupation numbers 
     1.0000  -0.0000  -0.0000  -0.0000  -0.0000  -0.0000

          k =-0.1473 0.1473-0.1473 (   649 PWs)   bands (ev):

    -2.0141  12.9818  19.0671  19.0671  22.4351  23.4767

     occupation numbers 
     1.0000  -0.0000  -0.0000  -0.0000  -0.0000  -0.0000

          k =-0.1768 0.1768-0.1768 (   655 PWs)   bands (ev):

    -1.4991  11.4072  18.8828  18.8828  22.3363  22.7301

     occupation numbers 
     1.0000  -0.0000  -0.0000  -0.0000  -0.0000  -0.0000

          k =-0.2062 0.2062-0.2062 (   652 PWs)   bands (ev):

    -0.8929   9.8979  18.7746  18.7746  22.0038  22.0038

     occupation numbers 
     1.0000  -0.0000  -0.0000  -0.0000  -0.0000  -0.0000

          k =-0.2357 0.2357-0.2357 (   658 PWs)   bands (ev):

    -0.1966   8.4590  18.7440  18.7440  21.3364  21.3364

     occupation numbers 
     1.0000  -0.0156  -0.0000  -0.0000  -0.0000  -0.0000

          k =-0.2652 0.2652-0.2652 (   658 PWs)   bands (ev):

     0.5887   7.0945  18.7917  18.7917  20.7398  20.7398

     occupation numbers 
     1.0000   1.0000  -0.0000  -0.0000  -0.0000  -0.0000

          k =-0.2946 0.2946-0.2946 (   664 PWs)   bands (ev):

     1.4611   5.8073  18.9183  18.9183  20.2186  20.2186

     occupation numbers 
     1.0000   1.0000  -0.0000  -0.0000  -0.0000  -0.0000

          k =-0.3241 0.3241-0.3241 (   649 PWs)   bands (ev):

     2.4180   4.6014  19.1239  19.1239  19.7755  19.7755

     occupation numbers 
     1.0000   1.0000  -0.0000  -0.0000  -0.0000  -0.0000

          k = 0.3536-0.3536 0.3536 (   652 PWs)   bands (ev):

     3.3568   3.5795  19.3874  19.3874  19.4327  19.4327

     occupation numbers 
     1.0000   1.0000  -0.0000  -0.0000  -0.0000  -0.0000

          k = 0.0000 0.0589 0.0000 (   645 PWs)   bands (ev):

    -3.1282  19.9093  19.9093  20.1256  21.9327  22.8617

     occupation numbers 
     1.0000  -0.0000  -0.0000  -0.0000  -0.0000  -0.0000

          k =-0.0295 0.0884-0.0295 (   651 PWs)   bands (ev):

    -3.0180  18.5244  19.4230  20.1594  22.0186  23.2551

     occupation numbers 
     1.0000  -0.0000  -0.0000  -0.0000  -0.0000  -0.0000

          k =-0.0589 0.1179-0.0589 (   660 PWs)   bands (ev):

    -2.8135  16.8670  18.9891  19.9870  22.5000  23.2876

     occupation numbers 
     1.0000  -0.0000  -0.0000  -0.0000  -0.0000  -0.0000

          k =-0.0884 0.1473-0.0884 (   656 PWs)   bands (ev):

    -2.5151  15.1931  18.6230  19.7238  22.9387  23.2795

     occupation numbers 
     1.0000  -0.0000  -0.0000  -0.0000  -0.0000  -0.0000

          k =-0.1179 0.1768-0.1179 (   656 PWs)   bands (ev):

    -2.1235  13.5504  18.3307  19.4775  22.6137  23.0720

     occupation numbers 
     1.0000  -0.0000  -0.0000  -0.0000  -0.0000  -0.0000

          k =-0.1473 0.2062-0.1473 (   653 PWs)   bands (ev):

    -1.6394  11.9589  18.1147  19.2852  21.8604  22.9299

     occupation numbers 
     1.0000  -0.0000  -0.0000  -0.0000  -0.0000  -0.0000

          k =-0.1768 0.2357-0.1768 (   654 PWs)   bands (ev):

    -1.0637  10.4292  17.9766  19.1608  21.1000  22.8614

     occupation numbers 
     1.0000  -0.0000  -0.0000  -0.0000  -0.0000  -0.0000

          k =-0.2062 0.2652-0.2062 (   656 PWs)   bands (ev):

    -0.3974   8.9678  17.9171  19.1107  20.3973  22.4406

     occupation numbers 
     1.0000  -0.0000  -0.0000  -0.0000  -0.0000  -0.0000

          k =-0.2357 0.2946-0.2357 (   660 PWs)   bands (ev):

     0.3581   7.5791  17.9368  19.1377  19.7662  21.8259

     occupation numbers 
     1.0000   1.0292  -0.0000  -0.0000  -0.0000  -0.0000

          k =-0.2652 0.3241-0.2652 (   658 PWs)   bands (ev):

     1.2015   6.2665  18.0359  19.2020  19.2529  21.2836

     occupation numbers 
     1.0000   1.0000  -0.0000  -0.0000  -0.0000  -0.0000

          k =-0.2946 0.3536-0.2946 (   655 PWs)   bands (ev):

     2.1304   5.0335  18.2148  18.7334  19.4310  20.8168

     occupation numbers 
     1.0000   1.0000  -0.0000  -0.0000  -0.0000  -0.0000

          k = 0.3830-0.3241 0.3830 (   656 PWs)   bands (ev):

     3.1337   3.8918  18.3371  18.4736  19.6968  20.4277

     occupation numbers 
     1.0000   1.0000  -0.0000  -0.0000  -0.0000  -0.0000

          k = 0.3536-0.2946 0.3536 (   657 PWs)   bands (ev):

     2.7941   4.2591  18.0211  18.8119  20.0423  20.1172

     occupation numbers 
     1.0000   1.0000  -0.0000  -0.0000  -0.0000  -0.0000

          k = 0.3241-0.2652 0.3241 (   658 PWs)   bands (ev):

     1.8115   5.4353  17.7860  19.2283  19.8871  20.4666

     occupation numbers 
     1.0000   1.0000  -0.0000  -0.0000  -0.0000  -0.0000

          k = 0.2946-0.2357 0.2946 (   654 PWs)   bands (ev):

     0.9107   6.6952  17.6318  19.6703  19.7892  20.9680

     occupation numbers 
     1.0000   1.0000  -0.0000  -0.0000  -0.0000  -0.0000

          k = 0.2652-0.2062 0.2652 (   656 PWs)   bands (ev):

     0.0965   8.0334  17.5583  19.6462  20.3135  21.5428

     occupation numbers 
     1.0000   0.3299  -0.0000  -0.0000  -0.0000  -0.0000

          k = 0.2357-0.1768 0.2357 (   653 PWs)   bands (ev):

    -0.6295   9.4465  17.5654  19.6502  20.9621  22.1782

     occupation numbers 
     1.0000  -0.0000  -0.0000  -0.0000  -0.0000  -0.0000

          k = 0.2062-0.1473 0.2062 (   652 PWs)   bands (ev):

    -1.2657  10.9309  17.6526  19.7285  21.6803  22.6438

     occupation numbers 
     1.0000  -0.0000  -0.0000  -0.0000  -0.0000  -0.0000

          k = 0.1768-0.1179 0.1768 (   652 PWs)   bands (ev):

    -1.8110  12.4812  17.8193  19.8797  22.4460  22.7504

     occupation numbers 
     1.0000  -0.0000  -0.0000  -0.0000  -0.0000  -0.0000

          k = 0.1473-0.0884 0.1473 (   653 PWs)   bands (ev):

    -2.2644  14.0894  18.0647  20.0980  22.8648  23.1446

     occupation numbers 
     1.0000  -0.0000  -0.0000  -0.0000  -0.0000  -0.0000

          k = 0.1179-0.0589 0.1179 (   657 PWs)   bands (ev):

    -2.6250  15.7406  18.3879  20.3675  22.9756  23.0995

     occupation numbers 
     1.0000  -0.0000  -0.0000  -0.0000  -0.0000  -0.0000

          k = 0.0884-0.0295 0.0884 (   658 PWs)   bands (ev):

    -2.8921  17.3999  18.7931  20.6356  22.5103  23.0159

     occupation numbers 
     1.0000  -0.0000  -0.0000  -0.0000  -0.0000  -0.0000

          k = 0.0589-0.0000 0.0589 (   654 PWs)   bands (ev):

    -3.0652  18.8894  19.3759  20.7146  22.1668  22.8461

     occupation numbers 
     1.0000  -0.0000  -0.0000  -0.0000  -0.0000  -0.0000

          k = 0.0000 0.1179 0.0000 (   657 PWs)   bands (ev):

    -2.9393  18.8771  18.8771  19.1655  21.5170  24.1656

     occupation numbers 
     1.0000  -0.0000  -0.0000  -0.0000  -0.0000  -0.0000

          k =-0.0295 0.1473-0.0295 (   662 PWs)   bands (ev):

    -2.7663  17.4570  18.4005  19.3009  21.4998  23.7101

     occupation numbers 
     1.0000  -0.0000  -0.0000  -0.0000  -0.0000  -0.0000

          k =-0.0589 0.1768-0.0589 (   658 PWs)   bands (ev):

    -2.4995  15.8193  17.9986  19.2766  21.8775  22.7811

     occupation numbers 
     1.0000  -0.0000  -0.0000  -0.0000  -0.0000  -0.0000

          k =-0.0884 0.2062-0.0884 (   660 PWs)   bands (ev):

    -2.1392  14.1821  17.6739  19.1147  21.5959  22.8544

     occupation numbers 
     1.0000  -0.0000  -0.0000  -0.0000  -0.0000  -0.0000

          k =-0.1179 0.2357-0.1179 (   653 PWs)   bands (ev):

    -1.6862  12.5828  17.4275  18.9418  20.7501  23.6621

     occupation numbers 
     1.0000  -0.0000  -0.0000  -0.0000  -0.0000  -0.0000

          k =-0.1473 0.2652-0.1473 (   655 PWs)   bands (ev):

    -1.1413  11.0382  17.2601  18.8105  19.9380  24.1236

     occupation numbers 
     1.0000  -0.0000  -0.0000  -0.0000  -0.0000  -0.0000

          k =-0.1768 0.2946-0.1768 (   653 PWs)   bands (ev):

    -0.5057   9.5578  17.1721  18.7361  19.2015  23.6137

     occupation numbers 
     1.0000  -0.0000  -0.0000  -0.0000  -0.0000  -0.0000

          k =-0.2062 0.3241-0.2062 (   653 PWs)   bands (ev):

     0.2196   8.1475  17.1638  18.4859  18.7902  22.9864

     occupation numbers 
     1.0000   0.0690  -0.0000  -0.0000  -0.0000  -0.0000

          k =-0.2357 0.3536-0.2357 (   652 PWs)   bands (ev):

     1.0330   6.8115  17.2355  17.9127  18.8591  22.4258

     occupation numbers 
     1.0000   1.0000  -0.0000  -0.0000  -0.0000  -0.0000

          k =-0.2652 0.3830-0.2652 (   655 PWs)   bands (ev):

     1.9328   5.5534  17.3872  17.4039  19.0248  21.9375

     occupation numbers 
     1.0000   1.0000  -0.0000  -0.0000  -0.0000  -0.0000

          k = 0.4125-0.2946 0.4125 (   660 PWs)   bands (ev):

     2.9141   4.3788  16.9747  17.6191  19.2740  21.5248

     occupation numbers 
     1.0000   1.0000  -0.0000  -0.0000  -0.0000  -0.0000

          k = 0.3830-0.2652 0.3830 (   663 PWs)   bands (ev):

     3.2532   4.0120  16.6271  17.9313  19.6056  21.1894

     occupation numbers 
     1.0000   1.0000  -0.0000  -0.0000  -0.0000  -0.0000

          k = 0.3536-0.2357 0.3536 (   660 PWs)   bands (ev):

     2.2516   5.1513  16.3620  18.3233  20.0181  20.9322

     occupation numbers 
     1.0000   1.0000  -0.0000  -0.0000  -0.0000  -0.0000

          k = 0.3241-0.2062 0.3241 (   655 PWs)   bands (ev):

     1.3236   6.3821  16.1800  18.7942  20.5100  20.7540

     occupation numbers 
     1.0000   1.0000  -0.0000  -0.0000  -0.0000  -0.0000

          k = 0.2946-0.1768 0.2946 (   655 PWs)   bands (ev):

     0.4810   7.6917  16.0814  19.3414  20.6562  21.0786

     occupation numbers 
     1.0000   1.0296  -0.0000  -0.0000  -0.0000  -0.0000

          k = 0.2652-0.1473 0.2652 (   653 PWs)   bands (ev):

    -0.2738   9.0760  16.0667  19.9545  20.6463  21.7199

     occupation numbers 
     1.0000  -0.0000  -0.0000  -0.0000  -0.0000  -0.0000

          k = 0.2357-0.1179 0.2357 (   656 PWs)   bands (ev):

    -0.9395  10.5303  16.1364  20.5218  20.8290  22.4266

     occupation numbers 
     1.0000  -0.0000  -0.0000  -0.0000  -0.0000  -0.0000

          k = 0.2062-0.0884 0.2062 (   652 PWs)   bands (ev):

    -1.5147  12.0475  16.2925  20.7406  21.4895  23.1702

     occupation numbers 
     1.0000  -0.0000  -0.0000  -0.0000  -0.0000  -0.0000

          k = 0.1768-0.0589 0.1768 (   657 PWs)   bands (ev):

    -1.9984  13.6135  16.5404  20.9256  22.2442  23.4807

     occupation numbers 
     1.0000  -0.0000  -0.0000  -0.0000  -0.0000  -0.0000

          k = 0.1473-0.0295 0.1473 (   657 PWs)   bands (ev):

    -2.3897  15.1894  16.9048  21.1044  22.6052  23.4983

     occupation numbers 
     1.0000  -0.0000  -0.0000  -0.0000  -0.0000  -0.0000

          k = 0.1179-0.0000 0.1179 (   660 PWs)   bands (ev):

    -2.6878  16.5880  17.5440  21.0815  22.3678  23.3628

     occupation numbers 
     1.0000  -0.0000  -0.0000  -0.0000  -0.0000  -0.0000

          k = 0.0000 0.1768 0.0000 (   665 PWs)   bands (ev):

    -2.6250  17.8879  17.8879  18.1254  20.9372  22.6105

     occupation numbers 
     1.0000  -0.0000  -0.0000  -0.0000  -0.0000  -0.0000

          k =-0.0295 0.2062-0.0295 (   663 PWs)   bands (ev):

    -2.3897  16.4629  17.4533  18.3594  20.8656  21.5665

     occupation numbers 
     1.0000  -0.0000  -0.0000  -0.0000  -0.0000  -0.0000

          k =-0.0589 0.2357-0.0589 (   661 PWs)   bands (ev):

    -2.0610  14.8633  17.0977  18.4272  20.4984  21.3702

     occupation numbers 
     1.0000  -0.0000  -0.0000  -0.0000  -0.0000  -0.0000

          k =-0.0884 0.2652-0.0884 (   662 PWs)   bands (ev):

    -1.6394  13.2713  16.8217  18.3370  19.5837  22.1258

     occupation numbers 
     1.0000  -0.0000  -0.0000  -0.0000  -0.0000  -0.0000

          k =-0.1179 0.2946-0.1179 (   656 PWs)   bands (ev):

    -1.1258  11.7203  16.6255  18.2080  18.7432  23.0719

     occupation numbers 
     1.0000  -0.0000  -0.0000  -0.0000  -0.0000  -0.0000

          k =-0.1473 0.3241-0.1473 (   655 PWs)   bands (ev):

    -0.5212  10.2260  16.5093  17.8636  18.2309  24.0935

     occupation numbers 
     1.0000  -0.0000  -0.0000  -0.0000  -0.0000  -0.0000

          k =-0.1768 0.3536-0.1768 (   656 PWs)   bands (ev):

     0.1732   8.7976  16.4732  17.1937  18.1861  24.2164

     occupation numbers 
     1.0000  -0.0001  -0.0000  -0.0000  -0.0000  -0.0000

          k =-0.2062 0.3830-0.2062 (   656 PWs)   bands (ev):

     0.9562   7.4406  16.5173  16.5727  18.2475  23.6415

     occupation numbers 
     1.0000   1.0087  -0.0000  -0.0000  -0.0000  -0.0000

          k =-0.2357 0.4125-0.2357 (   657 PWs)   bands (ev):

     1.8259   6.1594  16.0292  16.6417  18.3933  23.1345

     occupation numbers 
     1.0000   1.0000  -0.0000  -0.0000  -0.0000  -0.0000

          k = 0.4419-0.2652 0.4419 (   663 PWs)   bands (ev):

     2.7793   4.9584  15.5672  16.8466  18.6226  22.7002

     occupation numbers 
     1.0000   1.0000  -0.0000  -0.0000  -0.0000  -0.0000

          k = 0.4125-0.2357 0.4125 (   663 PWs)   bands (ev):

     3.7069   3.9478  15.1885  17.1320  18.9355  22.3413

     occupation numbers 
     1.0000   1.0000  -0.0000  -0.0000  -0.0000  -0.0000

          k = 0.3830-0.2062 0.3830 (   665 PWs)   bands (ev):

     2.7800   4.9562  14.8941  17.4977  19.3311  22.0593

     occupation numbers 
     1.0000   1.0000  -0.0000  -0.0000  -0.0000  -0.0000

          k = 0.3536-0.1768 0.3536 (   663 PWs)   bands (ev):

     1.8264   6.1555  14.6851  17.9434  19.8081  21.8547

     occupation numbers 
     1.0000   1.0000  -0.0000  -0.0000  -0.0000  -0.0000

          k = 0.3241-0.1473 0.3241 (   661 PWs)   bands (ev):

     0.9564   7.4338  14.5627  18.4682  20.3639  21.7273

     occupation numbers 
     1.0000   1.0081  -0.0000  -0.0000  -0.0000  -0.0000

          k = 0.2946-0.1179 0.2946 (   655 PWs)   bands (ev):

     0.1734   8.7850  14.5286  19.0704  20.9953  21.6760

     occupation numbers 
     1.0000  -0.0001  -0.0000  -0.0000  -0.0000  -0.0000

          k = 0.2652-0.0884 0.2652 (   650 PWs)   bands (ev):

    -0.5212  10.2016  14.5867  19.7459  21.6971  21.6973

     occupation numbers 
     1.0000  -0.0000  -0.0000  -0.0000  -0.0000  -0.0000

          k = 0.2357-0.0589 0.2357 (   654 PWs)   bands (ev):

    -1.1258  11.6680  14.7475  20.4856  21.7779  22.4619

     occupation numbers 
     1.0000  -0.0000  -0.0000  -0.0000  -0.0000  -0.0000

          k = 0.2062-0.0295 0.2062 (   658 PWs)   bands (ev):

    -1.6394  13.1379  15.0492  21.2632  21.8653  23.2743

     occupation numbers 
     1.0000  -0.0000  -0.0000  -0.0000  -0.0000  -0.0000

          k = 0.1768 0.0000 0.1768 (   658 PWs)   bands (ev):

    -2.0610  14.4171  15.6722  21.6916  22.0284  23.3397

     occupation numbers 
     1.0000  -0.0000  -0.0000  -0.0000  -0.0000  -0.0000

          k = 0.0000 0.2357 0.0000 (   665 PWs)   bands (ev):

    -2.1861  16.9878  16.9878  17.1352  20.2766  20.4486

     occupation numbers 
     1.0000  -0.0000  -0.0000  -0.0000  -0.0000  -0.0000

          k =-0.0295 0.2652-0.0295 (   660 PWs)   bands (ev):

    -1.8891  15.5631  16.6025  17.4712  19.3902  20.2275

     occupation numbers 
     1.0000  -0.0000  -0.0000  -0.0000  -0.0000  -0.0000

          k =-0.0589 0.2946-0.0589 (   659 PWs)   bands (ev):

    -1.4992  14.0097  16.2975  17.5989  18.4299  20.6763

     occupation numbers 
     1.0000  -0.0000  -0.0000  -0.0000  -0.0000  -0.0000

          k =-0.0884 0.3241-0.0884 (   657 PWs)   bands (ev):

    -1.0172  12.4673  16.0729  17.3977  17.7105  21.4832

     occupation numbers 
     1.0000  -0.0000  -0.0000  -0.0000  -0.0000  -0.0000

          k =-0.1179 0.3536-0.1179 (   664 PWs)   bands (ev):

    -0.4440  10.9674  15.9287  16.6542  17.5820  22.4873

     occupation numbers 
     1.0000  -0.0000  -0.0000  -0.0000  -0.0000  -0.0000

          k =-0.1473 0.3830-0.1473 (   662 PWs)   bands (ev):

     0.2191   9.5258  15.8649  15.9210  17.5597  23.5977

     occupation numbers 
     1.0000  -0.0000  -0.0000  -0.0000  -0.0000  -0.0000

          k =-0.1768 0.4125-0.1768 (   661 PWs)   bands (ev):

     0.9710   8.1512  15.2625  15.8815  17.6082  24.7406

     occupation numbers 
     1.0000   0.0634  -0.0000  -0.0000  -0.0000  -0.0000

          k =-0.2062 0.4419-0.2062 (   668 PWs)   bands (ev):

     1.8100   6.8493  14.6849  15.9785  17.7345  24.4039

     occupation numbers 
     1.0000   1.0000  -0.0000  -0.0000  -0.0000  -0.0000

          k = 0.4714-0.2357 0.4714 (   662 PWs)   bands (ev):

     2.7333   5.6250  14.1905  16.1562  17.9426  23.9508

     occupation numbers 
     1.0000   1.0000  -0.0000  -0.0000  -0.0000  -0.0000

          k = 0.4419-0.2062 0.4419 (   668 PWs)   bands (ev):

     3.7272   4.4932  13.7811  16.4144  18.2342  23.5704

     occupation numbers 
     1.0000   1.0000  -0.0000  -0.0000  -0.0000  -0.0000

          k = 0.4125-0.1768 0.4125 (   663 PWs)   bands (ev):

     3.3943   4.8512  13.4580  16.7533  18.6094  23.2651

     occupation numbers 
     1.0000   1.0000  -0.0000  -0.0000  -0.0000  -0.0000

          k = 0.3830-0.1473 0.3830 (   666 PWs)   bands (ev):

     2.4179   6.0149  13.2230  17.1727  19.0670  23.0355

     occupation numbers 
     1.0000   1.0000  -0.0000  -0.0000  -0.0000  -0.0000

          k = 0.3536-0.1179 0.3536 (   659 PWs)   bands (ev):

     1.5216   7.2581  13.0787  17.6722  19.6051  22.8813

     occupation numbers 
     1.0000   1.0006  -0.0000  -0.0000  -0.0000  -0.0000

          k = 0.3241-0.0884 0.3241 (   653 PWs)   bands (ev):

     0.7111   8.5691  13.0305  18.2510  20.2202  22.7988

     occupation numbers 
     1.0000  -0.0044  -0.0000  -0.0000  -0.0000  -0.0000

          k = 0.2946-0.0589 0.2946 (   652 PWs)   bands (ev):

    -0.0116   9.9306  13.0919  18.9074  20.9074  22.7768

     occupation numbers 
     1.0000  -0.0000  -0.0000  -0.0000  -0.0000  -0.0000

          k = 0.2652-0.0295 0.2652 (   648 PWs)   bands (ev):

    -0.6450  11.2912  13.3096  19.6384  21.6587  22.7679

     occupation numbers 
     1.0000  -0.0000  -0.0000  -0.0000  -0.0000  -0.0000

          k = 0.2357-0.0000 0.2357 (   654 PWs)   bands (ev):

    -1.1880  12.4515  13.8751  20.4367  22.4591  22.5428

     occupation numbers 
     1.0000  -0.0000  -0.0000  -0.0000  -0.0000  -0.0000

          k = 0.0000 0.2946 0.0000 (   657 PWs)   bands (ev):

    -1.6238  16.1882  16.1882  16.2366  18.3019  19.6258

     occupation numbers 
     1.0000  -0.0000  -0.0000  -0.0000  -0.0000  -0.0000

          k =-0.0295 0.3241-0.0295 (   662 PWs)   bands (ev):

    -1.2658  14.7663  15.8547  16.6689  17.3002  19.5774

     occupation numbers 
     1.0000  -0.0000  -0.0000  -0.0000  -0.0000  -0.0000

          k =-0.0589 0.3536-0.0589 (   655 PWs)   bands (ev):

    -0.8156  13.2636  15.6020  16.3201  16.9192  20.0557

     occupation numbers 
     1.0000  -0.0000  -0.0000  -0.0000  -0.0000  -0.0000

          k =-0.0884 0.3830-0.0884 (   660 PWs)   bands (ev):

    -0.2742  11.7732  15.4300  15.4770  16.9463  20.9058

     occupation numbers 
     1.0000  -0.0000  -0.0000  -0.0000  -0.0000  -0.0000

          k =-0.1179 0.4125-0.1179 (   667 PWs)   bands (ev):

     0.3572  10.3266  14.7033  15.3385  16.9529  21.9650

     occupation numbers 
     1.0000  -0.0000  -0.0000  -0.0000  -0.0000  -0.0000

          k =-0.1473 0.4419-0.1473 (   664 PWs)   bands (ev):

     1.0775   8.9393  14.0096  15.3277  16.9982  23.1433

     occupation numbers 
     1.0000  -0.0000  -0.0000  -0.0000  -0.0000  -0.0000

          k =-0.1768 0.4714-0.1768 (   667 PWs)   bands (ev):

     1.8848   7.6202  13.3987  15.3974  17.1091  24.3834

     occupation numbers 
     1.0000   1.0344  -0.0000  -0.0000  -0.0000  -0.0000

          k = 0.5009-0.2062 0.5009 (   667 PWs)   bands (ev):

     2.7770   6.3753  12.8724  15.5477  17.2970  25.2719

     occupation numbers 
     1.0000   1.0000  -0.0000  -0.0000  -0.0000  -0.0000

          k = 0.4714-0.1768 0.4714 (   669 PWs)   bands (ev):

     3.7473   5.2127  12.4327  15.7787  17.5668  24.8727

     occupation numbers 
     1.0000   1.0000  -0.0000  -0.0000  -0.0000  -0.0000

          k = 0.4419-0.1473 0.4419 (   664 PWs)   bands (ev):

     4.0866   4.8417  12.0817  16.0905  17.9199  24.5462

     occupation numbers 
     1.0000   1.0000  -0.0000  -0.0000  -0.0000  -0.0000

          k = 0.4125-0.1179 0.4125 (   670 PWs)   bands (ev):

     3.0966   5.9587  11.8227  16.4831  18.3561  24.2936

     occupation numbers 
     1.0000   1.0000  -0.0000  -0.0000  -0.0000  -0.0000

          k = 0.3830-0.0884 0.3830 (   667 PWs)   bands (ev):

     2.1754   7.1597  11.6617  16.9562  18.8738  24.1137

     occupation numbers 
     1.0000   1.0001  -0.0000  -0.0000  -0.0000  -0.0000

          k = 0.3536-0.0589 0.3536 (   665 PWs)   bands (ev):

     1.3384   8.4139  11.6141  17.5096  19.4697  23.9995

     occupation numbers 
     1.0000  -0.0229  -0.0000  -0.0000  -0.0000  -0.0000

          k = 0.3241-0.0295 0.3241 (   662 PWs)   bands (ev):

     0.5883   9.6657  11.7312  18.1424  20.1390  23.9170

     occupation numbers 
     1.0000  -0.0000  -0.0000  -0.0000  -0.0000  -0.0000

          k = 0.2946-0.0000 0.2946 (   660 PWs)   bands (ev):

    -0.0733  10.7107  12.2129  18.8531  20.8736  23.6311

     occupation numbers 
     1.0000  -0.0000  -0.0000  -0.0000  -0.0000  -0.0000

          k = 0.0000 0.3536 0.0000 (   649 PWs)   bands (ev):

    -0.9397  15.4462  15.4932  15.4932  16.2318  18.9983

     occupation numbers 
     1.0000  -0.0000  -0.0000  -0.0000  -0.0000  -0.0000

          k =-0.0295 0.3830-0.0295 (   658 PWs)   bands (ev):

    -0.5215  14.0757  15.2126  15.2527  16.0015  18.9828

     occupation numbers 
     1.0000  -0.0000  -0.0000  -0.0000  -0.0000  -0.0000

          k =-0.0589 0.4125-0.0589 (   657 PWs)   bands (ev):

    -0.0123  12.6257  14.3645  15.0129  16.2630  19.5048

     occupation numbers 
     1.0000  -0.0000  -0.0000  -0.0000  -0.0000  -0.0000

          k =-0.0884 0.4419-0.0884 (   664 PWs)   bands (ev):

     0.5870  11.1894  13.5555  14.8940  16.3618  20.4057

     occupation numbers 
     1.0000  -0.0000  -0.0000  -0.0000  -0.0000  -0.0000

          k =-0.1179 0.4714-0.1179 (   666 PWs)   bands (ev):

     1.2751   9.7982  12.8279  14.8557  16.4303  21.5216

     occupation numbers 
     1.0000  -0.0000  -0.0000  -0.0000  -0.0000  -0.0000

          k =-0.1473 0.5009-0.1473 (   664 PWs)   bands (ev):

     2.0502   8.4673  12.1841  14.8980  16.5365  22.7628

     occupation numbers 
     1.0000  -0.0144  -0.0000  -0.0000  -0.0000  -0.0000

          k = 0.5303-0.1768 0.5303 (   672 PWs)   bands (ev):

     2.9098   7.2056  11.6263  15.0210  16.7084  24.0781

     occupation numbers 
     1.0000   1.0002  -0.0000  -0.0000  -0.0000  -0.0000

          k = 0.5009-0.1473 0.5009 (   672 PWs)   bands (ev):

     3.8492   6.0206  11.1571  15.2248  16.9577  25.4178

     occupation numbers 
     1.0000   1.0000  -0.0000  -0.0000  -0.0000  -0.0000

          k = 0.4714-0.1179 0.4714 (   675 PWs)   bands (ev):

     4.7531   5.0273  10.7800  15.5093  17.2886  25.8972

     occupation numbers 
     1.0000   1.0000  -0.0000  -0.0000  -0.0000  -0.0000

          k = 0.4419-0.0884 0.4419 (   674 PWs)   bands (ev):

     3.8602   5.9822  10.5018  15.8747  17.7025  25.6241

     occupation numbers 
     1.0000   1.0000  -0.0000  -0.0000  -0.0000  -0.0000

          k = 0.4125-0.0589 0.4125 (   671 PWs)   bands (ev):

     2.9162   7.1246  10.3382  16.3210  18.1983  25.4206

     occupation numbers 
     1.0000   1.0000  -0.0000  -0.0000  -0.0000  -0.0000

          k = 0.3830-0.0295 0.3830 (   671 PWs)   bands (ev):

     2.0539   8.2682  10.3430  16.8480  18.7733  25.2688

     occupation numbers 
     1.0000  -0.0309  -0.0000  -0.0000  -0.0000  -0.0000

          k = 0.3536 0.0000 0.3536 (   670 PWs)   bands (ev):

     1.2773   9.2009  10.7232  17.4554  19.4228  24.9506

     occupation numbers 
     1.0000  -0.0000  -0.0000  -0.0000  -0.0000  -0.0000

          k = 0.0000 0.4125 0.0000 (   653 PWs)   bands (ev):

    -0.1356  14.2438  14.7714  14.9044  14.9044  18.4336

     occupation numbers 
     1.0000  -0.0000  -0.0000  -0.0000  -0.0000  -0.0000

          k =-0.0295 0.4419-0.0295 (   653 PWs)   bands (ev):

     0.3412  13.2833  13.5327  14.6772  15.4183  18.4624

     occupation numbers 
     1.0000  -0.0000  -0.0000  -0.0000  -0.0000  -0.0000

          k =-0.0589 0.4714-0.0589 (   658 PWs)   bands (ev):

     0.9080  12.0674  12.5143  14.5309  15.7338  19.0373

     occupation numbers 
     1.0000  -0.0000  -0.0000  -0.0000  -0.0000  -0.0000

          k =-0.0884 0.5009-0.0884 (   666 PWs)   bands (ev):

     1.5633  10.7060  11.7365  14.4652  15.8897  19.9941

     occupation numbers 
     1.0000  -0.0000  -0.0000  -0.0000  -0.0000  -0.0000

          k =-0.1179 0.5303-0.1179 (   668 PWs)   bands (ev):

     2.3052   9.3780  11.0547  14.4803  16.0173  21.1677

     occupation numbers 
     1.0000  -0.0000  -0.0000  -0.0000  -0.0000  -0.0000

          k = 0.5598-0.1473 0.5598 (   668 PWs)   bands (ev):

     3.1308   8.1079  10.4635  14.5759  16.1839  22.4692

     occupation numbers 
     1.0000   0.1414  -0.0000  -0.0000  -0.0000  -0.0000

          k = 0.5303-0.1179 0.5303 (   670 PWs)   bands (ev):

     4.0353   6.9070   9.9651  14.7524  16.4169  23.8499

     occupation numbers 
     1.0000   1.0000  -0.0000  -0.0000  -0.0000  -0.0000

          k = 0.5009-0.0884 0.5009 (   671 PWs)   bands (ev):

     4.9986   5.7942   9.5657  15.0096  16.7272  25.2696

     occupation numbers 
     1.0000   1.0000  -0.0000  -0.0000  -0.0000  -0.0000

          k = 0.4714-0.0589 0.4714 (   676 PWs)   bands (ev):

     4.7053   6.0723   9.2813  15.3477  17.1187  27.0177

     occupation numbers 
     1.0000   1.0000  -0.0000  -0.0000  -0.0000  -0.0000

          k = 0.4419-0.0295 0.4419 (   675 PWs)   bands (ev):

     3.7420   7.1023   9.1657  15.7668  17.5919  26.7957

     occupation numbers 
     1.0000   1.0000  -0.0000  -0.0000  -0.0000  -0.0000

          k = 0.4125-0.0000 0.4125 (   670 PWs)   bands (ev):

     2.8559   7.9243   9.4320  16.2670  18.1448  26.8317

     occupation numbers 
     1.0000   0.6615  -0.0000  -0.0000  -0.0000  -0.0000

          k = 0.0000 0.4714 0.0000 (   644 PWs)   bands (ev):

     0.7855  12.3483  14.2162  14.4227  14.4227  17.9509

     occupation numbers 
     1.0000  -0.0000  -0.0000  -0.0000  -0.0000  -0.0000

          k =-0.0295 0.5009-0.0295 (   663 PWs)   bands (ev):

     1.3193  11.4631  13.0452  14.2490  14.9541  18.0310

     occupation numbers 
     1.0000  -0.0000  -0.0000  -0.0000  -0.0000  -0.0000

          k =-0.0589 0.5303-0.0589 (   664 PWs)   bands (ev):

     1.9410  10.6539  11.7313  14.1560  15.3204  18.6639

     occupation numbers 
     1.0000  -0.0000  -0.0000  -0.0000  -0.0000  -0.0000

          k =-0.0884 0.5598-0.0884 (   668 PWs)   bands (ev):

     2.6484   9.8988  10.4597  14.1438  15.5324  19.6790

     occupation numbers 
     1.0000  -0.0000  -0.0000  -0.0000  -0.0000  -0.0000

          k = 0.5893-0.1179 0.5893 (   668 PWs)   bands (ev):

     3.4377   8.9908   9.4754  14.2122  15.7192  20.9105

     occupation numbers 
     1.0000  -0.0000  -0.0000  -0.0000  -0.0000  -0.0000

          k = 0.5598-0.0884 0.5598 (   672 PWs)   bands (ev):

     4.3018   7.8436   8.8884  14.3613  15.9463  22.2700

     occupation numbers 
     1.0000   0.8654  -0.0000  -0.0000  -0.0000  -0.0000

          k = 0.5303-0.0589 0.5303 (   672 PWs)   bands (ev):

     5.2216   6.7179   8.4658  14.5912  16.2401  23.7097

     occupation numbers 
     1.0000   1.0000  -0.0146  -0.0000  -0.0000  -0.0000

          k = 0.5009-0.0295 0.5009 (   672 PWs)   bands (ev):

     5.6227   6.1814   8.2195  14.9020  16.6108  25.1908

     occupation numbers 
     1.0000   1.0000  -0.0096  -0.0000  -0.0000  -0.0000

          k = 0.4714-0.0000 0.4714 (   680 PWs)   bands (ev):

     4.6497   6.8811   8.3605  15.2939  17.0615  26.6600

     occupation numbers 
     1.0000   1.0000  -0.0315  -0.0000  -0.0000  -0.0000

          k = 0.0000 0.5303 0.0000 (   664 PWs)   bands (ev):

     1.8194  10.5538  13.7828  14.0480  14.0480  17.5635

     occupation numbers 
     1.0000  -0.0000  -0.0000  -0.0000  -0.0000  -0.0000

          k =-0.0295 0.5598-0.0295 (   667 PWs)   bands (ev):

     2.4065   9.7255  12.6949  13.9279  14.6059  17.6993

     occupation numbers 
     1.0000  -0.0000  -0.0000  -0.0000  -0.0000  -0.0000

          k =-0.0589 0.5893-0.0589 (   670 PWs)   bands (ev):

     3.0772   8.9846  11.4309  13.8884  15.0238  18.3923

     occupation numbers 
     1.0000  -0.0000  -0.0000  -0.0000  -0.0000  -0.0000

          k = 0.6187-0.0884 0.6187 (   666 PWs)   bands (ev):

     3.8255   8.3362  10.1778  13.9296  15.2928  19.4661

     occupation numbers 
     1.0000  -0.0343  -0.0000  -0.0000  -0.0000  -0.0000

          k = 0.5893-0.0589 0.5893 (   670 PWs)   bands (ev):

     4.6360   7.7873   8.9792  14.0514  15.5392  20.7545

     occupation numbers 
     1.0000   0.9594  -0.0000  -0.0000  -0.0000  -0.0000

          k = 0.5598-0.0295 0.5598 (   674 PWs)   bands (ev):

     5.4580   7.3276   7.9133  14.2541  15.8268  22.1694

     occupation numbers 
     1.0000   1.0019   0.6932  -0.0000  -0.0000  -0.0000

          k = 0.5303 0.0000 0.5303 (   670 PWs)   bands (ev):

     6.0708   6.5972   7.5698  14.5375  16.1808  23.6624

     occupation numbers 
     1.0000   1.0000   1.0277  -0.0000  -0.0000  -0.0000

          k = 0.0000 0.5893 0.0000 (   664 PWs)   bands (ev):

     2.9569   8.8718  13.4725  13.7805  13.7805  17.2808

     occupation numbers 
     1.0000  -0.0000  -0.0000  -0.0000  -0.0000  -0.0000

          k =-0.0295 0.6187-0.0295 (   664 PWs)   bands (ev):

     3.5864   8.1105  12.4614  13.7139  14.3737  17.4745

     occupation numbers 
     1.0000   0.1360  -0.0000  -0.0000  -0.0000  -0.0000

          k = 0.6482-0.0589 0.6482 (   664 PWs)   bands (ev):

     4.2811   7.4566  11.2542  13.7279  14.8454  18.2275

     occupation numbers 
     1.0000   1.0105  -0.0000  -0.0000  -0.0000  -0.0000

          k = 0.6187-0.0295 0.6187 (   664 PWs)   bands (ev):

     4.9916   6.9586  10.0550  13.8225  15.1725  19.3588

     occupation numbers 
     1.0000   1.0000  -0.0000  -0.0000  -0.0000  -0.0000

          k = 0.5893-0.0000 0.5893 (   674 PWs)   bands (ev):

     5.4927   6.8360   8.9065  13.9979  15.4790  20.7023

     occupation numbers 
     1.0000   1.0000  -0.0000  -0.0000  -0.0000  -0.0000

          k = 0.0000 0.6482 0.0000 (   668 PWs)   bands (ev):

     4.1625   7.3391  13.2861  13.6201  13.6201  17.1089

     occupation numbers 
     1.0000   1.0022  -0.0000  -0.0000  -0.0000  -0.0000

          k = 0.6776-0.0295 0.6776 (   664 PWs)   bands (ev):

     4.7577   6.7213  12.3446  13.6069  14.2576  17.3610

     occupation numbers 
     1.0000   1.0000  -0.0000  -0.0000  -0.0000  -0.0000

          k = 0.6482-0.0000 0.6482 (   666 PWs)   bands (ev):

     5.1461   6.4833  11.1955  13.6744  14.7859  18.1723

     occupation numbers 
     1.0000   1.0000  -0.0000  -0.0000  -0.0000  -0.0000

          k = 0.0000-0.7071 0.0000 (   652 PWs)   bands (ev):

     5.0306   6.3619  13.2239  13.5666  13.5666  17.0512

     occupation numbers 
     1.0000   1.0000  -0.0000  -0.0000  -0.0000  -0.0000

          k =-0.0589 0.1179 0.0000 (   658 PWs)   bands (ev):

    -2.8764  17.7616  18.4273  20.2728  21.9208  23.7031

     occupation numbers 
     1.0000  -0.0000  -0.0000  -0.0000  -0.0000  -0.0000

          k =-0.0884 0.1473-0.0295 (   660 PWs)   bands (ev):

    -2.6407  16.3041  17.8329  20.3009  22.2208  23.7901

     occupation numbers 
     1.0000  -0.0000  -0.0000  -0.0000  -0.0000  -0.0000

          k =-0.1179 0.1768-0.0589 (   659 PWs)   bands (ev):

    -2.3114  14.6817  17.4534  20.1339  22.4184  23.3493

     occupation numbers 
     1.0000  -0.0000  -0.0000  -0.0000  -0.0000  -0.0000

          k =-0.1473 0.2062-0.0884 (   656 PWs)   bands (ev):

    -1.8891  13.0715  17.1694  19.9398  21.7155  23.6145

     occupation numbers 
     1.0000  -0.0000  -0.0000  -0.0000  -0.0000  -0.0000

          k =-0.1768 0.2357-0.1179 (   655 PWs)   bands (ev):

    -1.3746  11.5082  16.9692  19.7855  20.9082  23.5682

     occupation numbers 
     1.0000  -0.0000  -0.0000  -0.0000  -0.0000  -0.0000

          k =-0.2062 0.2652-0.1473 (   650 PWs)   bands (ev):

    -0.7689  10.0055  16.8509  19.6935  20.1511  22.9929

     occupation numbers 
     1.0000  -0.0000  -0.0000  -0.0000  -0.0000  -0.0000

          k =-0.2357 0.2946-0.1768 (   657 PWs)   bands (ev):

    -0.0732   8.5709  16.8141  19.4610  19.6760  22.3287

     occupation numbers 
     1.0000  -0.0043  -0.0000  -0.0000  -0.0000  -0.0000

          k =-0.2652 0.3241-0.2062 (   656 PWs)   bands (ev):

     0.7113   7.2094  16.8588  18.8506  19.7307  21.7304

     occupation numbers 
     1.0000   1.0002  -0.0000  -0.0000  -0.0000  -0.0000

          k =-0.2946 0.3536-0.2357 (   655 PWs)   bands (ev):

     1.5829   5.9244  16.9846  18.3185  19.8635  21.2058

     occupation numbers 
     1.0000   1.0000  -0.0000  -0.0000  -0.0000  -0.0000

          k = 0.3830-0.3241 0.4419 (   658 PWs)   bands (ev):

     2.5387   4.7203  17.1897  17.8691  20.0717  20.7610

     occupation numbers 
     1.0000   1.0000  -0.0000  -0.0000  -0.0000  -0.0000

          k = 0.3536-0.2946 0.4125 (   658 PWs)   bands (ev):

     3.4735   3.7026  17.4149  17.5624  20.2878  20.4660

     occupation numbers 
     1.0000   1.0000  -0.0000  -0.0000  -0.0000  -0.0000

          k =-0.0589 0.1768 0.0000 (   665 PWs)   bands (ev):

    -2.5622  16.7047  17.4667  19.3840  21.3689  22.6748

     occupation numbers 
     1.0000  -0.0000  -0.0000  -0.0000  -0.0000  -0.0000

          k =-0.0884 0.2062-0.0295 (   661 PWs)   bands (ev):

    -2.2644  15.2936  16.9002  19.5033  21.4191  21.9476

     occupation numbers 
     1.0000  -0.0000  -0.0000  -0.0000  -0.0000  -0.0000

          k =-0.1179 0.2357-0.0589 (   657 PWs)   bands (ev):

    -1.8734  13.7180  16.5597  19.4310  20.6222  22.5056

     occupation numbers 
     1.0000  -0.0000  -0.0000  -0.0000  -0.0000  -0.0000

          k =-0.1473 0.2652-0.0884 (   658 PWs)   bands (ev):

    -1.3902  12.1553  16.3214  19.3092  19.7582  23.3842

     occupation numbers 
     1.0000  -0.0000  -0.0000  -0.0000  -0.0000  -0.0000

          k =-0.1768 0.2946-0.1179 (   651 PWs)   bands (ev):

    -0.8154  10.6412  16.1699  18.9471  19.2277  24.0411

     occupation numbers 
     1.0000  -0.0000  -0.0000  -0.0000  -0.0000  -0.0000

          k =-0.2062 0.3241-0.1473 (   651 PWs)   bands (ev):

    -0.1504   9.1894  16.1017  18.2237  19.1927  23.4716

     occupation numbers 
     1.0000  -0.0000  -0.0000  -0.0000  -0.0000  -0.0000

          k =-0.2357 0.3536-0.1768 (   654 PWs)   bands (ev):

     0.6037   7.8072  16.1151  17.5768  19.2318  22.8666

     occupation numbers 
     1.0000   0.9311  -0.0000  -0.0000  -0.0000  -0.0000

          k =-0.2652 0.3830-0.2062 (   656 PWs)   bands (ev):

     1.4454   6.4994  16.2065  17.0148  19.3477  22.3243

     occupation numbers 
     1.0000   1.0000  -0.0000  -0.0000  -0.0000  -0.0000

          k = 0.4125-0.2946 0.4714 (   658 PWs)   bands (ev):

     2.3723   5.2701  16.3297  16.5851  19.5425  21.8547

     occupation numbers 
     1.0000   1.0000  -0.0000  -0.0000  -0.0000  -0.0000

          k = 0.3830-0.2652 0.4419 (   661 PWs)   bands (ev):

     3.3720   4.1326  16.0805  16.6930  19.8163  21.4620

     occupation numbers 
     1.0000   1.0000  -0.0000  -0.0000  -0.0000  -0.0000

          k = 0.3536-0.2357 0.4125 (   665 PWs)   bands (ev):

     3.0343   4.4975  15.7704  17.0273  20.1664  21.1509

     occupation numbers 
     1.0000   1.0000  -0.0000  -0.0000  -0.0000  -0.0000

          k = 0.3241-0.2062 0.3830 (   660 PWs)   bands (ev):

     2.0543   5.6697  15.5359  17.4517  20.5685  20.9454

     occupation numbers 
     1.0000   1.0000  -0.0000  -0.0000  -0.0000  -0.0000

          k = 0.2946-0.1768 0.3536 (   656 PWs)   bands (ev):

     1.1554   6.9248  15.3840  17.9590  20.6928  21.1733

     occupation numbers 
     1.0000   1.0000  -0.0000  -0.0000  -0.0000  -0.0000

          k = 0.2652-0.1473 0.3241 (   655 PWs)   bands (ev):

     0.3426   8.2564  15.3165  18.5467  20.6303  21.7395

     occupation numbers 
     1.0000  -0.0275  -0.0000  -0.0000  -0.0000  -0.0000

          k = 0.2357-0.1179 0.2946 (   652 PWs)   bands (ev):

    -0.3820   9.6594  15.3351  19.2117  20.6251  22.3909

     occupation numbers 
     1.0000  -0.0000  -0.0000  -0.0000  -0.0000  -0.0000

          k = 0.2062-0.0884 0.2652 (   652 PWs)   bands (ev):

    -1.0171  11.1265  15.4425  19.9471  20.6867  23.0967

     occupation numbers 
     1.0000  -0.0000  -0.0000  -0.0000  -0.0000  -0.0000

          k = 0.1768-0.0589 0.2357 (   658 PWs)   bands (ev):

    -1.5615  12.6432  15.6467  20.6786  20.8619  23.5711

     occupation numbers 
     1.0000  -0.0000  -0.0000  -0.0000  -0.0000  -0.0000

          k = 0.1473-0.0295 0.2062 (   661 PWs)   bands (ev):

    -2.0141  14.1673  15.9786  20.8561  21.5923  22.9515

     occupation numbers 
     1.0000  -0.0000  -0.0000  -0.0000  -0.0000  -0.0000

          k = 0.1179-0.0000 0.1768 (   658 PWs)   bands (ev):

    -2.3740  15.5085  16.6061  20.7497  22.0596  22.9538

     occupation numbers 
     1.0000  -0.0000  -0.0000  -0.0000  -0.0000  -0.0000

          k =-0.0589 0.2357 0.0000 (   664 PWs)   bands (ev):

    -2.1235  15.7428  16.5743  18.4787  20.4454  20.8052

     occupation numbers 
     1.0000  -0.0000  -0.0000  -0.0000  -0.0000  -0.0000

          k =-0.0884 0.2652-0.0295 (   662 PWs)   bands (ev):

    -1.7642  14.3838  16.0461  18.6679  19.4884  21.1123

     occupation numbers 
     1.0000  -0.0000  -0.0000  -0.0000  -0.0000  -0.0000

          k =-0.1179 0.2946-0.0589 (   660 PWs)   bands (ev):

    -1.3124  12.8591  15.7502  18.5372  18.7062  21.8449

     occupation numbers 
     1.0000  -0.0000  -0.0000  -0.0000  -0.0000  -0.0000

          k =-0.1473 0.3241-0.0884 (   656 PWs)   bands (ev):

    -0.7690  11.3471  15.5600  17.7208  18.6260  22.7982

     occupation numbers 
     1.0000  -0.0000  -0.0000  -0.0000  -0.0000  -0.0000

          k =-0.1768 0.3536-0.1179 (   657 PWs)   bands (ev):

    -0.1351   9.8848  15.4570  16.9608  18.5938  23.8317

     occupation numbers 
     1.0000  -0.0000  -0.0000  -0.0000  -0.0000  -0.0000

          k =-0.2062 0.3830-0.1473 (   657 PWs)   bands (ev):

     0.5881   8.4860  15.4323  16.2863  18.6203  24.0668

     occupation numbers 
     1.0000  -0.0119  -0.0000  -0.0000  -0.0000  -0.0000

          k =-0.2357 0.4125-0.1768 (   658 PWs)   bands (ev):

     1.3991   7.1580  15.4345  15.7502  18.7185  23.5454

     occupation numbers 
     1.0000   1.0001  -0.0000  -0.0000  -0.0000  -0.0000

          k = 0.4419-0.2652 0.5009 (   661 PWs)   bands (ev):

     2.2959   5.9059  15.0998  15.7173  18.8939  23.0627

     occupation numbers 
     1.0000   1.0000  -0.0000  -0.0000  -0.0000  -0.0000

          k = 0.4125-0.2357 0.4714 (   666 PWs)   bands (ev):

     3.2730   4.7368  14.6811  15.9355  19.1492  22.6489

     occupation numbers 
     1.0000   1.0000  -0.0000  -0.0000  -0.0000  -0.0000

          k = 0.3830-0.2062 0.4419 (   666 PWs)   bands (ev):

     3.6107   4.3708  14.3344  16.2494  19.4848  22.3098

     occupation numbers 
     1.0000   1.0000  -0.0000  -0.0000  -0.0000  -0.0000

          k = 0.3536-0.1768 0.4125 (   663 PWs)   bands (ev):

     2.6142   5.5025  14.0709  16.6488  19.8998  22.0477

     occupation numbers 
     1.0000   1.0000  -0.0000  -0.0000  -0.0000  -0.0000

          k = 0.3241-0.1473 0.3830 (   664 PWs)   bands (ev):

     1.6892   6.7252  13.8936  17.1309  20.3911  21.8641

     occupation numbers 
     1.0000   1.0000  -0.0000  -0.0000  -0.0000  -0.0000

          k = 0.2946-0.1179 0.3536 (   658 PWs)   bands (ev):

     0.8491   8.0227  13.8055  17.6943  20.9490  21.7634

     occupation numbers 
     1.0000   0.3613  -0.0000  -0.0000  -0.0000  -0.0000

          k = 0.2652-0.0884 0.3241 (   652 PWs)   bands (ev):

     0.0963   9.3866  13.8113  18.3371  21.4953  21.8123

     occupation numbers 
     1.0000  -0.0000  -0.0000  -0.0000  -0.0000  -0.0000

          k = 0.2357-0.0589 0.2946 (   652 PWs)   bands (ev):

    -0.5676  10.8007  13.9231  19.0567  21.6548  22.3543

     occupation numbers 
     1.0000  -0.0000  -0.0000  -0.0000  -0.0000  -0.0000

          k = 0.2062-0.0295 0.2652 (   653 PWs)   bands (ev):

    -1.1413  12.2160  14.1833  19.8479  21.6715  22.9947

     occupation numbers 
     1.0000  -0.0000  -0.0000  -0.0000  -0.0000  -0.0000

          k = 0.1768 0.0000 0.2357 (   659 PWs)   bands (ev):

    -1.6238  13.4362  14.7778  20.6990  21.4649  22.9212

     occupation numbers 
     1.0000  -0.0000  -0.0000  -0.0000  -0.0000  -0.0000

          k =-0.0589 0.2946 0.0000 (   664 PWs)   bands (ev):

    -1.5615  14.8853  15.7716  17.6468  18.3650  20.1082

     occupation numbers 
     1.0000  -0.0000  -0.0000  -0.0000  -0.0000  -0.0000

          k =-0.0884 0.3241-0.0295 (   660 PWs)   bands (ev):

    -1.1414  13.5811  15.2842  17.4064  17.9100  20.4697

     occupation numbers 
     1.0000  -0.0000  -0.0000  -0.0000  -0.0000  -0.0000

          k =-0.1179 0.3536-0.0589 (   661 PWs)   bands (ev):

    -0.6297  12.1094  15.0330  16.5340  17.9770  21.2422

     occupation numbers 
     1.0000  -0.0000  -0.0000  -0.0000  -0.0000  -0.0000

          k =-0.1473 0.3830-0.0884 (   661 PWs)   bands (ev):

    -0.0273  10.6502  14.8830  15.7472  17.9828  22.2510

     occupation numbers 
     1.0000  -0.0000  -0.0000  -0.0000  -0.0000  -0.0000

          k =-0.1768 0.4125-0.1179 (   661 PWs)   bands (ev):

     0.6644   9.2415  14.7585  15.1061  18.0110  23.3796

     occupation numbers 
     1.0000  -0.0000  -0.0000  -0.0000  -0.0000  -0.0000

          k =-0.2062 0.4419-0.1473 (   662 PWs)   bands (ev):

     1.4442   7.8973  14.3138  14.9537  18.0964  24.4548

     occupation numbers 
     1.0000   0.7374  -0.0000  -0.0000  -0.0000  -0.0000

          k = 0.4714-0.2357 0.5303 (   664 PWs)   bands (ev):

     2.3100   6.6253  13.7828  15.0560  18.2534  24.3272

     occupation numbers 
     1.0000   1.0000  -0.0000  -0.0000  -0.0000  -0.0000

          k = 0.4419-0.2062 0.5009 (   668 PWs)   bands (ev):

     3.2581   5.4318  13.3213  15.2579  18.4882  23.9144

     occupation numbers 
     1.0000   1.0000  -0.0000  -0.0000  -0.0000  -0.0000

          k = 0.4125-0.1768 0.4714 (   666 PWs)   bands (ev):

     4.1730   4.4332  12.9429  15.5469  18.8031  23.5576

     occupation numbers 
     1.0000   1.0000  -0.0000  -0.0000  -0.0000  -0.0000

          k = 0.3830-0.1473 0.4419 (   665 PWs)   bands (ev):

     3.2610   5.4228  12.6516  15.9203  19.1986  23.2713

     occupation numbers 
     1.0000   1.0000  -0.0000  -0.0000  -0.0000  -0.0000

          k = 0.3536-0.1179 0.4125 (   663 PWs)   bands (ev):

     2.3117   6.6087  12.4511  16.3766  19.6735  23.0571

     occupation numbers 
     1.0000   1.0000  -0.0000  -0.0000  -0.0000  -0.0000

          k = 0.3241-0.0884 0.3830 (   662 PWs)   bands (ev):

     1.4452   7.8652  12.3475  16.9148  20.2253  22.9113

     occupation numbers 
     1.0000   0.8183  -0.0000  -0.0000  -0.0000  -0.0000

          k = 0.2946-0.0589 0.3536 (   658 PWs)   bands (ev):

     0.6650   9.1731  12.3552  17.5336  20.8490  22.8196

     occupation numbers 
     1.0000  -0.0000  -0.0000  -0.0000  -0.0000  -0.0000

          k = 0.2652-0.0295 0.3241 (   653 PWs)   bands (ev):

    -0.0270  10.4791  12.5236  18.2311  21.5358  22.7266

     occupation numbers 
     1.0000  -0.0000  -0.0000  -0.0000  -0.0000  -0.0000

          k = 0.2357-0.0000 0.2946 (   652 PWs)   bands (ev):

    -0.6295  11.5816  13.0482  19.0044  22.2660  22.4141

     occupation numbers 
     1.0000  -0.0000  -0.0000  -0.0000  -0.0000  -0.0000

          k =-0.0589 0.3536 0.0000 (   659 PWs)   bands (ev):

    -0.8776  14.1369  15.0614  16.3114  16.9138  19.4885

     occupation numbers 
     1.0000  -0.0000  -0.0000  -0.0000  -0.0000  -0.0000

          k =-0.0884 0.3830-0.0295 (   658 PWs)   bands (ev):

    -0.3978  12.8884  14.6044  15.4177  17.2316  19.8884

     occupation numbers 
     1.0000  -0.0000  -0.0000  -0.0000  -0.0000  -0.0000

          k =-0.1179 0.4125-0.0589 (   666 PWs)   bands (ev):

     0.1726  11.4708  14.3163  14.6771  17.3620  20.7071

     occupation numbers 
     1.0000  -0.0000  -0.0000  -0.0000  -0.0000  -0.0000

          k =-0.1473 0.4419-0.0884 (   664 PWs)   bands (ev):

     0.8325  10.0659  13.7442  14.4132  17.4277  21.7713

     occupation numbers 
     1.0000  -0.0000  -0.0000  -0.0000  -0.0000  -0.0000

          k =-0.1768 0.4714-0.1179 (   663 PWs)   bands (ev):

     1.5803   8.7124  13.0986  14.3971  17.5147  22.9691

     occupation numbers 
     1.0000  -0.0004  -0.0000  -0.0000  -0.0000  -0.0000

          k = 0.5009-0.2062 0.5598 (   667 PWs)   bands (ev):

     2.4142   7.4246  12.5209  14.4846  17.6589  24.2252

     occupation numbers 
     1.0000   1.0072  -0.0000  -0.0000  -0.0000  -0.0000

          k = 0.4714-0.1768 0.5303 (   669 PWs)   bands (ev):

     3.3309   6.2107  12.0255  14.6613  17.8748  25.1145

     occupation numbers 
     1.0000   1.0000  -0.0000  -0.0000  -0.0000  -0.0000

          k = 0.4419-0.1473 0.5009 (   669 PWs)   bands (ev):

     4.3139   5.0888  11.6173  14.9238  18.1686  24.8630

     occupation numbers 
     1.0000   1.0000  -0.0000  -0.0000  -0.0000  -0.0000

          k = 0.4125-0.1179 0.4714 (   669 PWs)   bands (ev):

     3.9914   5.4298  11.3005  15.2705  18.5425  24.5670

     occupation numbers 
     1.0000   1.0000  -0.0000  -0.0000  -0.0000  -0.0000

          k = 0.3830-0.0884 0.4419 (   671 PWs)   bands (ev):

     3.0213   6.5706  11.0818  15.7004  18.9964  24.3286

     occupation numbers 
     1.0000   1.0000  -0.0000  -0.0000  -0.0000  -0.0000

          k = 0.3536-0.0589 0.4125 (   666 PWs)   bands (ev):

     2.1297   7.7696  10.9771  16.2127  19.5286  24.1452

     occupation numbers 
     1.0000   0.9801  -0.0000  -0.0000  -0.0000  -0.0000

          k = 0.3241-0.0295 0.3830 (   666 PWs)   bands (ev):

     1.3230   8.9672  11.0391  16.8063  20.1354  23.9741

     occupation numbers 
     1.0000  -0.0000  -0.0000  -0.0000  -0.0000  -0.0000

          k = 0.2946-0.0000 0.3536 (   659 PWs)   bands (ev):

     0.6036   9.9558  11.4711  17.4798  20.8100  23.5920

     occupation numbers 
     1.0000  -0.0000  -0.0000  -0.0000  -0.0000  -0.0000

          k =-0.0589 0.4125 0.0000 (   659 PWs)   bands (ev):

    -0.0740  13.5006  14.2122  14.5795  16.2888  18.9336

     occupation numbers 
     1.0000  -0.0000  -0.0000  -0.0000  -0.0000  -0.0000

          k =-0.0884 0.4419-0.0295 (   662 PWs)   bands (ev):

     0.4642  12.3042  13.4001  14.1427  16.6628  19.3820

     occupation numbers 
     1.0000  -0.0000  -0.0000  -0.0000  -0.0000  -0.0000

          k =-0.1179 0.4714-0.0589 (   662 PWs)   bands (ev):

     1.0917  10.9414  12.6403  13.9769  16.8509  20.2532

     occupation numbers 
     1.0000  -0.0000  -0.0000  -0.0000  -0.0000  -0.0000

          k =-0.1473 0.5009-0.0884 (   666 PWs)   bands (ev):

     1.8069   9.5933  11.9464  13.9394  16.9748  21.3744

     occupation numbers 
     1.0000  -0.0000  -0.0000  -0.0000  -0.0000  -0.0000

          k = 0.5303-0.1768 0.5893 (   665 PWs)   bands (ev):

     2.6079   8.2975  11.3329  13.9989  17.1203  22.6348

     occupation numbers 
     1.0000  -0.0351  -0.0000  -0.0000  -0.0000  -0.0000

          k = 0.5009-0.1473 0.5598 (   666 PWs)   bands (ev):

     3.4912   7.0683  10.8059  14.1475  17.3231  23.9729

     occupation numbers 
     1.0000   1.0000  -0.0000  -0.0000  -0.0000  -0.0000

          k = 0.4714-0.1179 0.5303 (   668 PWs)   bands (ev):

     4.4483   5.9176  10.3700  14.3821  17.5979  25.3089

     occupation numbers 
     1.0000   1.0000  -0.0000  -0.0000  -0.0000  -0.0000

          k = 0.4419-0.0884 0.5009 (   666 PWs)   bands (ev):

     4.7967   5.5250  10.0324  14.7015  17.9503  25.8703

     occupation numbers 
     1.0000   1.0000  -0.0000  -0.0000  -0.0000  -0.0000

          k = 0.4125-0.0589 0.4714 (   669 PWs)   bands (ev):

     3.8159   6.5967   9.8094  15.1045  18.3822  25.6569

     occupation numbers 
     1.0000   1.0000  -0.0000  -0.0000  -0.0000  -0.0000

          k = 0.3830-0.0295 0.4419 (   671 PWs)   bands (ev):

     2.9008   7.6852   9.7549  15.5903  18.8927  25.4261

     occupation numbers 
     1.0000   1.0312  -0.0000  -0.0000  -0.0000  -0.0000

          k = 0.3536-0.0000 0.4125 (   667 PWs)   bands (ev):

     2.0689   8.5625  10.0792  16.1580  19.4791  24.9906

     occupation numbers 
     1.0000  -0.0048  -0.0000  -0.0000  -0.0000  -0.0000

          k =-0.0589 0.4714 0.0000 (   662 PWs)   bands (ev):

     0.8468  12.3943  12.9780  14.0141  15.7756  18.4604

     occupation numbers 
     1.0000  -0.0000  -0.0000  -0.0000  -0.0000  -0.0000

          k =-0.0884 0.5009-0.0295 (   664 PWs)   bands (ev):

     1.4413  11.5341  11.8934  13.6725  16.2049  18.9634

     occupation numbers 
     1.0000  -0.0000  -0.0000  -0.0000  -0.0000  -0.0000

          k =-0.1179 0.5303-0.0589 (   665 PWs)   bands (ev):

     2.1232  10.4725  10.9248  13.5776  16.4494  19.8910

     occupation numbers 
     1.0000  -0.0000  -0.0000  -0.0000  -0.0000  -0.0000

          k = 0.5598-0.1473 0.6187 (   667 PWs)   bands (ev):

     2.8898   9.2187  10.2439  13.6006  16.6311  21.0698

     occupation numbers 
     1.0000  -0.0000  -0.0000  -0.0000  -0.0000  -0.0000

          k = 0.5303-0.1179 0.5893 (   667 PWs)   bands (ev):

     3.7372   7.9913   9.6782  13.7181  16.8349  22.3897

     occupation numbers 
     1.0000   0.4569  -0.0000  -0.0000  -0.0000  -0.0000

          k = 0.5009-0.0884 0.5598 (   667 PWs)   bands (ev):

     4.6565   6.8265   9.2155  13.9236  17.0964  23.7928

     occupation numbers 
     1.0000   1.0000  -0.0000  -0.0000  -0.0000  -0.0000

          k = 0.4714-0.0589 0.5303 (   670 PWs)   bands (ev):

     5.5502   5.8161   8.8687  14.2148  17.4296  25.2303

     occupation numbers 
     1.0000   1.0000  -0.0000  -0.0000  -0.0000  -0.0000

          k = 0.4419-0.0295 0.5009 (   671 PWs)   bands (ev):

     4.6927   6.6368   8.6904  14.5903  17.8398  26.5762

     occupation numbers 
     1.0000   1.0000  -0.0007  -0.0000  -0.0000  -0.0000

          k = 0.4125-0.0000 0.4714 (   671 PWs)   bands (ev):

     3.7566   7.4026   8.8959  15.0491  18.3281  26.5966

     occupation numbers 
     1.0000   1.0055  -0.0000  -0.0000  -0.0000  -0.0000

          k =-0.0589 0.5303 0.0000 (   667 PWs)   bands (ev):

     1.8802  10.6078  12.5705  13.6256  15.3758  18.0814

     occupation numbers 
     1.0000  -0.0000  -0.0000  -0.0000  -0.0000  -0.0000

          k =-0.0884 0.5598-0.0295 (   667 PWs)   bands (ev):

     2.5275   9.8346  11.5124  13.3353  15.8603  18.6422

     occupation numbers 
     1.0000  -0.0000  -0.0000  -0.0000  -0.0000  -0.0000

          k = 0.5893-0.1179 0.6482 (   668 PWs)   bands (ev):

     3.2576   9.1431  10.2891  13.2964  16.1609  19.6278

     occupation numbers 
     1.0000  -0.0000  -0.0000  -0.0000  -0.0000  -0.0000

          k = 0.5598-0.0884 0.6187 (   667 PWs)   bands (ev):

     4.0640   8.5108   9.1114  13.3760  16.4003  20.8637

     occupation numbers 
     1.0000  -0.0091  -0.0000  -0.0000  -0.0000  -0.0000

          k = 0.5303-0.0589 0.5893 (   668 PWs)   bands (ev):

     4.9306   7.7170   8.2583  13.5499  16.6625  22.2404

     occupation numbers 
     1.0000   1.0201  -0.0282  -0.0000  -0.0000  -0.0000

          k = 0.5009-0.0295 0.5598 (   671 PWs)   bands (ev):

     5.8027   6.6772   7.8842  13.8117  16.9823  23.7003

     occupation numbers 
     1.0000   1.0000   0.7718  -0.0000  -0.0000  -0.0000

          k = 0.4714-0.0000 0.5303 (   669 PWs)   bands (ev):

     5.6455   6.4758   7.9464  14.1590  17.3732  25.1962

     occupation numbers 
     1.0000   1.0000   0.5958  -0.0000  -0.0000  -0.0000

          k =-0.0589 0.5893 0.0000 (   665 PWs)   bands (ev):

     3.0171   8.9290  12.2788  13.3503  15.0902  17.8052

     occupation numbers 
     1.0000  -0.0000  -0.0000  -0.0000  -0.0000  -0.0000

          k = 0.6187-0.0884 0.6776 (   665 PWs)   bands (ev):

     3.7060   8.2260  11.2767  13.1118  15.6301  18.4248

     occupation numbers 
     1.0000  -0.0137  -0.0000  -0.0000  -0.0000  -0.0000

          k = 0.5893-0.0589 0.6482 (   665 PWs)   bands (ev):

     4.4587   7.6304  10.1008  13.1281  15.9873  19.4681

     occupation numbers 
     1.0000   1.0351  -0.0000  -0.0000  -0.0000  -0.0000

          k = 0.5598-0.0295 0.6187 (   668 PWs)   bands (ev):

     5.2253   7.1871   8.9399  13.2638  16.2845  20.7598

     occupation numbers 
     1.0000   1.0002  -0.0000  -0.0000  -0.0000  -0.0000

          k = 0.5303 0.0000 0.5893 (   673 PWs)   bands (ev):

     5.7817   7.0771   7.8800  13.4938  16.6048  22.1903

     occupation numbers 
     1.0000   1.0000   0.7825  -0.0000  -0.0000  -0.0000

          k = 0.6482-0.0589 0.7071 (   664 PWs)   bands (ev):

     4.2218   7.3981  12.1036  13.1855  14.9187  17.6373

     occupation numbers 
     1.0000   1.0052  -0.0000  -0.0000  -0.0000  -0.0000

          k = 0.6187-0.0295 0.6776 (   661 PWs)   bands (ev):

     4.8747   6.8410  11.1595  13.0001  15.5149  18.3152

     occupation numbers 
     1.0000   1.0000  -0.0000  -0.0000  -0.0000  -0.0000

          k = 0.5893-0.0000 0.6482 (   660 PWs)   bands (ev):

     5.3193   6.6635  10.0402  13.0721  15.9293  19.4146

     occupation numbers 
     1.0000   1.0000  -0.0000  -0.0000  -0.0000  -0.0000

          k =-0.0589-0.7071 0.0000 (   662 PWs)   bands (ev):

     5.0883   6.4228  12.0452  13.1305  14.8616  17.5810

     occupation numbers 
     1.0000   1.0000  -0.0000  -0.0000  -0.0000  -0.0000

          k =-0.1179 0.2357 0.0000 (   663 PWs)   bands (ev):

    -1.9359  14.5342  15.7166  19.9702  20.5718  21.8348

     occupation numbers 
     1.0000  -0.0000  -0.0000  -0.0000  -0.0000  -0.0000

          k =-0.1473 0.2652-0.0295 (   655 PWs)   bands (ev):

    -1.5147  13.2502  15.1199  19.6622  20.1632  22.3149

     occupation numbers 
     1.0000  -0.0000  -0.0000  -0.0000  -0.0000  -0.0000

          k =-0.1768 0.2946-0.0589 (   651 PWs)   bands (ev):

    -1.0016  11.7796  14.8296  18.8077  20.1605  23.1277

     occupation numbers 
     1.0000  -0.0000  -0.0000  -0.0000  -0.0000  -0.0000

          k =-0.2062 0.3241-0.0884 (   653 PWs)   bands (ev):

    -0.3975  10.3147  14.6734  18.0252  20.1304  23.4472

     occupation numbers 
     1.0000  -0.0000  -0.0000  -0.0000  -0.0000  -0.0000

          k =-0.2357 0.3536-0.1179 (   658 PWs)   bands (ev):

     0.2963   8.8998  14.6165  17.3203  20.1398  22.8640

     occupation numbers 
     1.0000  -0.0000  -0.0000  -0.0000  -0.0000  -0.0000

          k =-0.2652 0.3830-0.1473 (   662 PWs)   bands (ev):

     1.0786   7.5501  14.6491  16.6967  20.2115  22.2768

     occupation numbers 
     1.0000   1.0245  -0.0000  -0.0000  -0.0000  -0.0000

          k = 0.4125-0.2946 0.5303 (   660 PWs)   bands (ev):

     1.9475   6.2733  14.7658  16.1581  20.3526  21.7547

     occupation numbers 
     1.0000   1.0000  -0.0000  -0.0000  -0.0000  -0.0000

          k = 0.3830-0.2652 0.5009 (   663 PWs)   bands (ev):

     2.8999   5.0754  14.9557  15.7151  20.5585  21.3167

     occupation numbers 
     1.0000   1.0000  -0.0000  -0.0000  -0.0000  -0.0000

          k = 0.3536-0.2357 0.4714 (   666 PWs)   bands (ev):

     3.8235   4.0698  15.1190  15.4674  20.7331  21.0642

     occupation numbers 
     1.0000   1.0000  -0.0000  -0.0000  -0.0000  -0.0000

          k =-0.1179 0.2946 0.0000 (   662 PWs)   bands (ev):

    -1.3746  13.6699  14.9070  18.5236  19.1799  21.1844

     occupation numbers 
     1.0000  -0.0000  -0.0000  -0.0000  -0.0000  -0.0000

          k =-0.1473 0.3241-0.0295 (   659 PWs)   bands (ev):

    -0.8930  12.4430  14.3490  17.6287  19.4416  21.7228

     occupation numbers 
     1.0000  -0.0000  -0.0000  -0.0000  -0.0000  -0.0000

          k =-0.1768 0.3536-0.0589 (   657 PWs)   bands (ev):

    -0.3204  11.0267  14.1043  16.8098  19.5107  22.6094

     occupation numbers 
     1.0000  -0.0000  -0.0000  -0.0000  -0.0000  -0.0000

          k =-0.2062 0.3830-0.0884 (   659 PWs)   bands (ev):

     0.3422   9.6150  13.9966  16.0716  19.5455  23.5569

     occupation numbers 
     1.0000  -0.0000  -0.0000  -0.0000  -0.0000  -0.0000

          k =-0.2357 0.4125-0.1179 (   659 PWs)   bands (ev):

     1.0935   8.2541  13.9863  15.4191  19.6164  23.4880

     occupation numbers 
     1.0000  -0.0268  -0.0000  -0.0000  -0.0000  -0.0000

          k = 0.4419-0.2652 0.5598 (   663 PWs)   bands (ev):

     1.9316   6.9595  14.0516  14.8657  19.7489  22.9866

     occupation numbers 
     1.0000   1.0000  -0.0000  -0.0000  -0.0000  -0.0000

          k = 0.4125-0.2357 0.5303 (   668 PWs)   bands (ev):

     2.8541   5.7395  14.0919  14.5097  19.9525  22.5238

     occupation numbers 
     1.0000   1.0000  -0.0000  -0.0000  -0.0000  -0.0000

          k = 0.3830-0.2062 0.5009 (   670 PWs)   bands (ev):

     3.8464   4.6112  13.8407  14.6170  20.2304  22.1304

     occupation numbers 
     1.0000   1.0000  -0.0000  -0.0000  -0.0000  -0.0000

          k = 0.3536-0.1768 0.4714 (   664 PWs)   bands (ev):

     3.5130   4.9707  13.5452  14.9403  20.5799  21.8162

     occupation numbers 
     1.0000   1.0000  -0.0000  -0.0000  -0.0000  -0.0000

          k = 0.3241-0.1473 0.4419 (   664 PWs)   bands (ev):

     2.5382   6.1331  13.3194  15.3666  20.9808  21.6017

     occupation numbers 
     1.0000   1.0000  -0.0000  -0.0000  -0.0000  -0.0000

          k = 0.2946-0.1179 0.4125 (   661 PWs)   bands (ev):

     1.6431   7.3749  13.1789  15.8815  21.2394  21.6751

     occupation numbers 
     1.0000   1.0038  -0.0000  -0.0000  -0.0000  -0.0000

          k = 0.2652-0.0884 0.3830 (   659 PWs)   bands (ev):

     0.8335   8.6846  13.1317  16.4807  21.2030  22.1731

     occupation numbers 
     1.0000  -0.0007  -0.0000  -0.0000  -0.0000  -0.0000

          k = 0.2357-0.0589 0.3536 (   655 PWs)   bands (ev):

     0.1116  10.0452  13.1918  17.1617  21.1525  22.7569

     occupation numbers 
     1.0000  -0.0000  -0.0000  -0.0000  -0.0000  -0.0000

          k = 0.2062-0.0295 0.3241 (   651 PWs)   bands (ev):

    -0.5213  11.4059  13.4047  17.9219  21.0751  22.9212

     occupation numbers 
     1.0000  -0.0000  -0.0000  -0.0000  -0.0000  -0.0000

          k = 0.1768 0.0000 0.2946 (   656 PWs)   bands (ev):

    -1.0637  12.5683  13.9598  18.7575  20.7922  22.4233

     occupation numbers 
     1.0000  -0.0000  -0.0000  -0.0000  -0.0000  -0.0000

          k =-0.1179 0.3536 0.0000 (   660 PWs)   bands (ev):

    -0.6916  12.9183  14.1869  16.4891  18.4647  20.5908

     occupation numbers 
     1.0000  -0.0000  -0.0000  -0.0000  -0.0000  -0.0000

          k =-0.1473 0.3830-0.0295 (   658 PWs)   bands (ev):

    -0.1507  11.7481  13.6697  15.6402  18.7902  21.1744

     occupation numbers 
     1.0000  -0.0000  -0.0000  -0.0000  -0.0000  -0.0000

          k =-0.1768 0.4125-0.0589 (   662 PWs)   bands (ev):

     0.4802  10.3865  13.4671  14.8753  18.9246  22.1180

     occupation numbers 
     1.0000  -0.0000  -0.0000  -0.0000  -0.0000  -0.0000

          k =-0.2062 0.4419-0.0884 (   661 PWs)   bands (ev):

     1.1998   9.0294  13.3866  14.2116  19.0208  23.2246

     occupation numbers 
     1.0000  -0.0000  -0.0000  -0.0000  -0.0000  -0.0000

          k = 0.4714-0.2357 0.5893 (   661 PWs)   bands (ev):

     2.0064   7.7238  13.2885  13.7523  19.1512  24.0691

     occupation numbers 
     1.0000   1.0165  -0.0000  -0.0000  -0.0000  -0.0000

          k = 0.4419-0.2062 0.5598 (   665 PWs)   bands (ev):

     2.8977   6.4860  12.9269  13.7345  19.3427  23.8057

     occupation numbers 
     1.0000   1.0000  -0.0000  -0.0000  -0.0000  -0.0000

          k = 0.4125-0.1768 0.5303 (   670 PWs)   bands (ev):

     3.8670   5.3278  12.5200  13.9374  19.6056  23.4146

     occupation numbers 
     1.0000   1.0000  -0.0000  -0.0000  -0.0000  -0.0000

          k = 0.3830-0.1473 0.5009 (   668 PWs)   bands (ev):

     4.2035   4.9614  12.1805  14.2486  19.9436  23.0754

     occupation numbers 
     1.0000   1.0000  -0.0000  -0.0000  -0.0000  -0.0000

          k = 0.3536-0.1179 0.4714 (   666 PWs)   bands (ev):

     3.2157   6.0768  11.9266  14.6516  20.3570  22.8028

     occupation numbers 
     1.0000   1.0000  -0.0000  -0.0000  -0.0000  -0.0000

          k = 0.3241-0.0884 0.4419 (   664 PWs)   bands (ev):

     2.2960   7.2767  11.7680  15.1413  20.8427  22.5955

     occupation numbers 
     1.0000   1.0008  -0.0000  -0.0000  -0.0000  -0.0000

          k = 0.2946-0.0589 0.4125 (   663 PWs)   bands (ev):

     1.4601   8.5299  11.7208  15.7154  21.3921  22.4390

     occupation numbers 
     1.0000  -0.0072  -0.0000  -0.0000  -0.0000  -0.0000

          k = 0.2652-0.0295 0.3830 (   658 PWs)   bands (ev):

     0.7108   9.7814  11.8363  16.3718  21.9659  22.2916

     occupation numbers 
     1.0000  -0.0000  -0.0000  -0.0000  -0.0000  -0.0000

          k = 0.2357-0.0000 0.3536 (   660 PWs)   bands (ev):

     0.0499  10.8271  12.3134  17.1083  21.8447  22.5915

     occupation numbers 
     1.0000  -0.0000  -0.0000  -0.0000  -0.0000  -0.0000

          k =-0.1179 0.4125 0.0000 (   660 PWs)   bands (ev):

     0.1110  12.2808  13.5374  14.5547  17.8482  20.0586

     occupation numbers 
     1.0000  -0.0000  -0.0000  -0.0000  -0.0000  -0.0000

          k =-0.1473 0.4419-0.0295 (   660 PWs)   bands (ev):

     0.7098  11.1661  13.0367  13.7868  18.2343  20.6920

     occupation numbers 
     1.0000  -0.0000  -0.0000  -0.0000  -0.0000  -0.0000

          k =-0.1768 0.4714-0.0589 (   662 PWs)   bands (ev):

     1.3973   9.8594  12.7256  13.2338  18.4304  21.6910

     occupation numbers 
     1.0000  -0.0000  -0.0000  -0.0000  -0.0000  -0.0000

          k = 0.5009-0.2062 0.6187 (   664 PWs)   bands (ev):

     2.1716   8.5582  12.2335  13.0887  18.5863  22.8764

     occupation numbers 
     1.0000  -0.0051  -0.0000  -0.0000  -0.0000  -0.0000

          k = 0.4714-0.1768 0.5893 (   668 PWs)   bands (ev):

     3.0305   7.3098  11.7119  13.1632  18.7754  24.1046

     occupation numbers 
     1.0000   1.0014  -0.0000  -0.0000  -0.0000  -0.0000

          k = 0.4419-0.1473 0.5598 (   670 PWs)   bands (ev):

     3.9689   6.1318  11.2561  13.3540  19.0251  24.6623

     occupation numbers 
     1.0000   1.0000  -0.0000  -0.0000  -0.0000  -0.0000

          k = 0.4125-0.1179 0.5303 (   666 PWs)   bands (ev):

     4.8692   5.1451  10.8853  13.6408  19.3460  24.3982

     occupation numbers 
     1.0000   1.0000  -0.0000  -0.0000  -0.0000  -0.0000

          k = 0.3830-0.0884 0.5009 (   670 PWs)   bands (ev):

     3.9778   6.1001  10.6103  14.0174  19.7417  24.1114

     occupation numbers 
     1.0000   1.0000  -0.0000  -0.0000  -0.0000  -0.0000

          k = 0.3536-0.0589 0.4714 (   670 PWs)   bands (ev):

     3.0356   7.2415  10.4483  14.4808  20.2124  23.8601

     occupation numbers 
     1.0000   1.0004  -0.0000  -0.0000  -0.0000  -0.0000

          k = 0.3241-0.0295 0.4419 (   665 PWs)   bands (ev):

     2.1746   8.3844  10.4530  15.0290  20.7552  23.5988

     occupation numbers 
     1.0000  -0.0278  -0.0000  -0.0000  -0.0000  -0.0000

          k = 0.2946-0.0000 0.4125 (   661 PWs)   bands (ev):

     1.3990   9.3172  10.8311  15.6600  21.3622  23.1228

     occupation numbers 
     1.0000  -0.0000  -0.0000  -0.0000  -0.0000  -0.0000

          k =-0.1179 0.4714 0.0000 (   660 PWs)   bands (ev):

     1.0305  11.7583  12.4800  13.2222  17.3390  19.6044

     occupation numbers 
     1.0000  -0.0000  -0.0000  -0.0000  -0.0000  -0.0000

          k =-0.1473 0.5009-0.0295 (   663 PWs)   bands (ev):

     1.6852  10.6935  11.7686  12.7743  17.7840  20.2915

     occupation numbers 
     1.0000  -0.0000  -0.0000  -0.0000  -0.0000  -0.0000

          k = 0.5303-0.1768 0.6482 (   666 PWs)   bands (ev):

     2.4263   9.4425  11.1325  12.6552  18.0397  21.3467

     occupation numbers 
     1.0000  -0.0000  -0.0000  -0.0000  -0.0000  -0.0000

          k = 0.5009-0.1473 0.6187 (   666 PWs)   bands (ev):

     3.2512   8.2001  10.5598  12.7019  18.2544  22.5963

     occupation numbers 
     1.0000   0.0054  -0.0000  -0.0000  -0.0000  -0.0000

          k = 0.4714-0.1179 0.5893 (   668 PWs)   bands (ev):

     4.1548   7.0118  10.0700  12.8618  18.5016  23.9344

     occupation numbers 
     1.0000   1.0000  -0.0000  -0.0000  -0.0000  -0.0000

          k = 0.4419-0.0884 0.5598 (   667 PWs)   bands (ev):

     5.1169   5.9058   9.6751  13.1190  18.8089  25.1902

     occupation numbers 
     1.0000   1.0000  -0.0000  -0.0000  -0.0000  -0.0000

          k = 0.4125-0.0589 0.5303 (   668 PWs)   bands (ev):

     4.8205   6.1897   9.3931  13.4670  19.1868  25.4327

     occupation numbers 
     1.0000   1.0000  -0.0000  -0.0000  -0.0000  -0.0000

          k = 0.3830-0.0295 0.5009 (   671 PWs)   bands (ev):

     3.8597   7.2186   9.2784  13.9028  19.6384  25.1548

     occupation numbers 
     1.0000   1.0003  -0.0000  -0.0000  -0.0000  -0.0000

          k = 0.3536 0.0000 0.4714 (   666 PWs)   bands (ev):

     2.9753   8.0404   9.5441  14.4241  20.1630  24.6185

     occupation numbers 
     1.0000   0.3098  -0.0000  -0.0000  -0.0000  -0.0000

          k =-0.1179 0.5303 0.0000 (   662 PWs)   bands (ev):

     2.0625  10.7633  11.3514  12.7568  16.9409  19.2406

     occupation numbers 
     1.0000  -0.0000  -0.0000  -0.0000  -0.0000  -0.0000

          k = 0.5598-0.1473 0.6776 (   665 PWs)   bands (ev):

     2.7692  10.0163  10.4066  12.3909  17.4439  19.9836

     occupation numbers 
     1.0000  -0.0000  -0.0000  -0.0000  -0.0000  -0.0000

          k = 0.5303-0.1179 0.6482 (   666 PWs)   bands (ev):

     3.5577   9.0796   9.5499  12.3514  17.7581  21.0951

     occupation numbers 
     1.0000  -0.0000  -0.0000  -0.0000  -0.0000  -0.0000

          k = 0.5009-0.0884 0.6187 (   669 PWs)   bands (ev):

     4.4208   7.9395   8.9924  12.4645  18.0309  22.4034

     occupation numbers 
     1.0000   0.6166  -0.0000  -0.0000  -0.0000  -0.0000

          k = 0.4714-0.0589 0.5893 (   671 PWs)   bands (ev):

     5.3396   6.8236   8.5769  12.6860  18.3356  23.8102

     occupation numbers 
     1.0000   1.0000  -0.0039  -0.0000  -0.0000  -0.0000

          k = 0.4419-0.0295 0.5598 (   668 PWs)   bands (ev):

     5.7348   6.2976   8.3334  13.0028  18.6997  25.2371

     occupation numbers 
     1.0000   1.0000  -0.0345  -0.0000  -0.0000  -0.0000

          k = 0.4125-0.0000 0.5303 (   672 PWs)   bands (ev):

     4.7651   6.9970   8.4750  13.4094  19.1332  26.3202

     occupation numbers 
     1.0000   1.0000  -0.0134  -0.0000  -0.0000  -0.0000

          k = 0.5893-0.1179 0.7071 (   668 PWs)   bands (ev):

     3.1975   9.0984  11.0606  12.4623  16.6558  18.9755

     occupation numbers 
     1.0000  -0.0000  -0.0000  -0.0000  -0.0000  -0.0000

          k = 0.5598-0.0884 0.6776 (   669 PWs)   bands (ev):

     3.9449   8.4528  10.1372  12.1534  17.2163  19.7749

     occupation numbers 
     1.0000  -0.0165  -0.0000  -0.0000  -0.0000  -0.0000

          k = 0.5303-0.0589 0.6482 (   665 PWs)   bands (ev):

     4.7543   7.9061   9.0313  12.1747  17.5883  20.9420

     occupation numbers 
     1.0000   0.7134  -0.0000  -0.0000  -0.0000  -0.0000

          k = 0.5009-0.0295 0.6187 (   672 PWs)   bands (ev):

     5.5749   7.4466   7.9997  12.3474  17.9185  22.3055

     occupation numbers 
     1.0000   1.0093   0.4308  -0.0000  -0.0000  -0.0000

          k = 0.4714-0.0000 0.5893 (   666 PWs)   bands (ev):

     6.1865   6.7057   7.6816  12.6278  18.2800  23.7669

     occupation numbers 
     1.0000   1.0000   1.0320  -0.0000  -0.0000  -0.0000

          k = 0.5893-0.0589 0.7071 (   666 PWs)   bands (ev):

     4.3996   7.5743  10.8860  12.2888  16.4845  18.8144

     occupation numbers 
     1.0000   1.0285  -0.0000  -0.0000  -0.0000  -0.0000

          k = 0.5598-0.0295 0.6776 (   666 PWs)   bands (ev):

     5.1086   7.0782  10.0173  12.0363  17.1023  19.6697

     occupation numbers 
     1.0000   1.0000  -0.0000  -0.0000  -0.0000  -0.0000

          k = 0.5303-0.0000 0.6482 (   670 PWs)   bands (ev):

     5.6082   6.9571   8.9606  12.1161  17.5315  20.8906

     occupation numbers 
     1.0000   1.0000  -0.0000  -0.0000  -0.0000  -0.0000

          k =-0.1179-0.7071 0.0000 (   666 PWs)   bands (ev):

     5.2616   6.6045  10.8278  12.2312  16.4273  18.7604

     occupation numbers 
     1.0000   1.0000  -0.0000  -0.0000  -0.0000  -0.0000

          k =-0.1768 0.3536 0.0000 (   652 PWs)   bands (ev):

    -0.3822  11.8148  13.2322  16.7576  20.1147  21.9085

     occupation numbers 
     1.0000  -0.0000  -0.0000  -0.0000  -0.0000  -0.0000

          k =-0.2062 0.3830-0.0295 (   660 PWs)   bands (ev):

     0.2191  10.7093  12.7221  15.9626  20.4674  22.5514

     occupation numbers 
     1.0000  -0.0000  -0.0000  -0.0000  -0.0000  -0.0000

          k =-0.2357 0.4125-0.0589 (   657 PWs)   bands (ev):

     0.9097   9.4034  12.5591  15.2483  20.6206  23.1875

     occupation numbers 
     1.0000  -0.0000  -0.0000  -0.0000  -0.0000  -0.0000

          k = 0.4419-0.2652 0.6187 (   663 PWs)   bands (ev):

     1.6881   8.0975  12.5495  14.6183  20.7481  22.8411

     occupation numbers 
     1.0000   0.1638  -0.0000  -0.0000  -0.0000  -0.0000

          k = 0.4125-0.2357 0.5893 (   665 PWs)   bands (ev):

     2.5523   6.8435  12.6428  14.0784  20.9123  22.3543

     occupation numbers 
     1.0000   1.0000  -0.0000  -0.0000  -0.0000  -0.0000

          k = 0.3830-0.2062 0.5598 (   668 PWs)   bands (ev):

     3.4984   5.6601  12.8097  13.6461  21.1220  21.9337

     occupation numbers 
     1.0000   1.0000  -0.0000  -0.0000  -0.0000  -0.0000

          k = 0.3536-0.1768 0.5303 (   666 PWs)   bands (ev):

     4.4057   4.6732  12.9381  13.4295  21.2781  21.7055

     occupation numbers 
     1.0000   1.0000  -0.0000  -0.0000  -0.0000  -0.0000

          k =-0.1768 0.4125 0.0000 (   663 PWs)   bands (ev):

     0.4187  11.1764  12.5968  14.8152  19.5144  21.4228

     occupation numbers 
     1.0000  -0.0000  -0.0000  -0.0000  -0.0000  -0.0000

          k =-0.2062 0.4419-0.0295 (   665 PWs)   bands (ev):

     1.0774  10.1272  12.1329  14.0715  19.9317  22.1386

     occupation numbers 
     1.0000  -0.0000  -0.0000  -0.0000  -0.0000  -0.0000

          k = 0.4714-0.2357 0.6482 (   665 PWs)   bands (ev):

     1.8240   8.8763  12.0135  13.4176  20.1521  23.1355

     occupation numbers 
     1.0000  -0.0000  -0.0000  -0.0000  -0.0000  -0.0000

          k = 0.4419-0.2062 0.6187 (   668 PWs)   bands (ev):

     2.6563   7.6262  12.0250  12.8748  20.3438  23.5733

     occupation numbers 
     1.0000   1.0348  -0.0000  -0.0000  -0.0000  -0.0000

          k = 0.4125-0.1768 0.5893 (   667 PWs)   bands (ev):

     3.5712   6.4300  12.0116  12.5534  20.5734  23.2197

     occupation numbers 
     1.0000   1.0000  -0.0000  -0.0000  -0.0000  -0.0000

          k = 0.3830-0.1473 0.5598 (   669 PWs)   bands (ev):

     4.5515   5.3186  11.7717  12.6435  20.8620  22.8431

     occupation numbers 
     1.0000   1.0000  -0.0000  -0.0000  -0.0000  -0.0000

          k = 0.3536-0.1179 0.5303 (   668 PWs)   bands (ev):

     4.2254   5.6669  11.4945  12.9537  21.2127  22.5263

     occupation numbers 
     1.0000   1.0000  -0.0000  -0.0000  -0.0000  -0.0000

          k = 0.3241-0.0884 0.5009 (   668 PWs)   bands (ev):

     3.2594   6.8053  11.2896  13.3779  21.6063  22.2927

     occupation numbers 
     1.0000   1.0000  -0.0000  -0.0000  -0.0000  -0.0000

          k = 0.2946-0.0589 0.4714 (   664 PWs)   bands (ev):

     2.3706   8.0022  11.1899  13.8961  21.8588  22.2981

     occupation numbers 
     1.0000   0.4232  -0.0000  -0.0000  -0.0000  -0.0000

          k = 0.2652-0.0295 0.4419 (   664 PWs)   bands (ev):

     1.5662   9.1989  11.2514  14.5019  21.7126  22.6679

     occupation numbers 
     1.0000  -0.0000  -0.0000  -0.0000  -0.0000  -0.0000

          k = 0.2357-0.0000 0.4125 (   663 PWs)   bands (ev):

     0.8484  10.1885  11.6772  15.1919  21.2786  22.6977

     occupation numbers 
     1.0000  -0.0000  -0.0000  -0.0000  -0.0000  -0.0000

          k =-0.1768 0.4714 0.0000 (   662 PWs)   bands (ev):

     1.3362  10.6538  12.0139  13.0071  19.0133  20.9990

     occupation numbers 
     1.0000  -0.0000  -0.0000  -0.0000  -0.0000  -0.0000

          k = 0.5009-0.2062 0.6776 (   663 PWs)   bands (ev):

     2.0502   9.6595  11.5677  12.3518  19.4923  21.7751

     occupation numbers 
     1.0000  -0.0000  -0.0000  -0.0000  -0.0000  -0.0000

          k = 0.4714-0.1768 0.6482 (   668 PWs)   bands (ev):

     2.8496   8.4637  11.3281  11.9292  19.7755  22.8792

     occupation numbers 
     1.0000  -0.0149  -0.0000  -0.0000  -0.0000  -0.0000

          k = 0.4419-0.1473 0.6187 (   668 PWs)   bands (ev):

     3.7313   7.2712  10.9560  11.8843  20.0278  23.9935

     occupation numbers 
     1.0000   1.0007  -0.0000  -0.0000  -0.0000  -0.0000

          k = 0.4125-0.1179 0.5893 (   670 PWs)   bands (ev):

     4.6863   6.1377  10.5637  12.0617  20.3170  24.1575

     occupation numbers 
     1.0000   1.0000  -0.0000  -0.0000  -0.0000  -0.0000

          k = 0.3830-0.0884 0.5598 (   667 PWs)   bands (ev):

     5.0258   5.7610  10.2425  12.3629  20.6657  23.8594

     occupation numbers 
     1.0000   1.0000  -0.0000  -0.0000  -0.0000  -0.0000

          k = 0.3536-0.0589 0.5303 (   671 PWs)   bands (ev):

     4.0506   6.8308  10.0267  12.7639  21.0804  23.5551

     occupation numbers 
     1.0000   1.0000  -0.0000  -0.0000  -0.0000  -0.0000

          k = 0.3241-0.0295 0.5009 (   667 PWs)   bands (ev):

     3.1393   7.9176   9.9744  13.2567  21.5595  23.2217

     occupation numbers 
     1.0000   0.6812  -0.0000  -0.0000  -0.0000  -0.0000

          k = 0.2946-0.0000 0.4714 (   664 PWs)   bands (ev):

     2.3100   8.7948  10.2962  13.8370  22.0902  22.6668

     occupation numbers 
     1.0000  -0.0001  -0.0000  -0.0000  -0.0000  -0.0000

          k = 0.5303-0.1768 0.7071 (   666 PWs)   bands (ev):

     2.3658  10.2472  10.9601  11.8763  18.6195  20.6560

     occupation numbers 
     1.0000  -0.0000  -0.0000  -0.0000  -0.0000  -0.0000

          k = 0.5009-0.1473 0.6776 (   666 PWs)   bands (ev):

     3.1310   9.3012  10.3701  11.4847  19.1583  21.4890

     occupation numbers 
     1.0000  -0.0000  -0.0000  -0.0000  -0.0000  -0.0000

          k = 0.4714-0.1179 0.6482 (   668 PWs)   bands (ev):

     3.9766   8.1620   9.8625  11.4490  19.5019  22.6616

     occupation numbers 
     1.0000   0.0479  -0.0000  -0.0000  -0.0000  -0.0000

          k = 0.4419-0.0884 0.6187 (   669 PWs)   bands (ev):

     4.8939   7.0309   9.4235  11.5972  19.8129  23.9640

     occupation numbers 
     1.0000   1.0000  -0.0000  -0.0000  -0.0000  -0.0000

          k = 0.4125-0.0589 0.5893 (   674 PWs)   bands (ev):

     5.7814   6.0404   9.0873  11.8672  20.1595  25.0003

     occupation numbers 
     1.0000   1.0000  -0.0000  -0.0000  -0.0000  -0.0000

          k = 0.3830-0.0295 0.5598 (   669 PWs)   bands (ev):

     4.9223   6.8695   8.9137  12.2386  20.5642  24.8730

     occupation numbers 
     1.0000   1.0000  -0.0000  -0.0000  -0.0000  -0.0000

          k = 0.3536 0.0000 0.5303 (   665 PWs)   bands (ev):

     3.9915   7.6345   9.1193  12.7032  21.0331  24.2718

     occupation numbers 
     1.0000   1.0353  -0.0000  -0.0000  -0.0000  -0.0000

          k = 0.5303-0.1179 0.7071 (   666 PWs)   bands (ev):

     3.4978   9.3702   9.9566  11.5053  18.3367  20.4046

     occupation numbers 
     1.0000  -0.0000  -0.0000  -0.0000  -0.0000  -0.0000

          k = 0.5009-0.0884 0.6776 (   665 PWs)   bands (ev):

     4.3023   8.7472   9.1395  11.2003  18.9341  21.2932

     occupation numbers 
     1.0000  -0.0002  -0.0000  -0.0000  -0.0000  -0.0000

          k = 0.4714-0.0589 0.6482 (   666 PWs)   bands (ev):

     5.1668   7.9164   8.4412  11.2517  19.3363  22.5239

     occupation numbers 
     1.0000   0.6846  -0.0184  -0.0000  -0.0000  -0.0000

          k = 0.4419-0.0295 0.6187 (   670 PWs)   bands (ev):

     6.0363   6.8859   8.1028  11.4708  19.7044  23.9034

     occupation numbers 
     1.0000   1.0000   0.1521  -0.0000  -0.0000  -0.0000

          k = 0.4125-0.0000 0.5893 (   670 PWs)   bands (ev):

     5.8671   6.7074   8.1718  11.8053  20.1064  25.2686

     occupation numbers 
     1.0000   1.0000   0.0351  -0.0000  -0.0000  -0.0000

          k = 0.5303-0.0589 0.7071 (   670 PWs)   bands (ev):

     4.6954   7.8638   9.7822  11.3153  18.1665  20.2515

     occupation numbers 
     1.0000   0.8215  -0.0000  -0.0000  -0.0000  -0.0000

          k = 0.5009-0.0295 0.6776 (   668 PWs)   bands (ev):

     5.4590   7.4254   8.9825  11.0728  18.8216  21.1939

     occupation numbers 
     1.0000   1.0073  -0.0000  -0.0000  -0.0000  -0.0000

          k = 0.4714-0.0000 0.6482 (   668 PWs)   bands (ev):

     6.0130   7.3191   8.0299  11.1890  19.2808  22.4770

     occupation numbers 
     1.0000   1.0016   0.3399  -0.0000  -0.0000  -0.0000

          k =-0.1768-0.7071 0.0000 (   670 PWs)   bands (ev):

     5.5505   6.9039   9.7241  11.2536  18.1097  20.2001

     occupation numbers 
     1.0000   1.0000  -0.0000  -0.0000  -0.0000  -0.0000

          k = 0.4714-0.2357 0.7071 (   662 PWs)   bands (ev):

     1.7631   9.6659  11.1367  13.3490  20.7924  22.4475

     occupation numbers 
     1.0000  -0.0000  -0.0000  -0.0000  -0.0000  -0.0000

          k = 0.4419-0.2062 0.6776 (   664 PWs)   bands (ev):

     2.5353   8.7319  10.7627  12.7139  21.3003  23.0660

     occupation numbers 
     1.0000  -0.0003  -0.0000  -0.0000  -0.0000  -0.0000

          k = 0.4125-0.1768 0.6482 (   665 PWs)   bands (ev):

     3.3918   7.5907  10.7471  12.1742  21.5948  23.0447

     occupation numbers 
     1.0000   1.0310  -0.0000  -0.0000  -0.0000  -0.0000

          k = 0.3830-0.1473 0.6187 (   668 PWs)   bands (ev):

     4.3274   6.4525  10.8658  11.7528  21.8452  22.6913

     occupation numbers 
     1.0000   1.0000  -0.0000  -0.0000  -0.0000  -0.0000

          k = 0.3536-0.1179 0.5893 (   672 PWs)   bands (ev):

     5.2162   5.4930  10.9640  11.5567  22.0027  22.4843

     occupation numbers 
     1.0000   1.0000  -0.0000  -0.0000  -0.0000  -0.0000

          k = 0.4714-0.1768 0.7071 (   660 PWs)   bands (ev):

     2.7893   9.2595  10.6413  11.6624  20.4062  22.1667

     occupation numbers 
     1.0000  -0.0000  -0.0000  -0.0000  -0.0000  -0.0000

          k = 0.4419-0.1473 0.6776 (   664 PWs)   bands (ev):

     3.6118   8.3798  10.2906  11.1197  20.9781  23.0049

     occupation numbers 
     1.0000  -0.0286  -0.0000  -0.0000  -0.0000  -0.0000

          k = 0.4125-0.1179 0.6482 (   667 PWs)   bands (ev):

     4.5126   7.2951  10.1612  10.8153  21.3432  23.7942

     occupation numbers 
     1.0000   1.0011  -0.0000  -0.0000  -0.0000  -0.0000

          k = 0.3830-0.0884 0.6187 (   668 PWs)   bands (ev):

     5.4714   6.2276   9.9287  10.8750  21.6790  23.6552

     occupation numbers 
     1.0000   1.0000  -0.0000  -0.0000  -0.0000  -0.0000

          k = 0.3536-0.0589 0.5893 (   671 PWs)   bands (ev):

     5.1611   6.5402   9.6945  11.1630  22.0435  23.3266

     occupation numbers 
     1.0000   1.0000  -0.0000  -0.0000  -0.0000  -0.0000

          k = 0.3241-0.0295 0.5598 (   666 PWs)   bands (ev):

     4.2099   7.5670   9.5950  11.5803  22.4351  22.9510

     occupation numbers 
     1.0000   1.0273  -0.0000  -0.0000  -0.0000  -0.0000

          k = 0.2946 0.0000 0.5303 (   664 PWs)   bands (ev):

     3.3318   8.3886   9.8611  12.1002  22.2940  22.8513

     occupation numbers 
     1.0000  -0.0272  -0.0000  -0.0000  -0.0000  -0.0000

          k = 0.4714-0.1179 0.7071 (   664 PWs)   bands (ev):

     3.9170   8.9691   9.6781  10.6667  20.1274  21.9453

     occupation numbers 
     1.0000  -0.0000  -0.0000  -0.0000  -0.0000  -0.0000

          k = 0.4419-0.0884 0.6776 (   667 PWs)   bands (ev):

     4.7773   8.1372   9.2220  10.3667  20.7598  22.8697

     occupation numbers 
     1.0000   0.0857  -0.0000  -0.0000  -0.0000  -0.0000

          k = 0.4125-0.0589 0.6482 (   672 PWs)   bands (ev):

     5.6929   7.1112   8.8701  10.4355  21.1864  24.0518

     occupation numbers 
     1.0000   1.0000  -0.0000  -0.0000  -0.0000  -0.0000

          k = 0.3830-0.0295 0.6187 (   676 PWs)   bands (ev):

     6.0609   6.6443   8.6508  10.6973  21.5824  24.6275

     occupation numbers 
     1.0000   1.0000  -0.0013  -0.0000  -0.0000  -0.0000

          k = 0.3536 0.0000 0.5893 (   672 PWs)   bands (ev):

     5.1059   7.3447   8.7979  11.0859  22.0076  24.0111

     occupation numbers 
     1.0000   1.0024  -0.0001  -0.0000  -0.0000  -0.0000

          k = 0.4714-0.0589 0.7071 (   670 PWs)   bands (ev):

     5.1085   8.2534   8.7949  10.3994  19.9592  21.8069

     occupation numbers 
     1.0000  -0.0265  -0.0001  -0.0000  -0.0000  -0.0000

          k = 0.4419-0.0295 0.6776 (   671 PWs)   bands (ev):

     5.9251   7.7990   8.1356  10.1931  20.6498  22.7906

     occupation numbers 
     1.0000   0.9434   0.0886  -0.0000  -0.0000  -0.0000

          k = 0.4125-0.0000 0.6482 (   670 PWs)   bands (ev):

     6.5337   7.0085   7.9855  10.3568  21.1335  24.0652

     occupation numbers 
     1.0000   1.0000   0.4748  -0.0000  -0.0000  -0.0000

          k =-0.2357-0.7071 0.0000 (   674 PWs)   bands (ev):

     5.9551   7.3120   8.7369  10.3269  19.9030  21.7600

     occupation numbers 
     1.0000   1.0015  -0.0003  -0.0000  -0.0000  -0.0000

          k = 0.4125-0.1179 0.7071 (   666 PWs)   bands (ev):

     4.4538   8.0985   9.4702  10.5387  22.0218  23.3045

     occupation numbers 
     1.0000   0.1615  -0.0000  -0.0000  -0.0000  -0.0000

          k = 0.3830-0.0884 0.6776 (   673 PWs)   bands (ev):

     5.3672   7.3320   9.2329  10.1230  22.6562  23.4596

     occupation numbers 
     1.0000   1.0020  -0.0000  -0.0000  -0.0000  -0.0000

          k = 0.3536-0.0589 0.6482 (   672 PWs)   bands (ev):

     6.2346   6.4601   9.2419   9.9495  22.9145  23.3223

     occupation numbers 
     1.0000   1.0000  -0.0000  -0.0000  -0.0000  -0.0000

          k = 0.4125-0.0589 0.7071 (   676 PWs)   bands (ev):

     5.6373   7.9245   8.6603   9.6642  21.8569  23.3456

     occupation numbers 
     1.0000   0.6611  -0.0011  -0.0000  -0.0000  -0.0000

          k = 0.3830-0.0295 0.6776 (   674 PWs)   bands (ev):

     6.5031   7.2054   8.4067   9.4897  22.5650  24.1561

     occupation numbers 
     1.0000   1.0002  -0.0241  -0.0000  -0.0000  -0.0000

          k = 0.3536-0.0000 0.6482 (   672 PWs)   bands (ev):

     6.2780   7.1708   8.5205   9.6920  23.0281  23.8515

     occupation numbers 
     1.0000   1.0001  -0.0081  -0.0000  -0.0000  -0.0000

          k =-0.2946-0.7071 0.0000 (   670 PWs)   bands (ev):

     6.4759   7.7965   7.8665   9.5220  21.8017  23.3320

     occupation numbers 
     1.0000   0.9470   0.8152  -0.0000  -0.0000  -0.0000

          k =-0.3536-0.7071 0.0000 (   684 PWs)   bands (ev):

     7.1129   7.1129   8.1284   9.0822  23.7978  23.7978

     occupation numbers 
     1.0000   1.0000   0.1013  -0.0000  -0.0000  -0.0000

     the Fermi energy is     7.9774 ev

!    total energy              =     -39.50185596 Ry
     total all-electron energy =       -39.501856 Ry
     estimated scf accuracy    <          1.3E-17 Ry
     smearing contrib. (-TS)   =      -0.00007884 Ry
     internal energy E=F+TS    =     -39.50177712 Ry

     The total energy is F=E-TS. E is the sum of the following terms:
     one-electron contribution =       3.16239291 Ry
     hartree contribution      =       0.00822298 Ry
     xc contribution           =      -2.10396860 Ry
     ewald contribution        =      -5.40785599 Ry
     one-center paw contrib.   =     -35.16056842 Ry
      -> PAW hartree energy AE =       0.30749183 Ry
      -> PAW hartree energy PS =      -0.29817046 Ry
      -> PAW xc energy AE      =     -36.02468924 Ry
      -> PAW xc energy PS      =       0.85479945 Ry
      -> total E_H with PAW    =       0.01754435 Ry
      -> total E_XC with PAW   =     -37.27385839 Ry

     convergence has been achieved in  10 iterations

     negative rho (up, down):  6.925E-04 0.000E+00

     Forces acting on atoms (cartesian axes, Ry/au):

     atom    1 type  1   force =     0.00000000    0.00000000    0.00000000
     The non-local contrib.  to forces
     atom    1 type  1   force =    -0.00000000   -0.00000000   -0.00000000
     The ionic contribution  to forces
     atom    1 type  1   force =     0.00000000    0.00000000    0.00000000
     The local contribution  to forces
     atom    1 type  1   force =    -0.00000000    0.00000000    0.00000000
     The core correction contribution to forces
     atom    1 type  1   force =    -0.00000000    0.00000000    0.00000000
     The Hubbard contrib.    to forces
     atom    1 type  1   force =     0.00000000    0.00000000    0.00000000
     The SCF correction term to forces
     atom    1 type  1   force =    -0.00000000    0.00000000   -0.00000000

     Total force =     0.000000     Total SCF correction =     0.000000

     Writing all to output data dir ./tmp/al.save/ :
     XML data file, charge density, pseudopotentials, collected wavefunctions
 
     init_run     :      0.23s CPU      0.26s WALL (       1 calls)
     electrons    :      4.22s CPU      4.55s WALL (       1 calls)
     forces       :      0.02s CPU      0.02s WALL (       1 calls)

     Called by init_run:
     wfcinit      :      0.18s CPU      0.20s WALL (       1 calls)
     wfcinit:atom :      0.00s CPU      0.00s WALL (     413 calls)
     wfcinit:wfcr :      0.17s CPU      0.19s WALL (     413 calls)
     potinit      :      0.02s CPU      0.02s WALL (       1 calls)
     hinit0       :      0.03s CPU      0.03s WALL (       1 calls)

     Called by electrons:
     c_bands      :      3.45s CPU      3.71s WALL (      11 calls)
     sum_band     :      0.66s CPU      0.71s WALL (      11 calls)
     v_of_rho     :      0.01s CPU      0.01s WALL (      11 calls)
     v_h          :      0.00s CPU      0.00s WALL (      11 calls)
     v_xc         :      0.01s CPU      0.01s WALL (      12 calls)
     newd         :      0.00s CPU      0.00s WALL (      11 calls)
     PAW_pot      :      0.11s CPU      0.13s WALL (      11 calls)
     mix_rho      :      0.00s CPU      0.00s WALL (      11 calls)

     Called by c_bands:
     init_us_2    :      0.05s CPU      0.06s WALL (    9912 calls)
     cegterg      :      3.34s CPU      3.59s WALL (    4543 calls)

     Called by sum_band:
     sum_band:wei :      0.02s CPU      0.02s WALL (      11 calls)
     sum_band:loo :      0.64s CPU      0.68s WALL (      11 calls)
     sum_band:buf :      0.01s CPU      0.01s WALL (    4543 calls)
     sum_band:ini :      0.02s CPU      0.03s WALL (    4543 calls)
     sum_band:cal :      0.04s CPU      0.04s WALL (    4543 calls)
     sum_band:bec :      0.01s CPU      0.01s WALL (    4543 calls)
     addusdens    :      0.00s CPU      0.00s WALL (      11 calls)
                                        0.00s GPU  (      11 calls)
     addusd:skk   :      0.00s CPU      0.00s WALL (      11 calls)
                                        0.00s GPU  (      11 calls)

     Called by *egterg:
     cdiaghg      :      0.35s CPU      0.38s WALL (   13139 calls)
     cegterg:over :      0.15s CPU      0.16s WALL (    9009 calls)
     cegterg:upda :      0.02s CPU      0.03s WALL (    9009 calls)
     cegterg:last :      0.03s CPU      0.03s WALL (    7256 calls)
     h_psi        :      2.70s CPU      2.91s WALL (   13965 calls)
     s_psi        :      0.02s CPU      0.02s WALL (   13965 calls)
     g_psi        :      0.01s CPU      0.01s WALL (    9009 calls)

     Called by h_psi:
     h_psi:calbec :      0.11s CPU      0.12s WALL (   13965 calls)
     vloc_psi     :      2.52s CPU      2.71s WALL (   13965 calls)
     add_vuspsi   :      0.03s CPU      0.03s WALL (   13965 calls)

     General routines
     calbec       :      0.14s CPU      0.16s WALL (   20160 calls)
     fft          :      0.01s CPU      0.01s WALL (     133 calls)
     ffts         :      0.00s CPU      0.00s WALL (      11 calls)
     fftw         :      2.78s CPU      2.99s WALL (  162140 calls)
 
     Parallel routines

     PAW routines
     PAW_pot      :      0.11s CPU      0.13s WALL (      11 calls)
     PAW_symme    :      0.00s CPU      0.00s WALL (      22 calls)
 
     PWSCF        :      4.64s CPU      5.04s WALL

 
   This run was terminated on:  23: 9:12  15Jun2026            

=------------------------------------------------------------------------------=
   JOB DONE.
=------------------------------------------------------------------------------=
