
     Program PWSCF v.7.4 starts on  1Apr2026 at 12:29:51 

     This program is part of the open-source Quantum ESPRESSO suite
     for quantum simulation of materials; please cite
         "P. Giannozzi et al., J. Phys.:Condens. Matter 21 395502 (2009);
         "P. Giannozzi et al., J. Phys.:Condens. Matter 29 465901 (2017);
         "P. Giannozzi et al., J. Chem. Phys. 152 154105 (2020);
          URL http://www.quantum-espresso.org", 
     in publications or presentations arising from this work. More details at
     http://www.quantum-espresso.org/quote

     Parallel version (MPI), running on    12 processors

     MPI processes distributed on     1 nodes
     12717 MiB available memory on the printing compute node when the environment starts
 
     Reading input from ./scratch_runs/atom01_z_plus/atom01_z_plus.in

     Current dimensions of program PWSCF are:
     Max number of different atomic species (ntypx) = 10
     Max number of k-points (npk) =  40000
     Max angular momentum in pseudopotentials (lmaxx) =  4
read_pp_mesh; mismatch in mesh size, discarding the one in header
     Message from routine set_cutoff:
     ecutrho < 4*ecutwfc, are you sure?
     Message from routine setup:
     using ibrav=0 with symmetry is DISCOURAGED, use correct ibrav instead
 
     R & G space division:  proc/nbgrp/npool/nimage =      12
     Subspace diagonalization in iterative solution of the eigenvalue problem:
     a serial algorithm will be used

 
     Parallelization info
     --------------------
     sticks:   dense  smooth     PW     G-vecs:    dense   smooth      PW
     Min         119     119     63                 3006     3006    1154
     Max         120     120     64                 3010     3010    1156
     Sum        1429    1429    757                36085    36085   13851
 
     Using Slab Decomposition
 


     bravais-lattice index     =            0
     lattice parameter (alat)  =      16.1864  a.u.
     unit-cell volume          =    2998.7122 (a.u.)^3
     number of atoms/cell      =           27
     number of atomic types    =            1
     number of electrons       =        81.00
     number of Kohn-Sham states=           49
     kinetic-energy cutoff     =      38.0000  Ry
     charge density cutoff     =      80.0000  Ry
     scf convergence threshold =      1.0E-16
     mixing beta               =       0.7000
     number of iterations used =            8  plain     mixing
     Exchange-correlation= SLA PW PBX PBC
                           (   1   4   3   4   0   0   0)

     celldm(1)=  16.186387  celldm(2)=   0.000000  celldm(3)=   0.000000
     celldm(4)=   0.000000  celldm(5)=   0.000000  celldm(6)=   0.000000

     crystal axes: (cart. coord. in units of alat)
               a(1) = (  -0.707107   0.000000   0.707107 )  
               a(2) = (   0.000000   0.707107   0.707107 )  
               a(3) = (  -0.707107   0.707107   0.000000 )  

     reciprocal axes: (cart. coord. in units 2 pi/alat)
               b(1) = ( -0.707107 -0.707107  0.707107 )  
               b(2) = (  0.707107  0.707107  0.707107 )  
               b(3) = ( -0.707107  0.707107 -0.707107 )  


     PseudoPot. # 1 for Al read from file:
     ./Al.upf
     MD5 check sum: fd3ab6bbf4b2322b308692f0f9c61a66
     Pseudo is Projector augmented-wave + core cor, Zval =  3.0
     Generated using ATOMPAW code
     Shape of augmentation charge: SINC**2
     Using radial grid of 2342 points,  4 beta functions with: 
                l(1) =   0
                l(2) =   0
                l(3) =   1
                l(4) =   1
     Q(r) pseudized with 0 coefficients 


     atomic species   valence    mass     pseudopotential
     Al                3.00    26.98150     Al( 1.00)

      8 Sym. Ops. (no inversion) found


                                    s                        frac. trans.

      isym =  1     identity                                     

 cryst.   s( 1) = (     1          0          0      )
                  (     0          1          0      )
                  (     0          0          1      )

 cart.    s( 1) = (  1.0000000  0.0000000  0.0000000 )
                  (  0.0000000  1.0000000  0.0000000 )
                  (  0.0000000  0.0000000  1.0000000 )


      isym =  2     180 deg rotation - cart. axis [0,0,1]        

 cryst.   s( 2) = (     0          1         -1      )
                  (     1          0         -1      )
                  (     0          0         -1      )

 cart.    s( 2) = ( -1.0000000  0.0000000  0.0000000 )
                  (  0.0000000 -1.0000000  0.0000000 )
                  (  0.0000000  0.0000000  1.0000000 )


      isym =  3      90 deg rotation - cart. axis [0,0,-1]       

 cryst.   s( 3) = (     0          1          0      )
                  (     0          1         -1      )
                  (    -1          1          0      )

 cart.    s( 3) = (  0.0000000  1.0000000  0.0000000 )
                  ( -1.0000000  0.0000000  0.0000000 )
                  (  0.0000000  0.0000000  1.0000000 )


      isym =  4      90 deg rotation - cart. axis [0,0,1]        

 cryst.   s( 4) = (     1          0         -1      )
                  (     1          0          0      )
                  (     1         -1          0      )

 cart.    s( 4) = (  0.0000000 -1.0000000  0.0000000 )
                  (  1.0000000  0.0000000  0.0000000 )
                  (  0.0000000  0.0000000  1.0000000 )


      isym =  5     inv. 180 deg rotation - cart. axis [0,1,0]   

 cryst.   s( 5) = (     1          0          0      )
                  (     1          0         -1      )
                  (     1         -1          0      )

 cart.    s( 5) = (  1.0000000  0.0000000  0.0000000 )
                  (  0.0000000 -1.0000000  0.0000000 )
                  (  0.0000000  0.0000000  1.0000000 )


      isym =  6     inv. 180 deg rotation - cart. axis [1,0,0]   

 cryst.   s( 6) = (     0          1         -1      )
                  (     0          1          0      )
                  (    -1          1          0      )

 cart.    s( 6) = ( -1.0000000  0.0000000  0.0000000 )
                  (  0.0000000  1.0000000  0.0000000 )
                  (  0.0000000  0.0000000  1.0000000 )


      isym =  7     inv. 180 deg rotation - cart. axis [1,1,0]   

 cryst.   s( 7) = (     0          1          0      )
                  (     1          0          0      )
                  (     0          0          1      )

 cart.    s( 7) = (  0.0000000 -1.0000000  0.0000000 )
                  ( -1.0000000  0.0000000  0.0000000 )
                  (  0.0000000  0.0000000  1.0000000 )


      isym =  8     inv. 180 deg rotation - cart. axis [1,-1,0]  

 cryst.   s( 8) = (     1          0         -1      )
                  (     0          1         -1      )
                  (     0          0         -1      )

 cart.    s( 8) = (  0.0000000  1.0000000  0.0000000 )
                  (  1.0000000  0.0000000  0.0000000 )
                  (  0.0000000  0.0000000  1.0000000 )


   Cartesian axes

     site n.     atom                  positions (alat units)
         1        Al     tau(   1) = (   0.0000000   0.0000000   0.0011675  )
         2        Al     tau(   2) = (  -0.2357020   0.2357020   0.0000000  )
         3        Al     tau(   3) = (  -0.4714048   0.4714048   0.0000000  )
         4        Al     tau(   4) = (   0.0000000   0.2357020   0.2357020  )
         5        Al     tau(   5) = (  -0.2357020   0.4714041   0.2357020  )
         6        Al     tau(   6) = (  -0.4714048   0.7071068   0.2357020  )
         7        Al     tau(   7) = (   0.0000000   0.4714048   0.4714048  )
         8        Al     tau(   8) = (  -0.2357020   0.7071068   0.4714048  )
         9        Al     tau(   9) = (  -0.4714048   0.9428095   0.4714048  )
        10        Al     tau(  10) = (  -0.2357020   0.0000000   0.2357020  )
        11        Al     tau(  11) = (  -0.4714041   0.2357020   0.2357020  )
        12        Al     tau(  12) = (  -0.7071068   0.4714048   0.2357020  )
        13        Al     tau(  13) = (  -0.2357020   0.2357020   0.4714041  )
        14        Al     tau(  14) = (  -0.4714041   0.4714041   0.4714041  )
        15        Al     tau(  15) = (  -0.7071068   0.7071068   0.4714041  )
        16        Al     tau(  16) = (  -0.2357020   0.4714048   0.7071068  )
        17        Al     tau(  17) = (  -0.4714041   0.7071068   0.7071068  )
        18        Al     tau(  18) = (  -0.7071068   0.9428095   0.7071068  )
        19        Al     tau(  19) = (  -0.4714048   0.0000000   0.4714048  )
        20        Al     tau(  20) = (  -0.7071068   0.2357020   0.4714048  )
        21        Al     tau(  21) = (  -0.9428095   0.4714048   0.4714048  )
        22        Al     tau(  22) = (  -0.4714048   0.2357020   0.7071068  )
        23        Al     tau(  23) = (  -0.7071068   0.4714041   0.7071068  )
        24        Al     tau(  24) = (  -0.9428095   0.7071068   0.7071068  )
        25        Al     tau(  25) = (  -0.4714048   0.4714048   0.9428095  )
        26        Al     tau(  26) = (  -0.7071068   0.7071068   0.9428095  )
        27        Al     tau(  27) = (  -0.9428095   0.9428095   0.9428095  )

   Crystallographic axes

     site n.     atom                  positions (cryst. coord.)
         1        Al     tau(   1) = (  0.0008255  0.0008255 -0.0008255  )
         2        Al     tau(   2) = (  0.0000000  0.0000000  0.3333330  )
         3        Al     tau(   3) = (  0.0000000  0.0000000  0.6666670  )
         4        Al     tau(   4) = (  0.0000000  0.3333330  0.0000000  )
         5        Al     tau(   5) = (  0.0000000  0.3333330  0.3333330  )
         6        Al     tau(   6) = (  0.0000000  0.3333330  0.6666670  )
         7        Al     tau(   7) = (  0.0000000  0.6666670  0.0000000  )
         8        Al     tau(   8) = (  0.0000000  0.6666670  0.3333330  )
         9        Al     tau(   9) = (  0.0000000  0.6666670  0.6666670  )
        10        Al     tau(  10) = (  0.3333330  0.0000000  0.0000000  )
        11        Al     tau(  11) = (  0.3333330  0.0000000  0.3333330  )
        12        Al     tau(  12) = (  0.3333330  0.0000000  0.6666670  )
        13        Al     tau(  13) = (  0.3333330  0.3333330  0.0000000  )
        14        Al     tau(  14) = (  0.3333330  0.3333330  0.3333330  )
        15        Al     tau(  15) = (  0.3333330  0.3333330  0.6666670  )
        16        Al     tau(  16) = (  0.3333330  0.6666670  0.0000000  )
        17        Al     tau(  17) = (  0.3333330  0.6666670  0.3333330  )
        18        Al     tau(  18) = (  0.3333330  0.6666670  0.6666670  )
        19        Al     tau(  19) = (  0.6666670  0.0000000  0.0000000  )
        20        Al     tau(  20) = (  0.6666670  0.0000000  0.3333330  )
        21        Al     tau(  21) = (  0.6666670  0.0000000  0.6666670  )
        22        Al     tau(  22) = (  0.6666670  0.3333330  0.0000000  )
        23        Al     tau(  23) = (  0.6666670  0.3333330  0.3333330  )
        24        Al     tau(  24) = (  0.6666670  0.3333330  0.6666670  )
        25        Al     tau(  25) = (  0.6666670  0.6666670  0.0000000  )
        26        Al     tau(  26) = (  0.6666670  0.6666670  0.3333330  )
        27        Al     tau(  27) = (  0.6666670  0.6666670  0.6666670  )

     number of k points=    20  Methfessel-Paxton smearing, width (Ry)=  0.0200
                       cart. coord. in units 2pi/alat
        k(    1) = (  -0.0883883   0.0883883   0.0883883), wk =   0.0625000
        k(    2) = (  -0.2651650   0.2651650  -0.0883883), wk =   0.0625000
        k(    3) = (   0.2651650  -0.2651650   0.4419417), wk =   0.0625000
        k(    4) = (   0.0883883  -0.0883883   0.2651650), wk =   0.0625000
        k(    5) = (  -0.0883883   0.4419417   0.0883883), wk =   0.1250000
        k(    6) = (   0.4419417  -0.0883883   0.6187184), wk =   0.1250000
        k(    7) = (   0.2651650   0.0883883   0.4419417), wk =   0.1250000
        k(    8) = (  -0.0883883  -0.6187184   0.0883883), wk =   0.1250000
        k(    9) = (  -0.2651650   0.2651650   0.2651650), wk =   0.0625000
        k(   10) = (   0.2651650  -0.2651650   0.7954951), wk =   0.0625000
        k(   11) = (  -0.0883883  -0.2651650  -0.2651650), wk =   0.1250000
        k(   12) = (   0.4419417   0.2651650   0.2651650), wk =   0.1250000
        k(   13) = (   0.2651650   0.0883883   0.0883883), wk =   0.1250000
        k(   14) = (   0.0883883   0.0883883   0.4419417), wk =   0.0625000
        k(   15) = (   0.6187184   0.0883883   0.4419417), wk =   0.1250000
        k(   16) = (  -0.4419417   0.6187184  -0.0883883), wk =   0.1250000
        k(   17) = (   0.4419417  -0.0883883   0.2651650), wk =   0.1250000
        k(   18) = (  -0.2651650   0.4419417   0.0883883), wk =   0.1250000
        k(   19) = (   0.0883883   0.0883883  -0.6187184), wk =   0.0625000
        k(   20) = (   0.7954951   0.2651650   0.2651650), wk =   0.1250000

                       cryst. coord.
        k(    1) = (   0.1250000   0.1250000   0.1250000), wk =   0.0625000
        k(    2) = (   0.1250000   0.1250000   0.3750000), wk =   0.0625000
        k(    3) = (   0.1250000   0.1250000  -0.3750000), wk =   0.0625000
        k(    4) = (   0.1250000   0.1250000  -0.1250000), wk =   0.0625000
        k(    5) = (   0.1250000   0.3750000   0.3750000), wk =   0.1250000
        k(    6) = (   0.1250000   0.3750000  -0.3750000), wk =   0.1250000
        k(    7) = (   0.1250000   0.3750000  -0.1250000), wk =   0.1250000
        k(    8) = (   0.1250000  -0.3750000  -0.3750000), wk =   0.1250000
        k(    9) = (   0.3750000   0.3750000   0.3750000), wk =   0.0625000
        k(   10) = (   0.3750000   0.3750000  -0.3750000), wk =   0.0625000
        k(   11) = (  -0.1250000  -0.3750000  -0.1250000), wk =   0.1250000
        k(   12) = (  -0.1250000   0.3750000  -0.1250000), wk =   0.1250000
        k(   13) = (  -0.1250000   0.1250000  -0.1250000), wk =   0.1250000
        k(   14) = (   0.2500000   0.3750000   0.0000000), wk =   0.0625000
        k(   15) = (  -0.1250000   0.3750000  -0.3750000), wk =   0.1250000
        k(   16) = (   0.2500000   0.3750000   0.7500000), wk =   0.1250000
        k(   17) = (  -0.1250000   0.1250000  -0.3750000), wk =   0.1250000
        k(   18) = (   0.2500000   0.3750000   0.5000000), wk =   0.1250000
        k(   19) = (  -0.5000000  -0.3750000   0.0000000), wk =   0.0625000
        k(   20) = (  -0.3750000   0.3750000  -0.3750000), wk =   0.1250000

     Dense  grid:    36085 G-vectors     FFT dimensions: (  48,  48,  48)

     Dynamical RAM for                 wfc:       0.74 MB

     Dynamical RAM for     wfc (w. buffer):      15.51 MB

     Dynamical RAM for           str. fact:       0.05 MB

     Dynamical RAM for           local pot:       0.00 MB

     Dynamical RAM for          nlocal pot:       3.26 MB

     Dynamical RAM for                qrad:       0.21 MB

     Dynamical RAM for          rho,v,vnew:       0.35 MB

     Dynamical RAM for               rhoin:       0.12 MB

     Dynamical RAM for            rho*nmix:       0.73 MB

     Dynamical RAM for           G-vectors:       0.20 MB

     Dynamical RAM for          h,s,v(r/c):       0.44 MB

     Dynamical RAM for          <psi|beta>:       0.16 MB

     Dynamical RAM for                 psi:       1.48 MB

     Dynamical RAM for                hpsi:       1.48 MB

     Dynamical RAM for                spsi:       1.48 MB

     Dynamical RAM for      wfcinit/wfcrot:       1.53 MB

     Dynamical RAM for           addusdens:       3.21 MB

     Dynamical RAM for          addusforce:       5.64 MB

     Dynamical RAM for         addusstress:       2.29 MB

     Estimated static dynamical RAM per process >      20.12 MB

     Estimated max dynamical RAM per process >      26.50 MB

     Estimated total dynamical RAM >     318.01 MB

     Initial potential from superposition of free atoms

     starting charge      80.9324, renormalised to      81.0000

     negative rho (up, down):  2.067E-02 0.000E+00
     Starting wfcs are  216 randomized atomic wfcs
     Checking if some PAW data can be deallocated... 

     total cpu time spent up to now is        1.6 secs

     per-process dynamical memory:    81.4 Mb

     Self-consistent Calculation

     iteration #  1     ecut=    38.00 Ry     beta= 0.70
     Davidson diagonalization with overlap

---- Real-time Memory Report at c_bands before calling an iterative solver
           140 MiB given to the printing process from OS
            79 MiB allocation reported by mallinfo(arena+hblkhd)
         12649 MiB available memory on the node where the printing process lives
------------------
     ethr =  1.00E-02,  avg # of iterations =  2.1

     Threshold (ethr) on eigenvalues was too large:
     Diagonalizing with lowered threshold

     Davidson diagonalization with overlap

---- Real-time Memory Report at c_bands before calling an iterative solver
           142 MiB given to the printing process from OS
            79 MiB allocation reported by mallinfo(arena+hblkhd)
         12658 MiB available memory on the node where the printing process lives
------------------
     ethr =  1.69E-04,  avg # of iterations =  4.3

     negative rho (up, down):  2.289E-02 0.000E+00

     total cpu time spent up to now is        3.5 secs

     total energy              =   -1066.68605509 Ry
     estimated scf accuracy    <       0.13998275 Ry

     iteration #  2     ecut=    38.00 Ry     beta= 0.70
     Davidson diagonalization with overlap

---- Real-time Memory Report at c_bands before calling an iterative solver
           155 MiB given to the printing process from OS
            77 MiB allocation reported by mallinfo(arena+hblkhd)
         12495 MiB available memory on the node where the printing process lives
------------------
     ethr =  1.73E-04,  avg # of iterations =  1.4

     negative rho (up, down):  2.458E-02 0.000E+00

     total cpu time spent up to now is        4.3 secs

     total energy              =   -1066.55139479 Ry
     estimated scf accuracy    <       0.01281431 Ry

     iteration #  3     ecut=    38.00 Ry     beta= 0.70
     Davidson diagonalization with overlap

---- Real-time Memory Report at c_bands before calling an iterative solver
           157 MiB given to the printing process from OS
            77 MiB allocation reported by mallinfo(arena+hblkhd)
         12502 MiB available memory on the node where the printing process lives
------------------
     c_bands:  1 eigenvalues not converged
     ethr =  1.58E-05,  avg # of iterations =  4.8

     negative rho (up, down):  2.394E-02 0.000E+00

     total cpu time spent up to now is        5.5 secs

     total energy              =   -1066.54334266 Ry
     estimated scf accuracy    <       0.01627243 Ry

     iteration #  4     ecut=    38.00 Ry     beta= 0.70
     Davidson diagonalization with overlap

---- Real-time Memory Report at c_bands before calling an iterative solver
           157 MiB given to the printing process from OS
            77 MiB allocation reported by mallinfo(arena+hblkhd)
         12565 MiB available memory on the node where the printing process lives
------------------
     ethr =  1.58E-05,  avg # of iterations =  2.9

     negative rho (up, down):  2.267E-02 0.000E+00

     total cpu time spent up to now is        6.5 secs

     total energy              =   -1066.54789582 Ry
     estimated scf accuracy    <       0.00166858 Ry

     iteration #  5     ecut=    38.00 Ry     beta= 0.70
     Davidson diagonalization with overlap

---- Real-time Memory Report at c_bands before calling an iterative solver
           157 MiB given to the printing process from OS
            77 MiB allocation reported by mallinfo(arena+hblkhd)
         12569 MiB available memory on the node where the printing process lives
------------------
     ethr =  2.06E-06,  avg # of iterations =  7.2

     negative rho (up, down):  2.139E-02 0.000E+00

     total cpu time spent up to now is        7.8 secs

     total energy              =   -1066.54798028 Ry
     estimated scf accuracy    <       0.00045512 Ry

     iteration #  6     ecut=    38.00 Ry     beta= 0.70
     Davidson diagonalization with overlap

---- Real-time Memory Report at c_bands before calling an iterative solver
           157 MiB given to the printing process from OS
            78 MiB allocation reported by mallinfo(arena+hblkhd)
         12574 MiB available memory on the node where the printing process lives
------------------
     ethr =  5.62E-07,  avg # of iterations =  3.0

     negative rho (up, down):  2.108E-02 0.000E+00

     total cpu time spent up to now is        8.8 secs

     total energy              =   -1066.54812195 Ry
     estimated scf accuracy    <       0.00010936 Ry

     iteration #  7     ecut=    38.00 Ry     beta= 0.70
     Davidson diagonalization with overlap

---- Real-time Memory Report at c_bands before calling an iterative solver
           157 MiB given to the printing process from OS
            78 MiB allocation reported by mallinfo(arena+hblkhd)
         12598 MiB available memory on the node where the printing process lives
------------------
     ethr =  1.35E-07,  avg # of iterations =  2.2

     negative rho (up, down):  2.085E-02 0.000E+00

     total cpu time spent up to now is        9.8 secs

     total energy              =   -1066.54814504 Ry
     estimated scf accuracy    <       0.00000662 Ry

     iteration #  8     ecut=    38.00 Ry     beta= 0.70
     Davidson diagonalization with overlap

---- Real-time Memory Report at c_bands before calling an iterative solver
           158 MiB given to the printing process from OS
            78 MiB allocation reported by mallinfo(arena+hblkhd)
         12630 MiB available memory on the node where the printing process lives
------------------
     ethr =  8.17E-09,  avg # of iterations =  4.3

     negative rho (up, down):  2.080E-02 0.000E+00

     total cpu time spent up to now is       10.9 secs

     total energy              =   -1066.54814637 Ry
     estimated scf accuracy    <       0.00000447 Ry

     iteration #  9     ecut=    38.00 Ry     beta= 0.70
     Davidson diagonalization with overlap

---- Real-time Memory Report at c_bands before calling an iterative solver
           158 MiB given to the printing process from OS
            78 MiB allocation reported by mallinfo(arena+hblkhd)
         12623 MiB available memory on the node where the printing process lives
------------------
     ethr =  5.52E-09,  avg # of iterations =  2.2

     negative rho (up, down):  2.076E-02 0.000E+00

     total cpu time spent up to now is       11.9 secs

     total energy              =   -1066.54814711 Ry
     estimated scf accuracy    <       0.00000042 Ry

     iteration # 10     ecut=    38.00 Ry     beta= 0.70
     Davidson diagonalization with overlap

---- Real-time Memory Report at c_bands before calling an iterative solver
           158 MiB given to the printing process from OS
            78 MiB allocation reported by mallinfo(arena+hblkhd)
         12633 MiB available memory on the node where the printing process lives
------------------
     ethr =  5.13E-10,  avg # of iterations =  3.3

     negative rho (up, down):  2.074E-02 0.000E+00

     total cpu time spent up to now is       12.9 secs

     total energy              =   -1066.54814716 Ry
     estimated scf accuracy    <       0.00000021 Ry

     iteration # 11     ecut=    38.00 Ry     beta= 0.70
     Davidson diagonalization with overlap

---- Real-time Memory Report at c_bands before calling an iterative solver
           158 MiB given to the printing process from OS
            78 MiB allocation reported by mallinfo(arena+hblkhd)
         12665 MiB available memory on the node where the printing process lives
------------------
     ethr =  2.57E-10,  avg # of iterations =  2.0

     negative rho (up, down):  2.074E-02 0.000E+00

     total cpu time spent up to now is       13.9 secs

     total energy              =   -1066.54814720 Ry
     estimated scf accuracy    <          9.0E-09 Ry

     iteration # 12     ecut=    38.00 Ry     beta= 0.70
     Davidson diagonalization with overlap

---- Real-time Memory Report at c_bands before calling an iterative solver
           158 MiB given to the printing process from OS
            78 MiB allocation reported by mallinfo(arena+hblkhd)
         12680 MiB available memory on the node where the printing process lives
------------------
     ethr =  1.11E-11,  avg # of iterations =  3.8

     negative rho (up, down):  2.074E-02 0.000E+00

     total cpu time spent up to now is       14.9 secs

     total energy              =   -1066.54814720 Ry
     estimated scf accuracy    <          1.7E-09 Ry

     iteration # 13     ecut=    38.00 Ry     beta= 0.70
     Davidson diagonalization with overlap

---- Real-time Memory Report at c_bands before calling an iterative solver
           158 MiB given to the printing process from OS
            78 MiB allocation reported by mallinfo(arena+hblkhd)
         12703 MiB available memory on the node where the printing process lives
------------------
     ethr =  2.12E-12,  avg # of iterations =  2.8

     negative rho (up, down):  2.074E-02 0.000E+00

     total cpu time spent up to now is       15.9 secs

     total energy              =   -1066.54814720 Ry
     estimated scf accuracy    <          2.0E-10 Ry

     iteration # 14     ecut=    38.00 Ry     beta= 0.70
     Davidson diagonalization with overlap

---- Real-time Memory Report at c_bands before calling an iterative solver
           158 MiB given to the printing process from OS
            78 MiB allocation reported by mallinfo(arena+hblkhd)
         12727 MiB available memory on the node where the printing process lives
------------------
     ethr =  2.44E-13,  avg # of iterations =  3.9

     negative rho (up, down):  2.074E-02 0.000E+00

     total cpu time spent up to now is       17.0 secs

     total energy              =   -1066.54814720 Ry
     estimated scf accuracy    <          1.2E-10 Ry

     iteration # 15     ecut=    38.00 Ry     beta= 0.70
     Davidson diagonalization with overlap

---- Real-time Memory Report at c_bands before calling an iterative solver
           159 MiB given to the printing process from OS
            78 MiB allocation reported by mallinfo(arena+hblkhd)
         12746 MiB available memory on the node where the printing process lives
------------------
     ethr =  1.43E-13,  avg # of iterations =  2.2

     negative rho (up, down):  2.074E-02 0.000E+00

     total cpu time spent up to now is       17.9 secs

     total energy              =   -1066.54814720 Ry
     estimated scf accuracy    <          7.4E-12 Ry

     iteration # 16     ecut=    38.00 Ry     beta= 0.70
     Davidson diagonalization with overlap

---- Real-time Memory Report at c_bands before calling an iterative solver
           159 MiB given to the printing process from OS
            78 MiB allocation reported by mallinfo(arena+hblkhd)
         12743 MiB available memory on the node where the printing process lives
------------------
     ethr =  1.00E-13,  avg # of iterations =  1.1

     negative rho (up, down):  2.074E-02 0.000E+00

     total cpu time spent up to now is       18.7 secs

     total energy              =   -1066.54814720 Ry
     estimated scf accuracy    <          1.6E-13 Ry

     iteration # 17     ecut=    38.00 Ry     beta= 0.70
     Davidson diagonalization with overlap

---- Real-time Memory Report at c_bands before calling an iterative solver
           159 MiB given to the printing process from OS
            78 MiB allocation reported by mallinfo(arena+hblkhd)
         12767 MiB available memory on the node where the printing process lives
------------------
     ethr =  1.00E-13,  avg # of iterations =  1.0

     negative rho (up, down):  2.074E-02 0.000E+00

     total cpu time spent up to now is       19.4 secs

     total energy              =   -1066.54814720 Ry
     estimated scf accuracy    <          7.8E-14 Ry

     iteration # 18     ecut=    38.00 Ry     beta= 0.70
     Davidson diagonalization with overlap

---- Real-time Memory Report at c_bands before calling an iterative solver
           159 MiB given to the printing process from OS
            78 MiB allocation reported by mallinfo(arena+hblkhd)
         12774 MiB available memory on the node where the printing process lives
------------------
     ethr =  1.00E-13,  avg # of iterations =  1.0

     negative rho (up, down):  2.074E-02 0.000E+00

     total cpu time spent up to now is       20.2 secs

     total energy              =   -1066.54814720 Ry
     estimated scf accuracy    <          8.2E-14 Ry

     iteration # 19     ecut=    38.00 Ry     beta= 0.70
     Davidson diagonalization with overlap

---- Real-time Memory Report at c_bands before calling an iterative solver
           159 MiB given to the printing process from OS
            78 MiB allocation reported by mallinfo(arena+hblkhd)
         12781 MiB available memory on the node where the printing process lives
------------------
     ethr =  1.00E-13,  avg # of iterations =  1.0

     negative rho (up, down):  2.074E-02 0.000E+00

     total cpu time spent up to now is       21.0 secs

     total energy              =   -1066.54814720 Ry
     estimated scf accuracy    <          2.1E-14 Ry

     iteration # 20     ecut=    38.00 Ry     beta= 0.70
     Davidson diagonalization with overlap

---- Real-time Memory Report at c_bands before calling an iterative solver
           159 MiB given to the printing process from OS
            78 MiB allocation reported by mallinfo(arena+hblkhd)
         12790 MiB available memory on the node where the printing process lives
------------------
     ethr =  1.00E-13,  avg # of iterations =  1.0

     negative rho (up, down):  2.074E-02 0.000E+00

     total cpu time spent up to now is       21.8 secs

     total energy              =   -1066.54814720 Ry
     estimated scf accuracy    <          1.4E-15 Ry

     iteration # 21     ecut=    38.00 Ry     beta= 0.70
     Davidson diagonalization with overlap

---- Real-time Memory Report at c_bands before calling an iterative solver
           159 MiB given to the printing process from OS
            78 MiB allocation reported by mallinfo(arena+hblkhd)
         12803 MiB available memory on the node where the printing process lives
------------------
     ethr =  1.00E-13,  avg # of iterations =  1.0

     negative rho (up, down):  2.074E-02 0.000E+00

     total cpu time spent up to now is       22.5 secs

     total energy              =   -1066.54814720 Ry
     estimated scf accuracy    <          1.8E-15 Ry

     iteration # 22     ecut=    38.00 Ry     beta= 0.70
     Davidson diagonalization with overlap

---- Real-time Memory Report at c_bands before calling an iterative solver
           159 MiB given to the printing process from OS
            78 MiB allocation reported by mallinfo(arena+hblkhd)
         12817 MiB available memory on the node where the printing process lives
------------------
     ethr =  1.00E-13,  avg # of iterations =  1.0

     negative rho (up, down):  2.074E-02 0.000E+00

     total cpu time spent up to now is       23.3 secs

     total energy              =   -1066.54814720 Ry
     estimated scf accuracy    <          1.6E-16 Ry

     iteration # 23     ecut=    38.00 Ry     beta= 0.70
     Davidson diagonalization with overlap

---- Real-time Memory Report at c_bands before calling an iterative solver
           159 MiB given to the printing process from OS
            78 MiB allocation reported by mallinfo(arena+hblkhd)
         12821 MiB available memory on the node where the printing process lives
------------------
     ethr =  1.00E-13,  avg # of iterations =  1.0

     negative rho (up, down):  2.074E-02 0.000E+00

     total cpu time spent up to now is       24.1 secs

     End of self-consistent calculation

          k =-0.0884 0.0884 0.0884 ( 11846 PWs)   bands (ev):

    -3.1438  -0.8928  -0.3992  -0.3972  -0.3953   0.0947   0.0966   0.0986
     0.3395   0.3414   0.3434   0.5889   1.3175   1.3195   1.3214   3.7403
     3.7423   3.7443   4.6910   4.6911   4.6931   4.6931   4.6951   4.6953
     5.6210   5.6231   5.6252   6.1801   6.1819   6.1838   6.6346   6.6357
     6.6373   6.6373   6.6389   6.6401   7.0951   7.1022   7.1029   7.1038
     8.0337   8.0342   8.0347   8.2196   8.2202   8.2207   8.6890   8.6906
     8.6917

     occupation numbers 
     1.0000   1.0000   1.0000   1.0000   1.0000   1.0000   1.0000   1.0000
     1.0000   1.0000   1.0000   1.0000   1.0000   1.0000   1.0000   1.0000
     1.0000   1.0000   1.0000   1.0000   1.0000   1.0000   1.0000   1.0000
     1.0000   1.0000   1.0000   1.0000   1.0000   1.0000   1.0000   1.0000
     1.0000   1.0000   1.0000   1.0000   1.0000   1.0000   1.0000   1.0000
     0.4337   0.4322   0.4306   0.0204   0.0198   0.0192  -0.0012  -0.0012
    -0.0012

          k =-0.2652 0.2652-0.0884 ( 11832 PWs)   bands (ev):

    -2.8919  -1.6393  -1.1412  -0.3977  -0.3977  -0.1502  -0.1502   0.3428
     0.3428   0.5873   1.3238   1.5635   1.8117   2.0541   2.5277   2.5277
     3.0216   3.0216   3.9781   3.9781   4.6568   4.6568   4.9227   4.9227
     5.1173   5.1173   5.4358   5.4585   5.9064   5.9064   6.1007   6.1007
     6.3827   6.5712   6.5712   6.8271   6.8271   6.8701   6.8701   7.3283
     7.9141   8.2572   8.2572   8.2692   8.9145   8.9145   9.1901   9.1903
     9.2164

     occupation numbers 
     1.0000   1.0000   1.0000   1.0000   1.0000   1.0000   1.0000   1.0000
     1.0000   1.0000   1.0000   1.0000   1.0000   1.0000   1.0000   1.0000
     1.0000   1.0000   1.0000   1.0000   1.0000   1.0000   1.0000   1.0000
     1.0000   1.0000   1.0000   1.0000   1.0000   1.0000   1.0000   1.0000
     1.0000   1.0000   1.0000   1.0000   1.0000   1.0000   1.0000   1.0011
     0.7845  -0.0114  -0.0114  -0.0183  -0.0000  -0.0000  -0.0000  -0.0000
    -0.0000

          k = 0.2652-0.2652 0.4419 ( 11869 PWs)   bands (ev):

    -2.5150  -2.2642  -1.0170  -0.7688  -0.7688  -0.0272  -0.0272   0.2194
     0.7113   1.4454   1.4454   1.6895   1.6895   2.4182   2.8901   2.8901
     3.1311   3.1340   3.8257   3.8922   4.0643   4.0643   4.3278   4.3278
     4.5519   4.5519   5.3191   5.3191   5.4718   5.4719   6.0155   6.2282
     6.2282   6.4531   6.4531   6.7258   6.7258   7.8659   7.8659   8.1087
     8.3368   8.5115   8.5115   8.5699   9.1122   9.1122   9.2196   9.2196
     9.5268

     occupation numbers 
     1.0000   1.0000   1.0000   1.0000   1.0000   1.0000   1.0000   1.0000
     1.0000   1.0000   1.0000   1.0000   1.0000   1.0000   1.0000   1.0000
     1.0000   1.0000   1.0000   1.0000   1.0000   1.0000   1.0000   1.0000
     1.0000   1.0000   1.0000   1.0000   1.0000   1.0000   1.0000   1.0000
     1.0000   1.0000   1.0000   1.0000   1.0000   0.8902   0.8902   0.2202
    -0.0353  -0.0131  -0.0131  -0.0068  -0.0000  -0.0000  -0.0000  -0.0000
    -0.0000

          k = 0.0884-0.0884 0.2652 ( 11842 PWs)   bands (ev):

    -3.0178  -1.2655  -0.7688  -0.7687  -0.5214  -0.2736   0.2198   0.4644
     0.4644   0.7116   0.7116   1.2017   1.4415   1.4415   2.4067   2.9011
     2.9011   3.8601   3.8601   3.8606   4.7971   4.7971   4.9990   5.5255
     5.5255   5.7352   5.7352   5.7947   5.8032   5.8032   5.9827   6.2671
     6.2981   6.2982   6.6778   6.6778   7.2098   7.2100   7.2194   7.2196
     7.6860   7.6860   7.8849   7.8849   8.1483   8.3341   8.3341   9.0768
     9.2792

     occupation numbers 
     1.0000   1.0000   1.0000   1.0000   1.0000   1.0000   1.0000   1.0000
     1.0000   1.0000   1.0000   1.0000   1.0000   1.0000   1.0000   1.0000
     1.0000   1.0000   1.0000   1.0000   1.0000   1.0000   1.0000   1.0000
     1.0000   1.0000   1.0000   1.0000   1.0000   1.0000   1.0000   1.0000
     1.0000   1.0000   1.0000   1.0000   1.0001   1.0001   1.0001   1.0002
     1.0354   1.0354   0.8521   0.8521   0.1300  -0.0352  -0.0352  -0.0000
    -0.0000

          k =-0.0884 0.4419 0.0884 ( 11851 PWs)   bands (ev):

    -2.7662  -1.5146  -1.2656  -1.0183  -1.0156  -0.5210   0.7086   0.7114
     0.9564   1.4443   1.4470   1.6840   1.6868   1.9331   2.1735   2.1762
     3.1382   3.1410   3.5867   3.8495   4.0869   4.3127   4.3157   4.8422
     5.0891   5.0896   5.5538   5.5740   5.5766   6.0211   6.0361   6.0375
     6.4996   6.5004   6.8850   6.8879   7.4410   7.4463   7.4485   7.9170
     7.9197   7.9996   8.0013   8.1024   8.1047   8.1111   8.3847   8.3859
     9.9749

     occupation numbers 
     1.0000   1.0000   1.0000   1.0000   1.0000   1.0000   1.0000   1.0000
     1.0000   1.0000   1.0000   1.0000   1.0000   1.0000   1.0000   1.0000
     1.0000   1.0000   1.0000   1.0000   1.0000   1.0000   1.0000   1.0000
     1.0000   1.0000   1.0000   1.0000   1.0000   1.0000   1.0000   1.0000
     1.0000   1.0000   1.0000   1.0000   1.0057   1.0061   1.0063   0.7771
     0.7703   0.5396   0.5342   0.2361   0.2302   0.2141  -0.0329  -0.0327
    -0.0000

          k = 0.4419-0.0884 0.6187 ( 11872 PWs)   bands (ev):

    -2.2642  -2.0139  -1.7640  -1.5146  -0.5211  -0.0268   0.2193   0.7110
     1.2000   1.4444   1.6883   1.9319   2.1719   2.4144   2.6566   2.8980
     2.9001   3.1313   3.3723   3.6109   3.6121   3.8467   4.1330   4.3027
     4.3713   4.6117   4.7777   4.8750   5.0759   5.1089   6.4866   6.5037
     6.8415   6.9602   7.0788   7.2061   7.4253   7.6270   7.8981   8.0983
     8.1381   8.3807   8.4075   8.5591   8.7480   9.0303   9.1404   9.2228
     9.3023

     occupation numbers 
     1.0000   1.0000   1.0000   1.0000   1.0000   1.0000   1.0000   1.0000
     1.0000   1.0000   1.0000   1.0000   1.0000   1.0000   1.0000   1.0000
     1.0000   1.0000   1.0000   1.0000   1.0000   1.0000   1.0000   1.0000
     1.0000   1.0000   1.0000   1.0000   1.0000   1.0000   1.0000   1.0000
     1.0000   1.0000   1.0000   1.0001   1.0047   1.0312   0.8229   0.2468
     0.1514  -0.0333  -0.0297  -0.0078  -0.0004  -0.0000  -0.0000  -0.0000
    -0.0000

          k = 0.2652 0.0884 0.4419 ( 11853 PWs)   bands (ev):

    -2.6405  -1.8889  -1.3900  -1.1412  -0.3974  -0.1506   0.0965   0.5883
     0.8326   1.0788   1.3233   1.8072   2.0545   2.2962   2.5390   2.7694
     3.2597   3.2613   3.4915   3.7063   3.9693   4.2038   4.2103   4.4212
     4.7208   4.8943   4.9619   5.2256   5.4233   5.6702   6.0614   6.1324
     6.6448   6.8059   7.0316   7.0690   7.1878   7.2775   7.5508   7.5677
     7.9402   8.2266   8.4868   8.6515   8.9407   8.9682   8.9933   9.3875
     9.4244

     occupation numbers 
     1.0000   1.0000   1.0000   1.0000   1.0000   1.0000   1.0000   1.0000
     1.0000   1.0000   1.0000   1.0000   1.0000   1.0000   1.0000   1.0000
     1.0000   1.0000   1.0000   1.0000   1.0000   1.0000   1.0000   1.0000
     1.0000   1.0000   1.0000   1.0000   1.0000   1.0000   1.0000   1.0000
     1.0000   1.0000   1.0000   1.0000   1.0001   1.0005   1.0187   1.0215
     0.7156   0.0132  -0.0167  -0.0022  -0.0000  -0.0000  -0.0000  -0.0000
    -0.0000

          k =-0.0884-0.6187 0.0884 ( 11868 PWs)   bands (ev):

    -2.3895  -1.8889  -1.6392  -1.1425  -1.1398  -0.6448   1.0763   1.0790
     1.5650   1.5678   1.8102   2.0490   2.0518   2.2948   2.2976   2.5342
     2.5370   2.7772   2.7795   3.2569   3.2598   3.7275   4.4936   4.7580
     4.9589   5.4319   5.4326   5.4581   5.4607   5.9060   5.9068   5.9250
     5.9263   6.3759   6.7219   6.8499   7.4254   7.4267   7.7982   7.8013
     8.1350   8.1377   8.7315   8.7342   8.9819   8.9850   9.1994   9.2005
     9.6603

     occupation numbers 
     1.0000   1.0000   1.0000   1.0000   1.0000   1.0000   1.0000   1.0000
     1.0000   1.0000   1.0000   1.0000   1.0000   1.0000   1.0000   1.0000
     1.0000   1.0000   1.0000   1.0000   1.0000   1.0000   1.0000   1.0000
     1.0000   1.0000   1.0000   1.0000   1.0000   1.0000   1.0000   1.0000
     1.0000   1.0000   1.0000   1.0000   1.0047   1.0047   0.9866   0.9835
     0.1581   0.1521  -0.0006  -0.0006  -0.0000  -0.0000  -0.0000  -0.0000
    -0.0000

          k =-0.2652 0.2652 0.2652 ( 11825 PWs)   bands (ev):

    -2.7662  -2.0139  -0.5230  -0.5211  -0.5192  -0.2760  -0.2741  -0.2721
     0.9547   0.9567   0.9586   2.1737   2.1756   2.1776   2.4183   2.6467
     2.6486   2.6506   4.3002   4.3021   4.3041   4.6018   5.0239   5.0243
     5.0262   5.0262   5.0282   5.0286   5.7592   5.7601   5.7616   5.7616
     5.7631   5.7640   7.1598   7.1604   7.1610   7.4340   7.4345   7.4350
     7.8421   7.8444   7.8466   8.8888   8.8891   8.8895   9.8985   9.8997
     9.9009

     occupation numbers 
     1.0000   1.0000   1.0000   1.0000   1.0000   1.0000   1.0000   1.0000
     1.0000   1.0000   1.0000   1.0000   1.0000   1.0000   1.0000   1.0000
     1.0000   1.0000   1.0000   1.0000   1.0000   1.0000   1.0000   1.0000
     1.0000   1.0000   1.0000   1.0000   1.0000   1.0000   1.0000   1.0000
     1.0000   1.0000   1.0000   1.0000   1.0000   1.0052   1.0053   1.0053
     0.9311   0.9276   0.9240  -0.0000  -0.0000  -0.0000  -0.0000  -0.0000
    -0.0000

          k = 0.2652-0.2652 0.7955 ( 11874 PWs)   bands (ev):

    -2.3896  -2.1390  -1.6392  -0.8929  -0.8929   0.3424   0.3424   0.5885
     0.8337   0.8337   1.0777   2.0504   2.5385   2.5385   2.7803   3.2515
     3.2515   3.2534   3.4987   3.4987   3.7316   3.7316   3.9452   3.9452
     4.0125   4.9567   4.9920   5.3677   5.3677   5.6606   5.6606   6.1336
     6.1336   6.9592   7.2719   7.2719   7.3327   7.3328   8.2009   8.2009
     8.4535   8.4535   8.4681   8.6855   8.6855   8.9403   9.2337   9.2338
     9.6161

     occupation numbers 
     1.0000   1.0000   1.0000   1.0000   1.0000   1.0000   1.0000   1.0000
     1.0000   1.0000   1.0000   1.0000   1.0000   1.0000   1.0000   1.0000
     1.0000   1.0000   1.0000   1.0000   1.0000   1.0000   1.0000   1.0000
     1.0000   1.0000   1.0000   1.0000   1.0000   1.0000   1.0000   1.0000
     1.0000   1.0000   1.0004   1.0004   1.0012   1.0012   0.0426   0.0426
    -0.0221  -0.0221  -0.0196  -0.0013  -0.0013  -0.0000  -0.0000  -0.0000
    -0.0000

          k =-0.0884-0.2652-0.2652 ( 11832 PWs)   bands (ev):

    -2.8919  -1.6392  -1.1412  -0.3990  -0.3963  -0.1516  -0.1488   0.3415
     0.3442   0.5872   1.3238   1.5635   1.8117   2.0542   2.5263   2.5291
     3.0202   3.0230   3.9767   3.9795   4.6554   4.6582   4.9222   4.9231
     5.1159   5.1187   5.4358   5.4584   5.9050   5.9078   6.1003   6.1011
     6.3827   6.5708   6.5716   6.8256   6.8286   6.8686   6.8716   7.3283
     7.9141   8.2567   8.2574   8.2694   8.9134   8.9156   9.1900   9.1906
     9.2161

     occupation numbers 
     1.0000   1.0000   1.0000   1.0000   1.0000   1.0000   1.0000   1.0000
     1.0000   1.0000   1.0000   1.0000   1.0000   1.0000   1.0000   1.0000
     1.0000   1.0000   1.0000   1.0000   1.0000   1.0000   1.0000   1.0000
     1.0000   1.0000   1.0000   1.0000   1.0000   1.0000   1.0000   1.0000
     1.0000   1.0000   1.0000   1.0000   1.0000   1.0000   1.0000   1.0011
     0.7845  -0.0111  -0.0115  -0.0184  -0.0000  -0.0000  -0.0000  -0.0000
    -0.0000

          k = 0.4419 0.2652 0.2652 ( 11869 PWs)   bands (ev):

    -2.5150  -2.2642  -1.0170  -0.7702  -0.7675  -0.0285  -0.0258   0.2193
     0.7113   1.4441   1.4468   1.6881   1.6908   2.4182   2.8887   2.8915
     3.1311   3.1340   3.8257   3.8922   4.0629   4.0657   4.3264   4.3292
     4.5504   4.5534   5.3188   5.3194   5.4713   5.4725   6.0155   6.2269
     6.2295   6.4517   6.4546   6.7255   6.7262   7.8655   7.8663   8.1087
     8.3368   8.5106   8.5124   8.5700   9.1112   9.1132   9.2180   9.2212
     9.5268

     occupation numbers 
     1.0000   1.0000   1.0000   1.0000   1.0000   1.0000   1.0000   1.0000
     1.0000   1.0000   1.0000   1.0000   1.0000   1.0000   1.0000   1.0000
     1.0000   1.0000   1.0000   1.0000   1.0000   1.0000   1.0000   1.0000
     1.0000   1.0000   1.0000   1.0000   1.0000   1.0000   1.0000   1.0000
     1.0000   1.0000   1.0000   1.0000   1.0000   0.8910   0.8895   0.2202
    -0.0353  -0.0133  -0.0130  -0.0068  -0.0000  -0.0000  -0.0000  -0.0000
    -0.0000

          k = 0.2652 0.0884 0.0884 ( 11842 PWs)   bands (ev):

    -3.0178  -1.2655  -0.7701  -0.7674  -0.5214  -0.2736   0.2197   0.4630
     0.4657   0.7102   0.7129   1.2017   1.4402   1.4429   2.4067   2.8997
     2.9025   3.8587   3.8605   3.8615   4.7965   4.7976   4.9990   5.5242
     5.5267   5.7337   5.7368   5.7946   5.8019   5.8045   5.9827   6.2671
     6.2977   6.2987   6.6762   6.6793   7.2097   7.2104   7.2181   7.2207
     7.6854   7.6866   7.8846   7.8852   8.1483   8.3329   8.3353   9.0768
     9.2789

     occupation numbers 
     1.0000   1.0000   1.0000   1.0000   1.0000   1.0000   1.0000   1.0000
     1.0000   1.0000   1.0000   1.0000   1.0000   1.0000   1.0000   1.0000
     1.0000   1.0000   1.0000   1.0000   1.0000   1.0000   1.0000   1.0000
     1.0000   1.0000   1.0000   1.0000   1.0000   1.0000   1.0000   1.0000
     1.0000   1.0000   1.0000   1.0000   1.0001   1.0001   1.0001   1.0002
     1.0354   1.0353   0.8528   0.8514   0.1300  -0.0351  -0.0352  -0.0000
    -0.0000

          k = 0.0884 0.0884 0.4419 ( 11851 PWs)   bands (ev):

    -2.7662  -1.5146  -1.2656  -1.0169  -1.0169  -0.5210   0.7100   0.7100
     0.9564   1.4456   1.4456   1.6854   1.6854   1.9331   2.1749   2.1749
     3.1396   3.1396   3.5867   3.8496   4.0869   4.3142   4.3142   4.8422
     5.0893   5.0894   5.5538   5.5753   5.5754   6.0211   6.0368   6.0368
     6.5000   6.5000   6.8865   6.8865   7.4413   7.4472   7.4472   7.9184
     7.9184   8.0004   8.0004   8.1036   8.1036   8.1111   8.3853   8.3853
     9.9753

     occupation numbers 
     1.0000   1.0000   1.0000   1.0000   1.0000   1.0000   1.0000   1.0000
     1.0000   1.0000   1.0000   1.0000   1.0000   1.0000   1.0000   1.0000
     1.0000   1.0000   1.0000   1.0000   1.0000   1.0000   1.0000   1.0000
     1.0000   1.0000   1.0000   1.0000   1.0000   1.0000   1.0000   1.0000
     1.0000   1.0000   1.0000   1.0000   1.0057   1.0062   1.0062   0.7738
     0.7737   0.5370   0.5369   0.2331   0.2331   0.2141  -0.0328  -0.0328
    -0.0000

          k = 0.6187 0.0884 0.4419 ( 11872 PWs)   bands (ev):

    -2.2642  -2.0139  -1.7640  -1.5146  -0.5211  -0.0268   0.2193   0.7110
     1.2000   1.4444   1.6883   1.9319   2.1719   2.4144   2.6566   2.8980
     2.9002   3.1313   3.3722   3.6109   3.6121   3.8467   4.1330   4.3027
     4.3713   4.6116   4.7777   4.8750   5.0759   5.1089   6.4866   6.5037
     6.8415   6.9602   7.0788   7.2061   7.4253   7.6270   7.8981   8.0983
     8.1381   8.3807   8.4075   8.5591   8.7481   9.0303   9.1404   9.2228
     9.3023

     occupation numbers 
     1.0000   1.0000   1.0000   1.0000   1.0000   1.0000   1.0000   1.0000
     1.0000   1.0000   1.0000   1.0000   1.0000   1.0000   1.0000   1.0000
     1.0000   1.0000   1.0000   1.0000   1.0000   1.0000   1.0000   1.0000
     1.0000   1.0000   1.0000   1.0000   1.0000   1.0000   1.0000   1.0000
     1.0000   1.0000   1.0000   1.0001   1.0047   1.0312   0.8229   0.2468
     0.1513  -0.0333  -0.0297  -0.0078  -0.0004  -0.0000  -0.0000  -0.0000
    -0.0000

          k =-0.4419 0.6187-0.0884 ( 11872 PWs)   bands (ev):

    -2.2642  -2.0139  -1.7640  -1.5146  -0.5211  -0.0268   0.2193   0.7110
     1.2000   1.4444   1.6884   1.9319   2.1719   2.4144   2.6566   2.8980
     2.9002   3.1312   3.3722   3.6109   3.6121   3.8467   4.1330   4.3027
     4.3713   4.6116   4.7776   4.8750   5.0759   5.1089   6.4866   6.5037
     6.8415   6.9602   7.0788   7.2061   7.4253   7.6270   7.8981   8.0983
     8.1381   8.3807   8.4075   8.5591   8.7480   9.0303   9.1404   9.2228
     9.3023

     occupation numbers 
     1.0000   1.0000   1.0000   1.0000   1.0000   1.0000   1.0000   1.0000
     1.0000   1.0000   1.0000   1.0000   1.0000   1.0000   1.0000   1.0000
     1.0000   1.0000   1.0000   1.0000   1.0000   1.0000   1.0000   1.0000
     1.0000   1.0000   1.0000   1.0000   1.0000   1.0000   1.0000   1.0000
     1.0000   1.0000   1.0000   1.0001   1.0047   1.0312   0.8229   0.2468
     0.1514  -0.0333  -0.0297  -0.0078  -0.0004  -0.0000  -0.0000  -0.0000
    -0.0000

          k = 0.4419-0.0884 0.2652 ( 11853 PWs)   bands (ev):

    -2.6405  -1.8889  -1.3900  -1.1412  -0.3974  -0.1506   0.0965   0.5883
     0.8327   1.0788   1.3233   1.8072   2.0545   2.2962   2.5390   2.7695
     3.2597   3.2613   3.4915   3.7063   3.9693   4.2038   4.2103   4.4212
     4.7207   4.8943   4.9619   5.2256   5.4233   5.6702   6.0614   6.1324
     6.6449   6.8059   7.0316   7.0689   7.1878   7.2775   7.5508   7.5677
     7.9403   8.2266   8.4868   8.6515   8.9408   8.9682   8.9932   9.3875
     9.4244

     occupation numbers 
     1.0000   1.0000   1.0000   1.0000   1.0000   1.0000   1.0000   1.0000
     1.0000   1.0000   1.0000   1.0000   1.0000   1.0000   1.0000   1.0000
     1.0000   1.0000   1.0000   1.0000   1.0000   1.0000   1.0000   1.0000
     1.0000   1.0000   1.0000   1.0000   1.0000   1.0000   1.0000   1.0000
     1.0000   1.0000   1.0000   1.0000   1.0001   1.0005   1.0187   1.0215
     0.7156   0.0132  -0.0167  -0.0022  -0.0000  -0.0000  -0.0000  -0.0000
    -0.0000

          k =-0.2652 0.4419 0.0884 ( 11853 PWs)   bands (ev):

    -2.6405  -1.8889  -1.3900  -1.1412  -0.3974  -0.1506   0.0965   0.5883
     0.8326   1.0788   1.3233   1.8072   2.0545   2.2962   2.5390   2.7694
     3.2597   3.2613   3.4915   3.7063   3.9693   4.2038   4.2103   4.4212
     4.7207   4.8943   4.9619   5.2256   5.4233   5.6702   6.0614   6.1324
     6.6449   6.8059   7.0316   7.0690   7.1878   7.2775   7.5509   7.5677
     7.9402   8.2266   8.4868   8.6515   8.9407   8.9683   8.9932   9.3875
     9.4244

     occupation numbers 
     1.0000   1.0000   1.0000   1.0000   1.0000   1.0000   1.0000   1.0000
     1.0000   1.0000   1.0000   1.0000   1.0000   1.0000   1.0000   1.0000
     1.0000   1.0000   1.0000   1.0000   1.0000   1.0000   1.0000   1.0000
     1.0000   1.0000   1.0000   1.0000   1.0000   1.0000   1.0000   1.0000
     1.0000   1.0000   1.0000   1.0000   1.0001   1.0005   1.0187   1.0215
     0.7156   0.0132  -0.0167  -0.0022  -0.0000  -0.0000  -0.0000  -0.0000
    -0.0000

          k = 0.0884 0.0884-0.6187 ( 11868 PWs)   bands (ev):

    -2.3896  -1.8889  -1.6392  -1.1412  -1.1412  -0.6448   1.0776   1.0776
     1.5664   1.5664   1.8102   2.0504   2.0504   2.2962   2.2962   2.5356
     2.5356   2.7772   2.7796   3.2584   3.2584   3.7275   4.4936   4.7580
     4.9589   5.4322   5.4323   5.4594   5.4594   5.9064   5.9065   5.9256
     5.9257   6.3759   6.7219   6.8499   7.4261   7.4261   7.7997   7.7997
     8.1364   8.1364   8.7328   8.7328   8.9834   8.9834   9.1999   9.1999
     9.6605

     occupation numbers 
     1.0000   1.0000   1.0000   1.0000   1.0000   1.0000   1.0000   1.0000
     1.0000   1.0000   1.0000   1.0000   1.0000   1.0000   1.0000   1.0000
     1.0000   1.0000   1.0000   1.0000   1.0000   1.0000   1.0000   1.0000
     1.0000   1.0000   1.0000   1.0000   1.0000   1.0000   1.0000   1.0000
     1.0000   1.0000   1.0000   1.0000   1.0047   1.0047   0.9851   0.9851
     0.1551   0.1550  -0.0006  -0.0006  -0.0000  -0.0000  -0.0000  -0.0000
    -0.0000

          k = 0.7955 0.2652 0.2652 ( 11874 PWs)   bands (ev):

    -2.3896  -2.1390  -1.6392  -0.8942  -0.8915   0.3411   0.3438   0.5885
     0.8324   0.8351   1.0777   2.0504   2.5371   2.5399   2.7803   3.2501
     3.2529   3.2534   3.4973   3.5001   3.7302   3.7330   3.9438   3.9465
     4.0124   4.9567   4.9919   5.3672   5.3682   5.6602   5.6609   6.1333
     6.1340   6.9592   7.2704   7.2733   7.3312   7.3343   8.1994   8.2024
     8.4529   8.4540   8.4683   8.6851   8.6859   8.9403   9.2323   9.2352
     9.6159

     occupation numbers 
     1.0000   1.0000   1.0000   1.0000   1.0000   1.0000   1.0000   1.0000
     1.0000   1.0000   1.0000   1.0000   1.0000   1.0000   1.0000   1.0000
     1.0000   1.0000   1.0000   1.0000   1.0000   1.0000   1.0000   1.0000
     1.0000   1.0000   1.0000   1.0000   1.0000   1.0000   1.0000   1.0000
     1.0000   1.0000   1.0004   1.0004   1.0011   1.0012   0.0445   0.0407
    -0.0222  -0.0220  -0.0196  -0.0013  -0.0013  -0.0000  -0.0000  -0.0000
    -0.0000

     the Fermi energy is     8.0123 ev

!    total energy              =   -1066.54814720 Ry
     total all-electron energy =     -1066.548147 Ry
     estimated scf accuracy    <          4.3E-17 Ry
     smearing contrib. (-TS)   =      -0.00239876 Ry
     internal energy E=F+TS    =   -1066.54574843 Ry

     The total energy is F=E-TS. E is the sum of the following terms:
     one-electron contribution =      85.38893391 Ry
     hartree contribution      =       0.22353386 Ry
     xc contribution           =     -56.80854352 Ry
     ewald contribution        =    -146.01199371 Ry
     one-center paw contrib.   =    -949.33767897 Ry
      -> PAW hartree energy AE =       0.92263951 Ry
      -> PAW hartree energy PS =      -0.89465728 Ry
      -> PAW xc energy AE      =    -108.07450018 Ry
      -> PAW xc energy PS      =       2.56454907 Ry
      -> total E_H with PAW    =       0.25151609 Ry
      -> total E_XC with PAW   =    -162.31849463 Ry

     convergence has been achieved in  23 iterations

     negative rho (up, down):  2.074E-02 0.000E+00

     Forces acting on atoms (cartesian axes, Ry/au):

     atom    1 type  1   force =     0.00000000    0.00000000   -0.00183455
     atom    2 type  1   force =     0.00000019   -0.00000019   -0.00004459
     atom    3 type  1   force =    -0.00000019    0.00000019   -0.00004459
     atom    4 type  1   force =    -0.00000000    0.00026756    0.00025552
     atom    5 type  1   force =    -0.00000703   -0.00000703   -0.00002003
     atom    6 type  1   force =     0.00026756    0.00000000    0.00025552
     atom    7 type  1   force =     0.00000000    0.00025778    0.00024840
     atom    8 type  1   force =     0.00025778    0.00000000    0.00024840
     atom    9 type  1   force =    -0.00000734   -0.00000734   -0.00001959
     atom   10 type  1   force =    -0.00026756    0.00000000    0.00025552
     atom   11 type  1   force =     0.00000703    0.00000703   -0.00002003
     atom   12 type  1   force =     0.00000000   -0.00026756    0.00025552
     atom   13 type  1   force =     0.00000734   -0.00000734   -0.00001959
     atom   14 type  1   force =    -0.00000734    0.00000734   -0.00001959
     atom   15 type  1   force =    -0.00000000   -0.00000000    0.00006177
     atom   16 type  1   force =     0.00000019    0.00000019   -0.00004459
     atom   17 type  1   force =    -0.00000140   -0.00000000    0.00000890
     atom   18 type  1   force =    -0.00000000   -0.00000140    0.00000890
     atom   19 type  1   force =    -0.00025778    0.00000000    0.00024840
     atom   20 type  1   force =     0.00000000   -0.00025778    0.00024840
     atom   21 type  1   force =     0.00000734    0.00000734   -0.00001959
     atom   22 type  1   force =    -0.00000019   -0.00000019   -0.00004459
     atom   23 type  1   force =    -0.00000000    0.00000140    0.00000890
     atom   24 type  1   force =     0.00000140   -0.00000000    0.00000890
     atom   25 type  1   force =     0.00000703   -0.00000703   -0.00002003
     atom   26 type  1   force =     0.00000000    0.00000000    0.00005834
     atom   27 type  1   force =    -0.00000703    0.00000703   -0.00002003
     The non-local contrib.  to forces
     atom    1 type  1   force =     0.00000000    0.00000000   -0.00449524
     atom    2 type  1   force =     0.00000047   -0.00000047    0.00000081
     atom    3 type  1   force =    -0.00000047    0.00000047    0.00000081
     atom    4 type  1   force =     0.00000000    0.00058091    0.00051957
     atom    5 type  1   force =     0.00001296    0.00001296    0.00001088
     atom    6 type  1   force =     0.00058091    0.00000000    0.00051957
     atom    7 type  1   force =     0.00000000    0.00056293    0.00050610
     atom    8 type  1   force =     0.00056293    0.00000000    0.00050610
     atom    9 type  1   force =     0.00001190    0.00001190    0.00001325
     atom   10 type  1   force =    -0.00058091   -0.00000000    0.00051957
     atom   11 type  1   force =    -0.00001296   -0.00001296    0.00001088
     atom   12 type  1   force =     0.00000000   -0.00058091    0.00051957
     atom   13 type  1   force =    -0.00001190    0.00001190    0.00001325
     atom   14 type  1   force =     0.00001190   -0.00001190    0.00001325
     atom   15 type  1   force =     0.00000000    0.00000000    0.00009575
     atom   16 type  1   force =     0.00000047    0.00000047    0.00000081
     atom   17 type  1   force =    -0.00000218   -0.00000000    0.00002610
     atom   18 type  1   force =     0.00000000   -0.00000218    0.00002610
     atom   19 type  1   force =    -0.00056293   -0.00000000    0.00050610
     atom   20 type  1   force =     0.00000000   -0.00056293    0.00050610
     atom   21 type  1   force =    -0.00001190   -0.00001190    0.00001325
     atom   22 type  1   force =    -0.00000047   -0.00000047    0.00000081
     atom   23 type  1   force =     0.00000000    0.00000218    0.00002610
     atom   24 type  1   force =     0.00000218   -0.00000000    0.00002610
     atom   25 type  1   force =    -0.00001296    0.00001296    0.00001088
     atom   26 type  1   force =     0.00000000    0.00000000    0.00009201
     atom   27 type  1   force =     0.00001296   -0.00001296    0.00001088
     The ionic contribution  to forces
     atom    1 type  1   force =     0.00000001   -0.00000001   -0.01235360
     atom    2 type  1   force =     0.00000289   -0.00000289   -0.00171455
     atom    3 type  1   force =    -0.00000289    0.00000289   -0.00170535
     atom    4 type  1   force =     0.00000460    0.00341752    0.00156884
     atom    5 type  1   force =     0.00043328    0.00044328    0.00047314
     atom    6 type  1   force =     0.00342212   -0.00000000    0.00157344
     atom    7 type  1   force =    -0.00000460    0.00338487    0.00156649
     atom    8 type  1   force =     0.00338027    0.00000000    0.00156189
     atom    9 type  1   force =     0.00043607    0.00042608    0.00047714
     atom   10 type  1   force =    -0.00341752   -0.00000460    0.00156884
     atom   11 type  1   force =    -0.00044328   -0.00043328    0.00047314
     atom   12 type  1   force =     0.00000000   -0.00342212    0.00157344
     atom   13 type  1   force =    -0.00043607    0.00043607    0.00048714
     atom   14 type  1   force =     0.00043068   -0.00043068    0.00048254
     atom   15 type  1   force =     0.00000460   -0.00000460    0.00163184
     atom   16 type  1   force =    -0.00000171   -0.00000171   -0.00170995
     atom   17 type  1   force =    -0.00001105   -0.00000460   -0.00009734
     atom   18 type  1   force =    -0.00000460   -0.00001105   -0.00008813
     atom   19 type  1   force =    -0.00338487    0.00000460    0.00156649
     atom   20 type  1   force =    -0.00000000   -0.00338027    0.00156189
     atom   21 type  1   force =    -0.00042608   -0.00043607    0.00047714
     atom   22 type  1   force =     0.00000171    0.00000171   -0.00170995
     atom   23 type  1   force =     0.00000460    0.00001105   -0.00009734
     atom   24 type  1   force =     0.00001105    0.00000460   -0.00008813
     atom   25 type  1   force =    -0.00043328    0.00043328    0.00046314
     atom   26 type  1   force =    -0.00000460    0.00000460    0.00159003
     atom   27 type  1   force =     0.00043868   -0.00043868    0.00046775
     The local contribution  to forces
     atom    1 type  1   force =    -0.00000000    0.00000000    0.01471623
     atom    2 type  1   force =    -0.00000084    0.00000084    0.00166290
     atom    3 type  1   force =     0.00000084   -0.00000084    0.00166290
     atom    4 type  1   force =    -0.00000000   -0.00369236   -0.00179958
     atom    5 type  1   force =    -0.00045092   -0.00046178   -0.00050485
     atom    6 type  1   force =    -0.00369236   -0.00000000   -0.00179958
     atom    7 type  1   force =    -0.00000000   -0.00364809   -0.00178712
     atom    8 type  1   force =    -0.00364809    0.00000000   -0.00178712
     atom    9 type  1   force =    -0.00045620   -0.00044535   -0.00050747
     atom   10 type  1   force =     0.00369236    0.00000000   -0.00179958
     atom   11 type  1   force =     0.00046178    0.00045092   -0.00050485
     atom   12 type  1   force =     0.00000000    0.00369236   -0.00179958
     atom   13 type  1   force =     0.00045621   -0.00045621   -0.00051833
     atom   14 type  1   force =    -0.00044535    0.00044535   -0.00051833
     atom   15 type  1   force =     0.00000000   -0.00000000   -0.00166046
     atom   16 type  1   force =    -0.00000084   -0.00000084    0.00166290
     atom   17 type  1   force =     0.00001167   -0.00000000    0.00007697
     atom   18 type  1   force =     0.00000000    0.00001167    0.00007697
     atom   19 type  1   force =     0.00364809    0.00000000   -0.00178712
     atom   20 type  1   force =    -0.00000000    0.00364809   -0.00178712
     atom   21 type  1   force =     0.00044535    0.00045620   -0.00050747
     atom   22 type  1   force =     0.00000084    0.00000084    0.00166290
     atom   23 type  1   force =     0.00000000   -0.00001167    0.00007697
     atom   24 type  1   force =    -0.00001167   -0.00000000    0.00007697
     atom   25 type  1   force =     0.00045092   -0.00045092   -0.00049400
     atom   26 type  1   force =     0.00000000    0.00000000   -0.00161862
     atom   27 type  1   force =    -0.00046178    0.00046178   -0.00049400
     The core correction contribution to forces
     atom    1 type  1   force =    -0.00000000    0.00000000    0.00029806
     atom    2 type  1   force =    -0.00000003    0.00000003    0.00000164
     atom    3 type  1   force =     0.00000003   -0.00000003    0.00000164
     atom    4 type  1   force =     0.00000000   -0.00004081   -0.00003562
     atom    5 type  1   force =    -0.00000053   -0.00000101   -0.00000102
     atom    6 type  1   force =    -0.00004081   -0.00000000   -0.00003562
     atom    7 type  1   force =    -0.00000000   -0.00003963   -0.00003477
     atom    8 type  1   force =    -0.00003963   -0.00000000   -0.00003477
     atom    9 type  1   force =    -0.00000094   -0.00000046   -0.00000069
     atom   10 type  1   force =     0.00004081   -0.00000000   -0.00003562
     atom   11 type  1   force =     0.00000101    0.00000053   -0.00000102
     atom   12 type  1   force =     0.00000000    0.00004081   -0.00003562
     atom   13 type  1   force =     0.00000094   -0.00000094   -0.00000117
     atom   14 type  1   force =    -0.00000046    0.00000046   -0.00000117
     atom   15 type  1   force =     0.00000000   -0.00000000   -0.00000535
     atom   16 type  1   force =    -0.00000003   -0.00000003    0.00000164
     atom   17 type  1   force =     0.00000016   -0.00000000   -0.00000144
     atom   18 type  1   force =    -0.00000000    0.00000016   -0.00000144
     atom   19 type  1   force =     0.00003963    0.00000000   -0.00003477
     atom   20 type  1   force =     0.00000000    0.00003963   -0.00003477
     atom   21 type  1   force =     0.00000046    0.00000094   -0.00000069
     atom   22 type  1   force =     0.00000003    0.00000003    0.00000164
     atom   23 type  1   force =     0.00000000   -0.00000016   -0.00000144
     atom   24 type  1   force =    -0.00000016    0.00000000   -0.00000144
     atom   25 type  1   force =     0.00000053   -0.00000053   -0.00000054
     atom   26 type  1   force =    -0.00000000    0.00000000   -0.00000508
     atom   27 type  1   force =    -0.00000101    0.00000101   -0.00000054
     The Hubbard contrib.    to forces
     atom    1 type  1   force =     0.00000000    0.00000000    0.00000000
     atom    2 type  1   force =     0.00000000    0.00000000    0.00000000
     atom    3 type  1   force =     0.00000000    0.00000000    0.00000000
     atom    4 type  1   force =     0.00000000    0.00000000    0.00000000
     atom    5 type  1   force =     0.00000000    0.00000000    0.00000000
     atom    6 type  1   force =     0.00000000    0.00000000    0.00000000
     atom    7 type  1   force =     0.00000000    0.00000000    0.00000000
     atom    8 type  1   force =     0.00000000    0.00000000    0.00000000
     atom    9 type  1   force =     0.00000000    0.00000000    0.00000000
     atom   10 type  1   force =     0.00000000    0.00000000    0.00000000
     atom   11 type  1   force =     0.00000000    0.00000000    0.00000000
     atom   12 type  1   force =     0.00000000    0.00000000    0.00000000
     atom   13 type  1   force =     0.00000000    0.00000000    0.00000000
     atom   14 type  1   force =     0.00000000    0.00000000    0.00000000
     atom   15 type  1   force =     0.00000000    0.00000000    0.00000000
     atom   16 type  1   force =     0.00000000    0.00000000    0.00000000
     atom   17 type  1   force =     0.00000000    0.00000000    0.00000000
     atom   18 type  1   force =     0.00000000    0.00000000    0.00000000
     atom   19 type  1   force =     0.00000000    0.00000000    0.00000000
     atom   20 type  1   force =     0.00000000    0.00000000    0.00000000
     atom   21 type  1   force =     0.00000000    0.00000000    0.00000000
     atom   22 type  1   force =     0.00000000    0.00000000    0.00000000
     atom   23 type  1   force =     0.00000000    0.00000000    0.00000000
     atom   24 type  1   force =     0.00000000    0.00000000    0.00000000
     atom   25 type  1   force =     0.00000000    0.00000000    0.00000000
     atom   26 type  1   force =     0.00000000    0.00000000    0.00000000
     atom   27 type  1   force =     0.00000000    0.00000000    0.00000000
     The SCF correction term to forces
     atom    1 type  1   force =    -0.00000000    0.00000000    0.00000000
     atom    2 type  1   force =    -0.00000000    0.00000000    0.00000000
     atom    3 type  1   force =     0.00000000   -0.00000000    0.00000000
     atom    4 type  1   force =    -0.00000000   -0.00000000    0.00000000
     atom    5 type  1   force =    -0.00000000   -0.00000000   -0.00000000
     atom    6 type  1   force =    -0.00000000    0.00000000    0.00000000
     atom    7 type  1   force =     0.00000000   -0.00000000    0.00000000
     atom    8 type  1   force =    -0.00000000    0.00000000    0.00000000
     atom    9 type  1   force =    -0.00000000   -0.00000000    0.00000000
     atom   10 type  1   force =     0.00000000    0.00000000    0.00000000
     atom   11 type  1   force =     0.00000000    0.00000000   -0.00000000
     atom   12 type  1   force =    -0.00000000    0.00000000    0.00000000
     atom   13 type  1   force =     0.00000000   -0.00000000    0.00000000
     atom   14 type  1   force =    -0.00000000    0.00000000    0.00000000
     atom   15 type  1   force =    -0.00000000    0.00000000   -0.00000000
     atom   16 type  1   force =    -0.00000000   -0.00000000    0.00000000
     atom   17 type  1   force =    -0.00000000    0.00000000   -0.00000000
     atom   18 type  1   force =     0.00000000   -0.00000000   -0.00000000
     atom   19 type  1   force =     0.00000000   -0.00000000    0.00000000
     atom   20 type  1   force =    -0.00000000    0.00000000    0.00000000
     atom   21 type  1   force =     0.00000000    0.00000000    0.00000000
     atom   22 type  1   force =     0.00000000    0.00000000    0.00000000
     atom   23 type  1   force =    -0.00000000    0.00000000   -0.00000000
     atom   24 type  1   force =     0.00000000   -0.00000000   -0.00000000
     atom   25 type  1   force =     0.00000000   -0.00000000   -0.00000000
     atom   26 type  1   force =     0.00000000   -0.00000000   -0.00000000
     atom   27 type  1   force =    -0.00000000    0.00000000   -0.00000000

     Total force =     0.002108     Total SCF correction =     0.000000


     Computing stress (Cartesian axis) and pressure


     negative rho (up, down):  2.074E-02 0.000E+00
          total   stress  (Ry/bohr**3)                   (kbar)     P=        0.19
   0.00000131   0.00000000   0.00000000            0.19        0.00        0.00
   0.00000000   0.00000131   0.00000000            0.00        0.19        0.00
   0.00000000   0.00000000   0.00000132            0.00        0.00        0.19

     kinetic stress (kbar)   1464.87      0.00      0.00
                                0.00   1464.87      0.00
                                0.00      0.00   1464.87

     local   stress (kbar)    -46.99      0.00      0.00
                                0.00    -46.99     -0.00
                                0.00     -0.00    -46.97

     nonloc. stress (kbar)   1752.03      0.00     -0.00
                               -0.00   1752.03      0.00
                                0.00      0.00   1752.03

     hartree stress (kbar)      3.66     -0.00     -0.00
                               -0.00      3.66      0.00
                               -0.00      0.00      3.65

     exc-cor stress (kbar)    -86.41      0.00      0.00
                                0.00    -86.41     -0.00
                                0.00     -0.00    -86.41

     corecor stress (kbar)   -699.38     -0.00     -0.00
                               -0.00   -699.38      0.00
                               -0.00      0.00   -699.38

     ewald   stress (kbar)  -2387.59     -0.00     -0.00
                               -0.00  -2387.59      0.00
                               -0.00      0.00  -2387.60

     hubbard stress (kbar)      0.00      0.00      0.00
                                0.00      0.00      0.00
                                0.00      0.00      0.00

     DFT-D   stress (kbar)      0.00      0.00      0.00
                                0.00      0.00      0.00
                                0.00      0.00      0.00

     XDM     stress (kbar)      0.00      0.00      0.00
                                0.00      0.00      0.00
                                0.00      0.00      0.00

     dft-nl  stress (kbar)      0.00      0.00      0.00
                                0.00      0.00      0.00
                                0.00      0.00      0.00

     TS-vdW  stress (kbar)      0.00      0.00      0.00
                                0.00      0.00      0.00
                                0.00      0.00      0.00

     MDB     stress (kbar)      0.00      0.00      0.00
                                0.00      0.00      0.00
                                0.00      0.00      0.00

     3D-RISM stress (kbar)      0.00      0.00      0.00
                                0.00      0.00      0.00
                                0.00      0.00      0.00


     Writing all to output data dir ./scratch_runs/atom01_z_plus/al.save/ :
     XML data file, charge density, pseudopotentials, collected wavefunctions
 
     init_run     :      1.34s CPU      1.49s WALL (       1 calls)
     electrons    :     21.56s CPU     22.51s WALL (       1 calls)
     forces       :      0.14s CPU      0.14s WALL (       1 calls)
     stress       :      0.46s CPU      0.46s WALL (       1 calls)

     Called by init_run:
     wfcinit      :      1.12s CPU      1.19s WALL (       1 calls)
     wfcinit:atom :      0.01s CPU      0.03s WALL (      20 calls)
     wfcinit:wfcr :      0.98s CPU      1.03s WALL (      20 calls)
     potinit      :      0.20s CPU      0.26s WALL (       1 calls)
     hinit0       :      0.01s CPU      0.02s WALL (       1 calls)

     Called by electrons:
     c_bands      :     15.27s CPU     15.49s WALL (      24 calls)
     sum_band     :      1.99s CPU      2.03s WALL (      24 calls)
     v_of_rho     :      0.05s CPU      0.05s WALL (      24 calls)
     v_h          :      0.00s CPU      0.00s WALL (      24 calls)
     v_xc         :      0.05s CPU      0.05s WALL (      26 calls)
     newd         :      0.06s CPU      0.06s WALL (      24 calls)
     PAW_pot      :      4.38s CPU      5.13s WALL (      24 calls)
     mix_rho      :      0.01s CPU      0.01s WALL (      24 calls)

     Called by c_bands:
     init_us_2    :      0.57s CPU      0.58s WALL (    1020 calls)
     cegterg      :     14.03s CPU     14.24s WALL (     480 calls)

     Called by sum_band:
     sum_band:wei :      0.01s CPU      0.01s WALL (      24 calls)
     sum_band:loo :      1.93s CPU      1.98s WALL (      24 calls)
     sum_band:buf :      0.05s CPU      0.05s WALL (     480 calls)
     sum_band:ini :      0.22s CPU      0.23s WALL (     480 calls)
     sum_band:cal :      0.51s CPU      0.52s WALL (     480 calls)
     sum_band:bec :      0.01s CPU      0.01s WALL (     480 calls)
     addusdens    :      0.03s CPU      0.03s WALL (      24 calls)
                                        0.00s GPU  (      24 calls)
     addusd:skk   :      0.00s CPU      0.00s WALL (      24 calls)
                                        0.00s GPU  (      24 calls)

     Called by *egterg:
     cdiaghg      :      2.57s CPU      2.57s WALL (    1667 calls)
     cegterg:over :      0.90s CPU      0.90s WALL (    1207 calls)
     cegterg:upda :      0.45s CPU      0.45s WALL (    1207 calls)
     cegterg:last :      0.75s CPU      0.75s WALL (     817 calls)
     h_psi        :      8.17s CPU      8.41s WALL (    1707 calls)
     s_psi        :      1.33s CPU      1.33s WALL (    1707 calls)
     g_psi        :      0.05s CPU      0.05s WALL (    1207 calls)

     Called by h_psi:
     h_psi:calbec :      1.53s CPU      1.56s WALL (    1707 calls)
     vloc_psi     :      5.18s CPU      5.37s WALL (    1707 calls)
     add_vuspsi   :      1.34s CPU      1.35s WALL (    1707 calls)

     General routines
     calbec       :      2.43s CPU      2.46s WALL (    2527 calls)
     fft          :      0.02s CPU      0.03s WALL (     290 calls)
     ffts         :      0.00s CPU      0.00s WALL (      24 calls)
     fftw         :      5.30s CPU      5.48s WALL (  145896 calls)
 
     Parallel routines

     PAW routines
     PAW_pot      :      4.38s CPU      5.13s WALL (      24 calls)
     PAW_symme    :      0.00s CPU      0.00s WALL (      48 calls)
 
     PWSCF        :     23.64s CPU     24.85s WALL

 
   This run was terminated on:  12:30:15   1Apr2026            

=------------------------------------------------------------------------------=
   JOB DONE.
=------------------------------------------------------------------------------=

===== TIMING =====
Job:           atom01_z_plus
Start:         2026-04-01T12:29:50+02:00
End:           2026-04-01T12:30:15+02:00
Duration (s):  25
Duration (H:M:S): 00:00:25
==================
