
     Program PWSCF v.7.4 starts on 16Jun2026 at 10:28:16 

     This program is part of the open-source Quantum ESPRESSO suite
     for quantum simulation of materials; please cite
         "P. Giannozzi et al., J. Phys.:Condens. Matter 21 395502 (2009);
         "P. Giannozzi et al., J. Phys.:Condens. Matter 29 465901 (2017);
         "P. Giannozzi et al., J. Chem. Phys. 152 154105 (2020);
          URL http://www.quantum-espresso.org", 
     in publications or presentations arising from this work. More details at
     http://www.quantum-espresso.org/quote

     Parallel version (MPI), running on    12 processors

     MPI processes distributed on     1 nodes
     96731 MiB available memory on the printing compute node when the environment starts
 
     Reading input from ./scratch_runs/atom01_y_plus/atom01_y_plus.in

     Current dimensions of program PWSCF are:
     Max number of different atomic species (ntypx) = 10
     Max number of k-points (npk) =  40000
     Max angular momentum in pseudopotentials (lmaxx) =  4
read_pp_mesh; mismatch in mesh size, discarding the one in header
     Message from routine setup:
     using ibrav=0 with symmetry is DISCOURAGED, use correct ibrav instead
 
     R & G space division:  proc/nbgrp/npool/nimage =      12
     Subspace diagonalization in iterative solution of the eigenvalue problem:
     a serial algorithm will be used

 
     Parallelization info
     --------------------
     sticks:   dense  smooth     PW     G-vecs:    dense   smooth      PW
     Min         301     301     83                11944    11944    1711
     Max         302     302     84                11947    11947    1712
     Sum        3619    3619   1003               143351   143351   20539
 
     Using Slab Decomposition
 


     bravais-lattice index     =            0
     lattice parameter (alat)  =      16.1864  a.u.
     unit-cell volume          =    2998.7122 (a.u.)^3
     number of atoms/cell      =           27
     number of atomic types    =            1
     number of electrons       =        81.00
     number of Kohn-Sham states=           49
     kinetic-energy cutoff     =      50.0000  Ry
     charge density cutoff     =     200.0000  Ry
     scf convergence threshold =      1.0E-15
     mixing beta               =       0.7000
     number of iterations used =            8  plain     mixing
     Exchange-correlation= SLA PW PBX PBC
                           (   1   4   3   4   0   0   0)

     celldm(1)=  16.186387  celldm(2)=   0.000000  celldm(3)=   0.000000
     celldm(4)=   0.000000  celldm(5)=   0.000000  celldm(6)=   0.000000

     crystal axes: (cart. coord. in units of alat)
               a(1) = (  -0.707107   0.000000   0.707107 )  
               a(2) = (   0.000000   0.707107   0.707107 )  
               a(3) = (  -0.707107   0.707107   0.000000 )  

     reciprocal axes: (cart. coord. in units 2 pi/alat)
               b(1) = ( -0.707107 -0.707107  0.707107 )  
               b(2) = (  0.707107  0.707107  0.707107 )  
               b(3) = ( -0.707107  0.707107 -0.707107 )  


     PseudoPot. # 1 for Al read from file:
     ../../../pseudopotentzialak/Al.upf
     MD5 check sum: fd3ab6bbf4b2322b308692f0f9c61a66
     Pseudo is Projector augmented-wave + core cor, Zval =  3.0
     Generated using ATOMPAW code
     Shape of augmentation charge: SINC**2
     Using radial grid of 2342 points,  4 beta functions with: 
                l(1) =   0
                l(2) =   0
                l(3) =   1
                l(4) =   1
     Q(r) pseudized with 0 coefficients 


     atomic species   valence    mass     pseudopotential
     Al                3.00    26.98150     Al( 1.00)

      8 Sym. Ops. (no inversion) found


                                    s                        frac. trans.

      isym =  1     identity                                     

 cryst.   s( 1) = (     1          0          0      )
                  (     0          1          0      )
                  (     0          0          1      )

 cart.    s( 1) = (  1.0000000  0.0000000  0.0000000 )
                  (  0.0000000  1.0000000  0.0000000 )
                  (  0.0000000  0.0000000  1.0000000 )


      isym =  2     180 deg rotation - cart. axis [0,1,0]        

 cryst.   s( 2) = (    -1          0          0      )
                  (    -1          0          1      )
                  (    -1          1          0      )

 cart.    s( 2) = ( -1.0000000  0.0000000  0.0000000 )
                  (  0.0000000  1.0000000  0.0000000 )
                  (  0.0000000  0.0000000 -1.0000000 )


      isym =  3      90 deg rotation - cart. axis [0,1,0]        

 cryst.   s( 3) = (     0          1         -1      )
                  (    -1          1          0      )
                  (     0          1          0      )

 cart.    s( 3) = (  0.0000000  0.0000000  1.0000000 )
                  (  0.0000000  1.0000000  0.0000000 )
                  ( -1.0000000  0.0000000  0.0000000 )


      isym =  4      90 deg rotation - cart. axis [0,-1,0]       

 cryst.   s( 4) = (     0         -1          1      )
                  (     0          0          1      )
                  (    -1          0          1      )

 cart.    s( 4) = (  0.0000000  0.0000000 -1.0000000 )
                  (  0.0000000  1.0000000  0.0000000 )
                  (  1.0000000  0.0000000  0.0000000 )


      isym =  5     inv. 180 deg rotation - cart. axis [0,0,1]   

 cryst.   s( 5) = (     0         -1          1      )
                  (    -1          0          1      )
                  (     0          0          1      )

 cart.    s( 5) = (  1.0000000  0.0000000  0.0000000 )
                  (  0.0000000  1.0000000  0.0000000 )
                  (  0.0000000  0.0000000 -1.0000000 )


      isym =  6     inv. 180 deg rotation - cart. axis [1,0,0]   

 cryst.   s( 6) = (     0          1         -1      )
                  (     0          1          0      )
                  (    -1          1          0      )

 cart.    s( 6) = ( -1.0000000  0.0000000  0.0000000 )
                  (  0.0000000  1.0000000  0.0000000 )
                  (  0.0000000  0.0000000  1.0000000 )


      isym =  7     inv. 180 deg rotation - cart. axis [1,0,1]   

 cryst.   s( 7) = (     1          0          0      )
                  (     0          0          1      )
                  (     0          1          0      )

 cart.    s( 7) = (  0.0000000  0.0000000 -1.0000000 )
                  (  0.0000000  1.0000000  0.0000000 )
                  ( -1.0000000  0.0000000  0.0000000 )


      isym =  8     inv. 180 deg rotation - cart. axis [-1,0,1]  

 cryst.   s( 8) = (    -1          0          0      )
                  (    -1          1          0      )
                  (    -1          0          1      )

 cart.    s( 8) = (  0.0000000  0.0000000  1.0000000 )
                  (  0.0000000  1.0000000  0.0000000 )
                  (  1.0000000  0.0000000  0.0000000 )


   Cartesian axes

     site n.     atom                  positions (alat units)
         1        Al     tau(   1) = (   0.0000000   0.0011675   0.0000000  )
         2        Al     tau(   2) = (  -0.2357020   0.2357020   0.0000000  )
         3        Al     tau(   3) = (  -0.4714048   0.4714048   0.0000000  )
         4        Al     tau(   4) = (   0.0000000   0.2357020   0.2357020  )
         5        Al     tau(   5) = (  -0.2357020   0.4714041   0.2357020  )
         6        Al     tau(   6) = (  -0.4714048   0.7071068   0.2357020  )
         7        Al     tau(   7) = (   0.0000000   0.4714048   0.4714048  )
         8        Al     tau(   8) = (  -0.2357020   0.7071068   0.4714048  )
         9        Al     tau(   9) = (  -0.4714048   0.9428095   0.4714048  )
        10        Al     tau(  10) = (  -0.2357020   0.0000000   0.2357020  )
        11        Al     tau(  11) = (  -0.4714041   0.2357020   0.2357020  )
        12        Al     tau(  12) = (  -0.7071068   0.4714048   0.2357020  )
        13        Al     tau(  13) = (  -0.2357020   0.2357020   0.4714041  )
        14        Al     tau(  14) = (  -0.4714041   0.4714041   0.4714041  )
        15        Al     tau(  15) = (  -0.7071068   0.7071068   0.4714041  )
        16        Al     tau(  16) = (  -0.2357020   0.4714048   0.7071068  )
        17        Al     tau(  17) = (  -0.4714041   0.7071068   0.7071068  )
        18        Al     tau(  18) = (  -0.7071068   0.9428095   0.7071068  )
        19        Al     tau(  19) = (  -0.4714048   0.0000000   0.4714048  )
        20        Al     tau(  20) = (  -0.7071068   0.2357020   0.4714048  )
        21        Al     tau(  21) = (  -0.9428095   0.4714048   0.4714048  )
        22        Al     tau(  22) = (  -0.4714048   0.2357020   0.7071068  )
        23        Al     tau(  23) = (  -0.7071068   0.4714041   0.7071068  )
        24        Al     tau(  24) = (  -0.9428095   0.7071068   0.7071068  )
        25        Al     tau(  25) = (  -0.4714048   0.4714048   0.9428095  )
        26        Al     tau(  26) = (  -0.7071068   0.7071068   0.9428095  )
        27        Al     tau(  27) = (  -0.9428095   0.9428095   0.9428095  )

   Crystallographic axes

     site n.     atom                  positions (cryst. coord.)
         1        Al     tau(   1) = ( -0.0008255  0.0008255  0.0008255  )
         2        Al     tau(   2) = (  0.0000000  0.0000000  0.3333330  )
         3        Al     tau(   3) = (  0.0000000  0.0000000  0.6666670  )
         4        Al     tau(   4) = (  0.0000000  0.3333330  0.0000000  )
         5        Al     tau(   5) = (  0.0000000  0.3333330  0.3333330  )
         6        Al     tau(   6) = (  0.0000000  0.3333330  0.6666670  )
         7        Al     tau(   7) = (  0.0000000  0.6666670  0.0000000  )
         8        Al     tau(   8) = (  0.0000000  0.6666670  0.3333330  )
         9        Al     tau(   9) = (  0.0000000  0.6666670  0.6666670  )
        10        Al     tau(  10) = (  0.3333330  0.0000000  0.0000000  )
        11        Al     tau(  11) = (  0.3333330  0.0000000  0.3333330  )
        12        Al     tau(  12) = (  0.3333330  0.0000000  0.6666670  )
        13        Al     tau(  13) = (  0.3333330  0.3333330  0.0000000  )
        14        Al     tau(  14) = (  0.3333330  0.3333330  0.3333330  )
        15        Al     tau(  15) = (  0.3333330  0.3333330  0.6666670  )
        16        Al     tau(  16) = (  0.3333330  0.6666670  0.0000000  )
        17        Al     tau(  17) = (  0.3333330  0.6666670  0.3333330  )
        18        Al     tau(  18) = (  0.3333330  0.6666670  0.6666670  )
        19        Al     tau(  19) = (  0.6666670  0.0000000  0.0000000  )
        20        Al     tau(  20) = (  0.6666670  0.0000000  0.3333330  )
        21        Al     tau(  21) = (  0.6666670  0.0000000  0.6666670  )
        22        Al     tau(  22) = (  0.6666670  0.3333330  0.0000000  )
        23        Al     tau(  23) = (  0.6666670  0.3333330  0.3333330  )
        24        Al     tau(  24) = (  0.6666670  0.3333330  0.6666670  )
        25        Al     tau(  25) = (  0.6666670  0.6666670  0.0000000  )
        26        Al     tau(  26) = (  0.6666670  0.6666670  0.3333330  )
        27        Al     tau(  27) = (  0.6666670  0.6666670  0.6666670  )

     number of k points=    59  Methfessel-Paxton smearing, width (Ry)=  0.0200
                       cart. coord. in units 2pi/alat
        k(    1) = (   0.0000000   0.0000000   0.0000000), wk =   0.0039062
        k(    2) = (  -0.0883883   0.0883883  -0.0883883), wk =   0.0312500
        k(    3) = (  -0.1767767   0.1767767  -0.1767767), wk =   0.0312500
        k(    4) = (  -0.2651650   0.2651650  -0.2651650), wk =   0.0312500
        k(    5) = (   0.3535534  -0.3535534   0.3535534), wk =   0.0156250
        k(    6) = (   0.0000000   0.1767767   0.0000000), wk =   0.0078125
        k(    7) = (  -0.0883883   0.2651650  -0.0883883), wk =   0.0312500
        k(    8) = (  -0.1767767   0.3535534  -0.1767767), wk =   0.0312500
        k(    9) = (   0.4419417  -0.2651650   0.4419417), wk =   0.0312500
        k(   10) = (   0.3535534  -0.1767767   0.3535534), wk =   0.0312500
        k(   11) = (   0.2651650  -0.0883883   0.2651650), wk =   0.0312500
        k(   12) = (   0.1767767   0.0000000   0.1767767), wk =   0.0156250
        k(   13) = (   0.0000000   0.3535534   0.0000000), wk =   0.0078125
        k(   14) = (  -0.0883883   0.4419417  -0.0883883), wk =   0.0312500
        k(   15) = (   0.5303301  -0.1767767   0.5303301), wk =   0.0312500
        k(   16) = (   0.4419417  -0.0883883   0.4419417), wk =   0.0312500
        k(   17) = (   0.3535534   0.0000000   0.3535534), wk =   0.0156250
        k(   18) = (   0.0000000   0.5303301   0.0000000), wk =   0.0078125
        k(   19) = (   0.6187184  -0.0883883   0.6187184), wk =   0.0312500
        k(   20) = (   0.5303301   0.0000000   0.5303301), wk =   0.0156250
        k(   21) = (   0.0000000  -0.7071068   0.0000000), wk =   0.0039062
        k(   22) = (  -0.1767767   0.3535534   0.0000000), wk =   0.0312500
        k(   23) = (   0.4419417  -0.2651650   0.6187184), wk =   0.0625000
        k(   24) = (   0.3535534  -0.1767767   0.5303301), wk =   0.0625000
        k(   25) = (   0.5303301  -0.1767767   0.7071068), wk =   0.0312500
        k(   26) = (   0.4419417  -0.0883883   0.6187184), wk =   0.0625000
        k(   27) = (   0.3535534   0.0000000   0.5303301), wk =   0.0312500
        k(   28) = (  -0.1767767  -0.7071068   0.0000000), wk =   0.0156250
        k(   29) = (  -0.3535534  -0.7071068   0.0000000), wk =   0.0156250
        k(   30) = (   0.0000000   0.0000000   0.1767767), wk =   0.0156250
        k(   31) = (   0.0883883  -0.0883883   0.2651650), wk =   0.0625000
        k(   32) = (   0.1767767  -0.1767767   0.3535534), wk =   0.0625000
        k(   33) = (  -0.4419417   0.4419417  -0.2651650), wk =   0.0625000
        k(   34) = (  -0.3535534   0.3535534  -0.1767767), wk =   0.0625000
        k(   35) = (  -0.2651650   0.2651650  -0.0883883), wk =   0.0625000
        k(   36) = (  -0.1767767   0.1767767   0.0000000), wk =   0.0312500
        k(   37) = (   0.0000000   0.0000000   0.3535534), wk =   0.0156250
        k(   38) = (   0.0883883  -0.0883883   0.4419417), wk =   0.0625000
        k(   39) = (  -0.5303301   0.5303301  -0.1767767), wk =   0.0625000
        k(   40) = (  -0.4419417   0.4419417  -0.0883883), wk =   0.0625000
        k(   41) = (  -0.3535534   0.3535534   0.0000000), wk =   0.0312500
        k(   42) = (   0.0000000   0.0000000   0.5303301), wk =   0.0156250
        k(   43) = (  -0.6187184   0.6187184  -0.0883883), wk =   0.0625000
        k(   44) = (  -0.5303301   0.5303301   0.0000000), wk =   0.0312500
        k(   45) = (   0.0000000   0.0000000  -0.7071068), wk =   0.0078125
        k(   46) = (   0.1767767   0.0000000   0.3535534), wk =   0.0312500
        k(   47) = (   0.0000000  -0.1767767   0.3535534), wk =   0.0312500
        k(   48) = (  -0.4419417   0.6187184  -0.2651650), wk =   0.0625000
        k(   49) = (   0.6187184   0.4419417  -0.2651650), wk =   0.0625000
        k(   50) = (   0.5303301   0.3535534  -0.1767767), wk =   0.0312500
        k(   51) = (  -0.5303301   0.7071068  -0.1767767), wk =   0.0312500
        k(   52) = (   0.7071068   0.5303301  -0.1767767), wk =   0.0312500
        k(   53) = (  -0.4419417   0.6187184  -0.0883883), wk =   0.0625000
        k(   54) = (   0.6187184   0.4419417  -0.0883883), wk =   0.0625000
        k(   55) = (  -0.3535534   0.5303301   0.0000000), wk =   0.0312500
        k(   56) = (   0.5303301   0.3535534   0.0000000), wk =   0.0312500
        k(   57) = (   0.1767767   0.0000000  -0.7071068), wk =   0.0156250
        k(   58) = (   0.0000000  -0.1767767  -0.7071068), wk =   0.0156250
        k(   59) = (   0.0000000  -0.3535534  -0.7071068), wk =   0.0078125

                       cryst. coord.
        k(    1) = (   0.0000000   0.0000000   0.0000000), wk =   0.0039062
        k(    2) = (   0.0000000   0.0000000   0.1250000), wk =   0.0312500
        k(    3) = (   0.0000000   0.0000000   0.2500000), wk =   0.0312500
        k(    4) = (   0.0000000   0.0000000   0.3750000), wk =   0.0312500
        k(    5) = (   0.0000000   0.0000000  -0.5000000), wk =   0.0156250
        k(    6) = (   0.0000000   0.1250000   0.1250000), wk =   0.0078125
        k(    7) = (   0.0000000   0.1250000   0.2500000), wk =   0.0312500
        k(    8) = (   0.0000000   0.1250000   0.3750000), wk =   0.0312500
        k(    9) = (   0.0000000   0.1250000  -0.5000000), wk =   0.0312500
        k(   10) = (   0.0000000   0.1250000  -0.3750000), wk =   0.0312500
        k(   11) = (   0.0000000   0.1250000  -0.2500000), wk =   0.0312500
        k(   12) = (   0.0000000   0.1250000  -0.1250000), wk =   0.0156250
        k(   13) = (   0.0000000   0.2500000   0.2500000), wk =   0.0078125
        k(   14) = (   0.0000000   0.2500000   0.3750000), wk =   0.0312500
        k(   15) = (   0.0000000   0.2500000  -0.5000000), wk =   0.0312500
        k(   16) = (   0.0000000   0.2500000  -0.3750000), wk =   0.0312500
        k(   17) = (   0.0000000   0.2500000  -0.2500000), wk =   0.0156250
        k(   18) = (   0.0000000   0.3750000   0.3750000), wk =   0.0078125
        k(   19) = (   0.0000000   0.3750000  -0.5000000), wk =   0.0312500
        k(   20) = (   0.0000000   0.3750000  -0.3750000), wk =   0.0156250
        k(   21) = (   0.0000000  -0.5000000  -0.5000000), wk =   0.0039062
        k(   22) = (   0.1250000   0.2500000   0.3750000), wk =   0.0312500
        k(   23) = (   0.1250000   0.2500000  -0.5000000), wk =   0.0625000
        k(   24) = (   0.1250000   0.2500000  -0.3750000), wk =   0.0625000
        k(   25) = (   0.1250000   0.3750000  -0.5000000), wk =   0.0312500
        k(   26) = (   0.1250000   0.3750000  -0.3750000), wk =   0.0625000
        k(   27) = (   0.1250000   0.3750000  -0.2500000), wk =   0.0312500
        k(   28) = (   0.1250000  -0.5000000  -0.3750000), wk =   0.0156250
        k(   29) = (   0.2500000  -0.5000000  -0.2500000), wk =   0.0156250
        k(   30) = (   0.1250000   0.1250000   0.0000000), wk =   0.0156250
        k(   31) = (   0.1250000   0.1250000  -0.1250000), wk =   0.0625000
        k(   32) = (   0.1250000   0.1250000  -0.2500000), wk =   0.0625000
        k(   33) = (   0.1250000   0.1250000   0.6250000), wk =   0.0625000
        k(   34) = (   0.1250000   0.1250000   0.5000000), wk =   0.0625000
        k(   35) = (   0.1250000   0.1250000   0.3750000), wk =   0.0625000
        k(   36) = (   0.1250000   0.1250000   0.2500000), wk =   0.0312500
        k(   37) = (   0.2500000   0.2500000   0.0000000), wk =   0.0156250
        k(   38) = (   0.2500000   0.2500000  -0.1250000), wk =   0.0625000
        k(   39) = (   0.2500000   0.2500000   0.7500000), wk =   0.0625000
        k(   40) = (   0.2500000   0.2500000   0.6250000), wk =   0.0625000
        k(   41) = (   0.2500000   0.2500000   0.5000000), wk =   0.0312500
        k(   42) = (   0.3750000   0.3750000   0.0000000), wk =   0.0156250
        k(   43) = (   0.3750000   0.3750000   0.8750000), wk =   0.0625000
        k(   44) = (   0.3750000   0.3750000   0.7500000), wk =   0.0312500
        k(   45) = (  -0.5000000  -0.5000000   0.0000000), wk =   0.0078125
        k(   46) = (   0.1250000   0.2500000  -0.1250000), wk =   0.0312500
        k(   47) = (   0.2500000   0.1250000  -0.1250000), wk =   0.0312500
        k(   48) = (   0.1250000   0.2500000   0.7500000), wk =   0.0625000
        k(   49) = (  -0.6250000   0.1250000  -0.1250000), wk =   0.0625000
        k(   50) = (  -0.5000000   0.1250000  -0.1250000), wk =   0.0312500
        k(   51) = (   0.2500000   0.3750000   0.8750000), wk =   0.0312500
        k(   52) = (  -0.6250000   0.2500000  -0.1250000), wk =   0.0312500
        k(   53) = (   0.2500000   0.3750000   0.7500000), wk =   0.0625000
        k(   54) = (  -0.5000000   0.2500000  -0.1250000), wk =   0.0625000
        k(   55) = (   0.2500000   0.3750000   0.6250000), wk =   0.0312500
        k(   56) = (  -0.3750000   0.2500000  -0.1250000), wk =   0.0312500
        k(   57) = (  -0.6250000  -0.5000000  -0.1250000), wk =   0.0156250
        k(   58) = (  -0.5000000  -0.6250000  -0.1250000), wk =   0.0156250
        k(   59) = (  -0.5000000  -0.7500000  -0.2500000), wk =   0.0078125

     Dense  grid:   143351 G-vectors     FFT dimensions: (  75,  75,  75)

     Dynamical RAM for                 wfc:       1.12 MB

     Dynamical RAM for     wfc (w. buffer):      66.93 MB

     Dynamical RAM for           str. fact:       0.18 MB

     Dynamical RAM for           local pot:       0.00 MB

     Dynamical RAM for          nlocal pot:       4.92 MB

     Dynamical RAM for                qrad:       0.32 MB

     Dynamical RAM for          rho,v,vnew:       1.45 MB

     Dynamical RAM for               rhoin:       0.48 MB

     Dynamical RAM for            rho*nmix:       2.92 MB

     Dynamical RAM for           G-vectors:       0.77 MB

     Dynamical RAM for          h,s,v(r/c):       0.44 MB

     Dynamical RAM for          <psi|beta>:       0.16 MB

     Dynamical RAM for                 psi:       2.23 MB

     Dynamical RAM for                hpsi:       2.23 MB

     Dynamical RAM for                spsi:       2.23 MB

     Dynamical RAM for      wfcinit/wfcrot:       2.29 MB

     Dynamical RAM for           addusdens:      12.76 MB

     Dynamical RAM for          addusforce:      22.35 MB

     Dynamical RAM for         addusstress:       9.11 MB

     Estimated static dynamical RAM per process >      76.93 MB

     Estimated max dynamical RAM per process >     102.19 MB

     Estimated total dynamical RAM >       1.20 GB

     Initial potential from superposition of free atoms

     starting charge      80.9324, renormalised to      81.0000

     negative rho (up, down):  1.835E-02 0.000E+00
     Starting wfcs are  216 randomized atomic wfcs
     Checking if some PAW data can be deallocated... 

     total cpu time spent up to now is        7.9 secs

     per-process dynamical memory:   148.1 Mb

     Self-consistent Calculation

     iteration #  1     ecut=    50.00 Ry     beta= 0.70
     Davidson diagonalization with overlap

---- Real-time Memory Report at c_bands before calling an iterative solver
           207 MiB given to the printing process from OS
           144 MiB allocation reported by mallinfo(arena+hblkhd)
         94694 MiB available memory on the node where the printing process lives
------------------
     ethr =  1.00E-02,  avg # of iterations =  2.2

     Threshold (ethr) on eigenvalues was too large:
     Diagonalizing with lowered threshold

     Davidson diagonalization with overlap

---- Real-time Memory Report at c_bands before calling an iterative solver
           210 MiB given to the printing process from OS
           145 MiB allocation reported by mallinfo(arena+hblkhd)
         95061 MiB available memory on the node where the printing process lives
------------------
     ethr =  1.67E-04,  avg # of iterations =  4.1

     negative rho (up, down):  2.068E-02 0.000E+00

     total cpu time spent up to now is       19.5 secs

     total energy              =   -1066.70287749 Ry
     estimated scf accuracy    <       0.13856071 Ry

     iteration #  2     ecut=    50.00 Ry     beta= 0.70
     Davidson diagonalization with overlap

---- Real-time Memory Report at c_bands before calling an iterative solver
           220 MiB given to the printing process from OS
           154 MiB allocation reported by mallinfo(arena+hblkhd)
         95249 MiB available memory on the node where the printing process lives
------------------
     ethr =  1.71E-04,  avg # of iterations =  1.1

     negative rho (up, down):  2.254E-02 0.000E+00

     total cpu time spent up to now is       23.6 secs

     total energy              =   -1066.55238231 Ry
     estimated scf accuracy    <       0.01324799 Ry

     iteration #  3     ecut=    50.00 Ry     beta= 0.70
     Davidson diagonalization with overlap

---- Real-time Memory Report at c_bands before calling an iterative solver
           222 MiB given to the printing process from OS
           154 MiB allocation reported by mallinfo(arena+hblkhd)
         94897 MiB available memory on the node where the printing process lives
------------------
     c_bands:  2 eigenvalues not converged
     ethr =  1.64E-05,  avg # of iterations =  4.1

     negative rho (up, down):  2.192E-02 0.000E+00

     total cpu time spent up to now is       30.0 secs

     total energy              =   -1066.54441882 Ry
     estimated scf accuracy    <       0.02068903 Ry

     iteration #  4     ecut=    50.00 Ry     beta= 0.70
     Davidson diagonalization with overlap

---- Real-time Memory Report at c_bands before calling an iterative solver
           225 MiB given to the printing process from OS
           154 MiB allocation reported by mallinfo(arena+hblkhd)
         95389 MiB available memory on the node where the printing process lives
------------------
     ethr =  1.64E-05,  avg # of iterations =  2.6

     negative rho (up, down):  2.054E-02 0.000E+00

     total cpu time spent up to now is       35.5 secs

     total energy              =   -1066.54981961 Ry
     estimated scf accuracy    <       0.00152445 Ry

     iteration #  5     ecut=    50.00 Ry     beta= 0.70
     Davidson diagonalization with overlap

---- Real-time Memory Report at c_bands before calling an iterative solver
           226 MiB given to the printing process from OS
           155 MiB allocation reported by mallinfo(arena+hblkhd)
         95502 MiB available memory on the node where the printing process lives
------------------
     ethr =  1.88E-06,  avg # of iterations =  6.1

     negative rho (up, down):  1.947E-02 0.000E+00

     total cpu time spent up to now is       41.7 secs

     total energy              =   -1066.54989765 Ry
     estimated scf accuracy    <       0.00047752 Ry

     iteration #  6     ecut=    50.00 Ry     beta= 0.70
     Davidson diagonalization with overlap

---- Real-time Memory Report at c_bands before calling an iterative solver
           226 MiB given to the printing process from OS
           155 MiB allocation reported by mallinfo(arena+hblkhd)
         94297 MiB available memory on the node where the printing process lives
------------------
     ethr =  5.90E-07,  avg # of iterations =  2.1

     negative rho (up, down):  1.902E-02 0.000E+00

     total cpu time spent up to now is       47.1 secs

     total energy              =   -1066.55008354 Ry
     estimated scf accuracy    <       0.00005085 Ry

     iteration #  7     ecut=    50.00 Ry     beta= 0.70
     Davidson diagonalization with overlap

---- Real-time Memory Report at c_bands before calling an iterative solver
           227 MiB given to the printing process from OS
           155 MiB allocation reported by mallinfo(arena+hblkhd)
         94650 MiB available memory on the node where the printing process lives
------------------
     ethr =  6.28E-08,  avg # of iterations =  2.8

     negative rho (up, down):  1.885E-02 0.000E+00

     total cpu time spent up to now is       52.6 secs

     total energy              =   -1066.55009536 Ry
     estimated scf accuracy    <       0.00000873 Ry

     iteration #  8     ecut=    50.00 Ry     beta= 0.70
     Davidson diagonalization with overlap

---- Real-time Memory Report at c_bands before calling an iterative solver
           227 MiB given to the printing process from OS
           156 MiB allocation reported by mallinfo(arena+hblkhd)
         94928 MiB available memory on the node where the printing process lives
------------------
     ethr =  1.08E-08,  avg # of iterations =  3.6

     negative rho (up, down):  1.876E-02 0.000E+00

     total cpu time spent up to now is       58.1 secs

     total energy              =   -1066.55009711 Ry
     estimated scf accuracy    <       0.00000422 Ry

     iteration #  9     ecut=    50.00 Ry     beta= 0.70
     Davidson diagonalization with overlap

---- Real-time Memory Report at c_bands before calling an iterative solver
           228 MiB given to the printing process from OS
           156 MiB allocation reported by mallinfo(arena+hblkhd)
         95095 MiB available memory on the node where the printing process lives
------------------
     ethr =  5.21E-09,  avg # of iterations =  2.0

     negative rho (up, down):  1.872E-02 0.000E+00

     total cpu time spent up to now is       63.2 secs

     total energy              =   -1066.55009769 Ry
     estimated scf accuracy    <       0.00000051 Ry

     iteration # 10     ecut=    50.00 Ry     beta= 0.70
     Davidson diagonalization with overlap

---- Real-time Memory Report at c_bands before calling an iterative solver
           228 MiB given to the printing process from OS
           157 MiB allocation reported by mallinfo(arena+hblkhd)
         94840 MiB available memory on the node where the printing process lives
------------------
     ethr =  6.31E-10,  avg # of iterations =  2.6

     negative rho (up, down):  1.870E-02 0.000E+00

     total cpu time spent up to now is       68.5 secs

     total energy              =   -1066.55009776 Ry
     estimated scf accuracy    <       0.00000018 Ry

     iteration # 11     ecut=    50.00 Ry     beta= 0.70
     Davidson diagonalization with overlap

---- Real-time Memory Report at c_bands before calling an iterative solver
           228 MiB given to the printing process from OS
           157 MiB allocation reported by mallinfo(arena+hblkhd)
         95094 MiB available memory on the node where the printing process lives
------------------
     ethr =  2.17E-10,  avg # of iterations =  2.4

     negative rho (up, down):  1.870E-02 0.000E+00

     total cpu time spent up to now is       73.5 secs

     total energy              =   -1066.55009779 Ry
     estimated scf accuracy    <       0.00000001 Ry

     iteration # 12     ecut=    50.00 Ry     beta= 0.70
     Davidson diagonalization with overlap

---- Real-time Memory Report at c_bands before calling an iterative solver
           228 MiB given to the printing process from OS
           157 MiB allocation reported by mallinfo(arena+hblkhd)
         95229 MiB available memory on the node where the printing process lives
------------------
     ethr =  1.27E-11,  avg # of iterations =  4.1

     negative rho (up, down):  1.870E-02 0.000E+00

     total cpu time spent up to now is       79.0 secs

     total energy              =   -1066.55009777 Ry
     estimated scf accuracy    <          1.7E-09 Ry

     iteration # 13     ecut=    50.00 Ry     beta= 0.70
     Davidson diagonalization with overlap

---- Real-time Memory Report at c_bands before calling an iterative solver
           228 MiB given to the printing process from OS
           157 MiB allocation reported by mallinfo(arena+hblkhd)
        113743 MiB available memory on the node where the printing process lives
------------------
     ethr =  2.11E-12,  avg # of iterations =  3.2

     negative rho (up, down):  1.870E-02 0.000E+00

     total cpu time spent up to now is       84.8 secs

     total energy              =   -1066.55009777 Ry
     estimated scf accuracy    <          3.6E-11 Ry

     iteration # 14     ecut=    50.00 Ry     beta= 0.70
     Davidson diagonalization with overlap

---- Real-time Memory Report at c_bands before calling an iterative solver
           228 MiB given to the printing process from OS
           157 MiB allocation reported by mallinfo(arena+hblkhd)
        113779 MiB available memory on the node where the printing process lives
------------------
     ethr =  1.00E-13,  avg # of iterations =  4.2

     negative rho (up, down):  1.870E-02 0.000E+00

     total cpu time spent up to now is       91.3 secs

     total energy              =   -1066.55009776 Ry
     estimated scf accuracy    <          5.3E-11 Ry

     iteration # 15     ecut=    50.00 Ry     beta= 0.70
     Davidson diagonalization with overlap

---- Real-time Memory Report at c_bands before calling an iterative solver
           229 MiB given to the printing process from OS
           157 MiB allocation reported by mallinfo(arena+hblkhd)
        113819 MiB available memory on the node where the printing process lives
------------------
     ethr =  1.00E-13,  avg # of iterations =  1.9

     negative rho (up, down):  1.870E-02 0.000E+00

     total cpu time spent up to now is       96.1 secs

     total energy              =   -1066.55009776 Ry
     estimated scf accuracy    <          1.1E-11 Ry

     iteration # 16     ecut=    50.00 Ry     beta= 0.70
     Davidson diagonalization with overlap

---- Real-time Memory Report at c_bands before calling an iterative solver
           229 MiB given to the printing process from OS
           157 MiB allocation reported by mallinfo(arena+hblkhd)
        113840 MiB available memory on the node where the printing process lives
------------------
     ethr =  1.00E-13,  avg # of iterations =  1.0

     negative rho (up, down):  1.870E-02 0.000E+00

     total cpu time spent up to now is      100.4 secs

     total energy              =   -1066.55009776 Ry
     estimated scf accuracy    <          6.7E-13 Ry

     iteration # 17     ecut=    50.00 Ry     beta= 0.70
     Davidson diagonalization with overlap

---- Real-time Memory Report at c_bands before calling an iterative solver
           229 MiB given to the printing process from OS
           157 MiB allocation reported by mallinfo(arena+hblkhd)
        113876 MiB available memory on the node where the printing process lives
------------------
     ethr =  1.00E-13,  avg # of iterations =  1.0

     negative rho (up, down):  1.870E-02 0.000E+00

     total cpu time spent up to now is      104.7 secs

     total energy              =   -1066.55009776 Ry
     estimated scf accuracy    <          1.1E-12 Ry

     iteration # 18     ecut=    50.00 Ry     beta= 0.70
     Davidson diagonalization with overlap

---- Real-time Memory Report at c_bands before calling an iterative solver
           229 MiB given to the printing process from OS
           157 MiB allocation reported by mallinfo(arena+hblkhd)
        113895 MiB available memory on the node where the printing process lives
------------------
     ethr =  1.00E-13,  avg # of iterations =  1.0

     negative rho (up, down):  1.870E-02 0.000E+00

     total cpu time spent up to now is      109.1 secs

     total energy              =   -1066.55009776 Ry
     estimated scf accuracy    <          4.9E-13 Ry

     iteration # 19     ecut=    50.00 Ry     beta= 0.70
     Davidson diagonalization with overlap

---- Real-time Memory Report at c_bands before calling an iterative solver
           229 MiB given to the printing process from OS
           157 MiB allocation reported by mallinfo(arena+hblkhd)
        113913 MiB available memory on the node where the printing process lives
------------------
     ethr =  1.00E-13,  avg # of iterations =  1.0

     negative rho (up, down):  1.870E-02 0.000E+00

     total cpu time spent up to now is      113.4 secs

     total energy              =   -1066.55009776 Ry
     estimated scf accuracy    <          1.7E-14 Ry

     iteration # 20     ecut=    50.00 Ry     beta= 0.70
     Davidson diagonalization with overlap

---- Real-time Memory Report at c_bands before calling an iterative solver
           229 MiB given to the printing process from OS
           157 MiB allocation reported by mallinfo(arena+hblkhd)
        113919 MiB available memory on the node where the printing process lives
------------------
     ethr =  1.00E-13,  avg # of iterations =  1.0

     negative rho (up, down):  1.870E-02 0.000E+00

     total cpu time spent up to now is      117.7 secs

     total energy              =   -1066.55009776 Ry
     estimated scf accuracy    <          9.0E-15 Ry

     iteration # 21     ecut=    50.00 Ry     beta= 0.70
     Davidson diagonalization with overlap

---- Real-time Memory Report at c_bands before calling an iterative solver
           229 MiB given to the printing process from OS
           157 MiB allocation reported by mallinfo(arena+hblkhd)
        113854 MiB available memory on the node where the printing process lives
------------------
     ethr =  1.00E-13,  avg # of iterations =  1.0

     negative rho (up, down):  1.870E-02 0.000E+00

     total cpu time spent up to now is      121.9 secs

     total energy              =   -1066.55009776 Ry
     estimated scf accuracy    <          2.2E-15 Ry

     iteration # 22     ecut=    50.00 Ry     beta= 0.70
     Davidson diagonalization with overlap

---- Real-time Memory Report at c_bands before calling an iterative solver
           229 MiB given to the printing process from OS
           157 MiB allocation reported by mallinfo(arena+hblkhd)
        104580 MiB available memory on the node where the printing process lives
------------------
     ethr =  1.00E-13,  avg # of iterations =  1.0

     negative rho (up, down):  1.870E-02 0.000E+00

     total cpu time spent up to now is      126.2 secs

     total energy              =   -1066.55009776 Ry
     estimated scf accuracy    <          1.1E-15 Ry

     iteration # 23     ecut=    50.00 Ry     beta= 0.70
     Davidson diagonalization with overlap

---- Real-time Memory Report at c_bands before calling an iterative solver
           229 MiB given to the printing process from OS
           157 MiB allocation reported by mallinfo(arena+hblkhd)
        104579 MiB available memory on the node where the printing process lives
------------------
     ethr =  1.00E-13,  avg # of iterations =  1.0

     negative rho (up, down):  1.870E-02 0.000E+00

     total cpu time spent up to now is      130.4 secs

     End of self-consistent calculation

          k = 0.0000 0.0000 0.0000 ( 17933 PWs)   bands (ev):

    -3.1912  -0.2022  -0.1976  -0.1976  -0.1967  -0.1964  -0.1955  -0.1955
    -0.1910   0.7814   0.7855   0.7855   0.7855   0.7855   0.7895   4.6454
     4.6465   4.6465   4.6492   4.6497   4.6497   4.6497   4.6497   4.6502
     4.6529   4.6529   4.6541   6.8760   6.8760   6.8799   6.8810   6.8811
     6.8811   6.8811   6.8812   6.8812   6.8824   6.8862   6.8862   8.3561
     8.3583   8.3596   8.3597   8.3605   8.3605   8.3606   8.3614   8.3614
     8.3631

     occupation numbers 
     1.0000   1.0000   1.0000   1.0000   1.0000   1.0000   1.0000   1.0000
     1.0000   1.0000   1.0000   1.0000   1.0000   1.0000   1.0000   1.0000
     1.0000   1.0000   1.0000   1.0000   1.0000   1.0000   1.0000   1.0000
     1.0000   1.0000   1.0000   1.0000   1.0000   1.0000   1.0000   1.0000
     1.0000   1.0000   1.0000   1.0000   1.0000   1.0000   1.0000  -0.0321
    -0.0318  -0.0316  -0.0316  -0.0315  -0.0315  -0.0315  -0.0314  -0.0313
    -0.0311

          k =-0.0884 0.0884-0.0884 ( 17906 PWs)   bands (ev):

    -3.1440  -0.8930  -0.3994  -0.3974  -0.3955   0.0945   0.0964   0.0984
     0.3393   0.3412   0.3432   0.5887   1.3173   1.3192   1.3212   3.7400
     3.7420   3.7440   4.6906   4.6907   4.6927   4.6927   4.6948   4.6949
     5.6206   5.6227   5.6247   6.1796   6.1814   6.1833   6.6340   6.6352
     6.6367   6.6368   6.6383   6.6395   7.0944   7.1015   7.1023   7.1031
     8.0329   8.0334   8.0339   8.2190   8.2195   8.2200   8.6895   8.6908
     8.6917

     occupation numbers 
     1.0000   1.0000   1.0000   1.0000   1.0000   1.0000   1.0000   1.0000
     1.0000   1.0000   1.0000   1.0000   1.0000   1.0000   1.0000   1.0000
     1.0000   1.0000   1.0000   1.0000   1.0000   1.0000   1.0000   1.0000
     1.0000   1.0000   1.0000   1.0000   1.0000   1.0000   1.0000   1.0000
     1.0000   1.0000   1.0000   1.0000   1.0000   1.0000   1.0000   1.0000
     0.3312   0.3297   0.3282  -0.0093  -0.0096  -0.0100  -0.0007  -0.0007
    -0.0007

          k =-0.1768 0.1768-0.1768 ( 17898 PWs)   bands (ev):

    -3.0022  -1.4992  -0.5076  -0.5057  -0.5038  -0.0142  -0.0123  -0.0104
     0.4791   0.4810   0.4830   1.4611   1.9391   1.9410   1.9429   2.9142
     2.9162   2.9181   4.8183   4.8185   4.8205   4.8205   4.8225   4.8227
     5.2197   5.2216   5.2236   5.8073   6.1872   6.1881   6.1897   6.1897
     6.1913   6.1922   6.7158   6.7179   6.7200   7.1240   7.1246   7.1253
     7.6912   7.6917   7.6922   8.4654   8.4658   8.4662   9.3918   9.3932
     9.3940

     occupation numbers 
     1.0000   1.0000   1.0000   1.0000   1.0000   1.0000   1.0000   1.0000
     1.0000   1.0000   1.0000   1.0000   1.0000   1.0000   1.0000   1.0000
     1.0000   1.0000   1.0000   1.0000   1.0000   1.0000   1.0000   1.0000
     1.0000   1.0000   1.0000   1.0000   1.0000   1.0000   1.0000   1.0000
     1.0000   1.0000   1.0000   1.0000   1.0000   1.0000   1.0000   1.0000
     1.0297   1.0295   1.0294  -0.0147  -0.0146  -0.0146  -0.0000  -0.0000
    -0.0000

          k =-0.2652 0.2652-0.2652 ( 17901 PWs)   bands (ev):

    -2.7663  -2.0141  -0.5232  -0.5212  -0.5193  -0.2762  -0.2742  -0.2723
     0.9545   0.9564   0.9584   2.1734   2.1754   2.1773   2.4180   2.6464
     2.6484   2.6503   4.2998   4.3018   4.3037   4.6014   5.0235   5.0238
     5.0258   5.0258   5.0278   5.0282   5.7586   5.7595   5.7610   5.7610
     5.7625   5.7634   7.1592   7.1597   7.1603   7.4333   7.4338   7.4343
     7.8414   7.8436   7.8459   8.8881   8.8884   8.8887   9.8976   9.8988
     9.9000

     occupation numbers 
     1.0000   1.0000   1.0000   1.0000   1.0000   1.0000   1.0000   1.0000
     1.0000   1.0000   1.0000   1.0000   1.0000   1.0000   1.0000   1.0000
     1.0000   1.0000   1.0000   1.0000   1.0000   1.0000   1.0000   1.0000
     1.0000   1.0000   1.0000   1.0000   1.0000   1.0000   1.0000   1.0000
     1.0000   1.0000   1.0001   1.0001   1.0001   1.0080   1.0081   1.0081
     0.8698   0.8653   0.8607  -0.0000  -0.0000  -0.0000  -0.0000  -0.0000
    -0.0000

          k = 0.3536-0.3536 0.3536 ( 17940 PWs)   bands (ev):

    -2.4378  -2.4357  -0.4481  -0.4446  -0.4443  -0.4438  -0.4435  -0.4400
     1.5182   1.5206   1.5208   1.5225   1.5227   1.5251   3.3567   3.4351
     3.4364   3.4373   3.4381   3.4389   3.4403   3.5795   5.2133   5.2144
     5.2162   5.2162   5.2180   5.2191   5.4906   5.4923   5.4930   5.4930
     5.4938   5.4955   7.2558   7.2564   7.2579   7.2583   7.2598   7.2604
     8.9882   8.9886   8.9904   8.9913   8.9930   8.9934   9.4750   9.4752
     9.4758

     occupation numbers 
     1.0000   1.0000   1.0000   1.0000   1.0000   1.0000   1.0000   1.0000
     1.0000   1.0000   1.0000   1.0000   1.0000   1.0000   1.0000   1.0000
     1.0000   1.0000   1.0000   1.0000   1.0000   1.0000   1.0000   1.0000
     1.0000   1.0000   1.0000   1.0000   1.0000   1.0000   1.0000   1.0000
     1.0000   1.0000   1.0006   1.0006   1.0006   1.0006   1.0006   1.0006
    -0.0000  -0.0000  -0.0000  -0.0000  -0.0000  -0.0000  -0.0000  -0.0000
    -0.0000

          k = 0.0000 0.1768 0.0000 ( 17926 PWs)   bands (ev):

    -3.1282  -0.6295  -0.6295  -0.6295  -0.6295  -0.1357   0.3581   0.3581
     0.3581   0.3582   0.8468   0.8468   0.8468   0.8468   1.8194   3.7566
     3.7566   3.7566   3.7566   4.7052   4.7052   4.7052   4.7053   5.6454
     5.6454   5.6455   5.6455   6.0723   6.0723   6.0723   6.0723   6.4758
     6.4758   6.4758   6.4758   7.4025   7.4025   7.4026   7.4026   7.5791
     7.5791   7.5791   7.5791   7.9463   7.9463   7.9463   7.9464   8.8959
     8.8959

     occupation numbers 
     1.0000   1.0000   1.0000   1.0000   1.0000   1.0000   1.0000   1.0000
     1.0000   1.0000   1.0000   1.0000   1.0000   1.0000   1.0000   1.0000
     1.0000   1.0000   1.0000   1.0000   1.0000   1.0000   1.0000   1.0000
     1.0000   1.0000   1.0000   1.0000   1.0000   1.0000   1.0000   1.0000
     1.0000   1.0000   1.0000   1.0055   1.0055   1.0055   1.0055   1.0292
     1.0292   1.0293   1.0293   0.5957   0.5957   0.5957   0.5956  -0.0000
    -0.0000

          k =-0.0884 0.2652-0.0884 ( 17895 PWs)   bands (ev):

    -3.0180  -1.2657  -0.7689  -0.7689  -0.5216  -0.2738   0.2196   0.4642
     0.4642   0.7113   0.7114   1.2014   1.4413   1.4413   2.4065   2.9008
     2.9008   3.8597   3.8597   3.8602   4.7967   4.7967   4.9986   5.5249
     5.5250   5.7347   5.7348   5.7941   5.8027   5.8028   5.9822   6.2665
     6.2976   6.2977   6.6772   6.6772   7.2091   7.2094   7.2187   7.2189
     7.6852   7.6852   7.8842   7.8842   8.1475   8.3334   8.3334   9.0760
     9.2784

     occupation numbers 
     1.0000   1.0000   1.0000   1.0000   1.0000   1.0000   1.0000   1.0000
     1.0000   1.0000   1.0000   1.0000   1.0000   1.0000   1.0000   1.0000
     1.0000   1.0000   1.0000   1.0000   1.0000   1.0000   1.0000   1.0000
     1.0000   1.0000   1.0000   1.0000   1.0000   1.0000   1.0000   1.0000
     1.0000   1.0000   1.0000   1.0000   1.0002   1.0002   1.0003   1.0003
     1.0312   1.0312   0.7716   0.7716   0.0689  -0.0345  -0.0345  -0.0000
    -0.0000

          k =-0.1768 0.3536-0.1768 ( 17909 PWs)   bands (ev):

    -2.8135  -1.8110  -0.8170  -0.8154  -0.8140   0.1711   0.1726   0.1732
     0.1749   1.1553   1.1554   2.1227   2.1231   2.1294   2.1297   2.1311
     3.0772   3.0966   4.0353   4.0506   4.0506   4.8692   4.8692   4.9306
     4.9306   5.0335   5.1451   5.1451   5.7814   5.7814   5.9587   6.0404
     6.0405   6.8307   6.8308   6.9069   6.9248   6.9249   7.7170   7.7170
     7.7696   7.7696   8.2583   8.2583   8.7850   8.7976   8.9846   9.0873
     9.0873

     occupation numbers 
     1.0000   1.0000   1.0000   1.0000   1.0000   1.0000   1.0000   1.0000
     1.0000   1.0000   1.0000   1.0000   1.0000   1.0000   1.0000   1.0000
     1.0000   1.0000   1.0000   1.0000   1.0000   1.0000   1.0000   1.0000
     1.0000   1.0000   1.0000   1.0000   1.0000   1.0000   1.0000   1.0000
     1.0000   1.0000   1.0000   1.0000   1.0000   1.0000   1.0200   1.0200
     0.9801   0.9801  -0.0282  -0.0282  -0.0001  -0.0001  -0.0000  -0.0000
    -0.0000

          k = 0.4419-0.2652 0.4419 ( 17901 PWs)   bands (ev):

    -2.5152  -2.2644  -1.0172  -0.7690  -0.7690  -0.0274  -0.0273   0.2192
     0.7111   1.4452   1.4452   1.6892   1.6892   2.4179   2.8898   2.8898
     3.1308   3.1337   3.8255   3.8918   4.0640   4.0640   4.3274   4.3274
     4.5515   4.5515   5.3185   5.3186   5.4714   5.4714   6.0149   6.2276
     6.2277   6.4525   6.4526   6.7252   6.7252   7.8652   7.8652   8.1078
     8.3361   8.5108   8.5108   8.5691   9.1114   9.1114   9.2186   9.2187
     9.5258

     occupation numbers 
     1.0000   1.0000   1.0000   1.0000   1.0000   1.0000   1.0000   1.0000
     1.0000   1.0000   1.0000   1.0000   1.0000   1.0000   1.0000   1.0000
     1.0000   1.0000   1.0000   1.0000   1.0000   1.0000   1.0000   1.0000
     1.0000   1.0000   1.0000   1.0000   1.0000   1.0000   1.0000   1.0000
     1.0000   1.0000   1.0000   1.0000   1.0000   0.8181   0.8181   0.1413
    -0.0343  -0.0091  -0.0091  -0.0044  -0.0000  -0.0000  -0.0000  -0.0000
    -0.0000

          k = 0.3536-0.1768 0.3536 ( 17925 PWs)   bands (ev):

    -2.6250  -2.1235  -1.1258  -0.6297  -0.6297  -0.1351  -0.1351   0.3572
     0.8491   0.8491   1.3384   1.8264   2.3050   2.3117   2.3118   2.7941
     3.2576   3.2576   3.7372   3.7372   4.2254   4.2254   4.2591   4.6360
     4.6863   4.6864   5.1611   5.1611   5.6669   5.6669   6.1377   6.1377
     6.1555   6.5402   6.5402   6.6087   6.6087   7.7873   7.9912   7.9913
     8.0227   8.0227   8.4139   8.9792   9.1431   9.1431   9.3780   9.6938
     9.6943

     occupation numbers 
     1.0000   1.0000   1.0000   1.0000   1.0000   1.0000   1.0000   1.0000
     1.0000   1.0000   1.0000   1.0000   1.0000   1.0000   1.0000   1.0000
     1.0000   1.0000   1.0000   1.0000   1.0000   1.0000   1.0000   1.0000
     1.0000   1.0000   1.0000   1.0000   1.0000   1.0000   1.0000   1.0000
     1.0000   1.0000   1.0000   1.0000   1.0000   0.9593   0.4569   0.4567
     0.3611   0.3609  -0.0229  -0.0000  -0.0000  -0.0000  -0.0000  -0.0000
    -0.0000

          k = 0.2652-0.0884 0.2652 ( 17904 PWs)   bands (ev):

    -2.8921  -1.6394  -1.1414  -0.3979  -0.3978  -0.1504  -0.1504   0.3426
     0.3426   0.5871   1.3236   1.5633   1.8115   2.0539   2.5275   2.5275
     3.0213   3.0213   3.9778   3.9778   4.6564   4.6565   4.9222   4.9223
     5.1169   5.1169   5.4353   5.4581   5.9058   5.9058   6.1001   6.1001
     6.3821   6.5706   6.5706   6.8265   6.8265   6.8695   6.8695   7.3276
     7.9133   8.2563   8.2564   8.2683   8.9137   8.9137   9.1892   9.1897
     9.2156

     occupation numbers 
     1.0000   1.0000   1.0000   1.0000   1.0000   1.0000   1.0000   1.0000
     1.0000   1.0000   1.0000   1.0000   1.0000   1.0000   1.0000   1.0000
     1.0000   1.0000   1.0000   1.0000   1.0000   1.0000   1.0000   1.0000
     1.0000   1.0000   1.0000   1.0000   1.0000   1.0000   1.0000   1.0000
     1.0000   1.0000   1.0000   1.0000   1.0000   1.0000   1.0000   1.0019
     0.6931  -0.0276  -0.0276  -0.0309  -0.0000  -0.0000  -0.0000  -0.0000
    -0.0000

          k = 0.1768 0.0000 0.1768 ( 17906 PWs)   bands (ev):

    -3.0652  -1.0657  -1.0617  -0.0770  -0.0747  -0.0736  -0.0736  -0.0719
    -0.0697   0.9056   0.9084   0.9099   0.9135   1.8802   1.8802   2.8559
     3.8145   3.8149   3.8170   3.8173   4.7651   4.7651   5.5490   5.5495
     5.5510   5.5514   5.8154   5.8157   5.8165   5.8168   6.0708   6.5942
     6.5950   6.5971   6.5984   6.5992   6.6939   6.6966   6.9970   6.9970
     7.5698   7.9244   8.4749   8.4750   8.5690   8.5702   8.5717   8.5729
     8.8663

     occupation numbers 
     1.0000   1.0000   1.0000   1.0000   1.0000   1.0000   1.0000   1.0000
     1.0000   1.0000   1.0000   1.0000   1.0000   1.0000   1.0000   1.0000
     1.0000   1.0000   1.0000   1.0000   1.0000   1.0000   1.0000   1.0000
     1.0000   1.0000   1.0000   1.0000   1.0000   1.0000   1.0000   1.0000
     1.0000   1.0000   1.0000   1.0000   1.0000   1.0000   1.0000   1.0000
     1.0278   0.6613  -0.0134  -0.0133  -0.0044  -0.0043  -0.0042  -0.0041
    -0.0000

          k = 0.0000 0.3536 0.0000 ( 17870 PWs)   bands (ev):

    -2.9393  -0.9417  -0.9395  -0.9395  -0.9395  -0.9375   1.0284   1.0302
     1.0302   1.0305   1.0330   1.0333   1.0333   1.0351   2.9568   2.9753
     2.9753   2.9753   2.9754   4.7531   4.7531   4.7531   4.7531   5.0273
     5.0273   5.0273   5.0273   6.1865   6.1865   6.1865   6.1865   6.7057
     6.7057   6.7057   6.7057   6.8115   6.8115   6.8116   6.8116   7.6816
     7.6816   7.6816   7.6817   8.0404   8.0404   8.0404   8.0404   8.8718
     9.5441

     occupation numbers 
     1.0000   1.0000   1.0000   1.0000   1.0000   1.0000   1.0000   1.0000
     1.0000   1.0000   1.0000   1.0000   1.0000   1.0000   1.0000   1.0000
     1.0000   1.0000   1.0000   1.0000   1.0000   1.0000   1.0000   1.0000
     1.0000   1.0000   1.0000   1.0000   1.0000   1.0000   1.0000   1.0000
     1.0000   1.0000   1.0000   1.0000   1.0000   1.0000   1.0000   1.0319
     1.0319   1.0319   1.0319   0.3096   0.3096   0.3095   0.3095  -0.0000
    -0.0000

          k =-0.0884 0.4419-0.0884 ( 17885 PWs)   bands (ev):

    -2.7663  -1.5147  -1.2658  -1.0171  -1.0171  -0.5212   0.7098   0.7098
     0.9562   1.4454   1.4454   1.6852   1.6852   1.9328   2.1746   2.1746
     3.1393   3.1393   3.5864   3.8492   4.0866   4.3139   4.3139   4.8417
     5.0888   5.0888   5.5533   5.5749   5.5750   6.0206   6.0363   6.0363
     6.4994   6.4994   6.8859   6.8859   7.4406   7.4466   7.4466   7.9175
     7.9175   7.9997   7.9997   8.1028   8.1028   8.1105   8.3844   8.3844
     9.9744

     occupation numbers 
     1.0000   1.0000   1.0000   1.0000   1.0000   1.0000   1.0000   1.0000
     1.0000   1.0000   1.0000   1.0000   1.0000   1.0000   1.0000   1.0000
     1.0000   1.0000   1.0000   1.0000   1.0000   1.0000   1.0000   1.0000
     1.0000   1.0000   1.0000   1.0000   1.0000   1.0000   1.0000   1.0000
     1.0000   1.0000   1.0000   1.0000   1.0087   1.0093   1.0094   0.6810
     0.6810   0.4307   0.4306   0.1520   0.1520   0.1358  -0.0278  -0.0278
    -0.0000

          k = 0.5303-0.1768 0.5303 ( 17894 PWs)   bands (ev):

    -2.4995  -1.9984  -1.4992  -1.0016  -1.0016  -0.0116   0.4802   0.4802
     0.9710   1.4601   1.4601   1.9475   1.9475   2.4263   2.4263   2.9098
     2.9141   3.3918   3.3918   3.3943   3.8670   3.8670   4.2811   4.3788
     4.7543   4.7543   4.8512   5.3278   5.3278   5.6929   5.6929   6.2733
     6.2733   7.1112   7.1112   7.2056   7.4566   7.5907   7.5907   7.9061
     7.9061   8.1512   8.5299   8.5299   8.8701   8.8701   9.0313   9.0313
     9.4425

     occupation numbers 
     1.0000   1.0000   1.0000   1.0000   1.0000   1.0000   1.0000   1.0000
     1.0000   1.0000   1.0000   1.0000   1.0000   1.0000   1.0000   1.0000
     1.0000   1.0000   1.0000   1.0000   1.0000   1.0000   1.0000   1.0000
     1.0000   1.0000   1.0000   1.0000   1.0000   1.0000   1.0000   1.0000
     1.0000   1.0000   1.0000   1.0002   1.0105   1.0310   1.0310   0.7132
     0.7132   0.0633  -0.0072  -0.0072  -0.0000  -0.0000  -0.0000  -0.0000
    -0.0000

          k = 0.4419-0.0884 0.4419 ( 17931 PWs)   bands (ev):

    -2.3897  -2.1392  -1.6394  -0.8930  -0.8930   0.3422   0.3422   0.5883
     0.8335   0.8335   1.0775   2.0502   2.5382   2.5382   2.7800   3.2512
     3.2512   3.2532   3.4984   3.4984   3.7313   3.7313   3.9449   3.9449
     4.0120   4.9562   4.9917   5.3672   5.3672   5.6600   5.6601   6.1331
     6.1331   6.9586   7.2712   7.2712   7.3320   7.3321   8.2001   8.2001
     8.4528   8.4528   8.4673   8.6846   8.6847   8.9393   9.2328   9.2328
     9.6159

     occupation numbers 
     1.0000   1.0000   1.0000   1.0000   1.0000   1.0000   1.0000   1.0000
     1.0000   1.0000   1.0000   1.0000   1.0000   1.0000   1.0000   1.0000
     1.0000   1.0000   1.0000   1.0000   1.0000   1.0000   1.0000   1.0000
     1.0000   1.0000   1.0000   1.0000   1.0000   1.0000   1.0000   1.0000
     1.0000   1.0000   1.0007   1.0007   1.0020   1.0020   0.0054   0.0054
    -0.0165  -0.0165  -0.0144  -0.0007  -0.0007  -0.0000  -0.0000  -0.0000
    -0.0000

          k = 0.3536 0.0000 0.3536 ( 17930 PWs)   bands (ev):

    -2.6878  -1.6882  -1.6842  -0.6917  -0.6916   0.2934   0.2952   0.2974
     0.2992   1.2736   1.2759   1.2780   2.2496   2.2536   3.1974   3.1974
     3.2144   3.2147   3.2168   3.2172   4.1519   4.1537   4.1560   4.1577
     5.1058   5.1058   5.1500   5.1526   5.4927   6.0743   6.0753   6.0784
     6.0794   6.8360   7.0103   7.0105   7.0130   7.0132   7.3447   7.3447
     8.7978   8.7979   8.8978   8.8989   8.9006   8.9017   8.9065   9.0984
     9.1997

     occupation numbers 
     1.0000   1.0000   1.0000   1.0000   1.0000   1.0000   1.0000   1.0000
     1.0000   1.0000   1.0000   1.0000   1.0000   1.0000   1.0000   1.0000
     1.0000   1.0000   1.0000   1.0000   1.0000   1.0000   1.0000   1.0000
     1.0000   1.0000   1.0000   1.0000   1.0000   1.0000   1.0000   1.0000
     1.0000   1.0000   1.0000   1.0000   1.0000   1.0000   1.0024   1.0024
    -0.0001  -0.0001  -0.0000  -0.0000  -0.0000  -0.0000  -0.0000  -0.0000
    -0.0000

          k = 0.0000 0.5303 0.0000 ( 17886 PWs)   bands (ev):

    -2.6250  -1.6238  -1.1258  -1.1258  -1.1258  -1.1258   1.3361   1.3362
     1.3362   1.3362   1.8259   1.8259   1.8259   1.8259   2.3100   2.3100
     2.3100   2.3100   3.7473   3.7473   3.7473   3.7474   4.1625   5.2127
     5.2127   5.2127   5.2127   6.0129   6.0129   6.0130   6.0130   6.1594
     6.1594   6.1594   6.1594   7.3189   7.3191   7.3191   7.3191   7.3392
     8.0299   8.0299   8.0299   8.0300   8.7948   8.7948   8.7948   8.7948
    10.2962

     occupation numbers 
     1.0000   1.0000   1.0000   1.0000   1.0000   1.0000   1.0000   1.0000
     1.0000   1.0000   1.0000   1.0000   1.0000   1.0000   1.0000   1.0000
     1.0000   1.0000   1.0000   1.0000   1.0000   1.0000   1.0000   1.0000
     1.0000   1.0000   1.0000   1.0000   1.0000   1.0000   1.0000   1.0000
     1.0000   1.0000   1.0000   1.0016   1.0016   1.0016   1.0016   1.0022
     0.3398   0.3397   0.3397   0.3396  -0.0001  -0.0001  -0.0001  -0.0001
    -0.0000

          k = 0.6187-0.0884 0.6187 ( 17913 PWs)   bands (ev):

    -2.3897  -1.8891  -1.6394  -1.1414  -1.1413  -0.6450   1.0774   1.0774
     1.5661   1.5661   1.8100   2.0501   2.0502   2.2959   2.2959   2.5354
     2.5354   2.7770   2.7793   3.2580   3.2581   3.7272   4.4932   4.7577
     4.9584   5.4317   5.4318   5.4590   5.4590   5.9058   5.9059   5.9251
     5.9252   6.3753   6.7213   6.8493   7.4254   7.4254   7.7990   7.7990
     8.1356   8.1356   8.7318   8.7319   8.9825   8.9825   9.1989   9.1989
     9.6595

     occupation numbers 
     1.0000   1.0000   1.0000   1.0000   1.0000   1.0000   1.0000   1.0000
     1.0000   1.0000   1.0000   1.0000   1.0000   1.0000   1.0000   1.0000
     1.0000   1.0000   1.0000   1.0000   1.0000   1.0000   1.0000   1.0000
     1.0000   1.0000   1.0000   1.0000   1.0000   1.0000   1.0000   1.0000
     1.0000   1.0000   1.0000   1.0000   1.0073   1.0073   0.9433   0.9433
     0.0885   0.0884  -0.0003  -0.0003  -0.0000  -0.0000  -0.0000  -0.0000
    -0.0000

          k = 0.5303 0.0000 0.5303 ( 17942 PWs)   bands (ev):

    -2.0634  -2.0609  -2.0585  -1.0637  -1.0637  -0.0733   0.9068   0.9086
     0.9108   0.9126   1.8836   1.8861   2.8457   2.8482   2.8504   2.8511
     2.8534   2.8537   2.8555   2.8570   3.7064   3.7074   3.9476   3.9481
     4.6954   4.6954   5.1461   5.6372   5.6373   5.7370   5.7380   5.7411
     5.7421   6.4833   7.6181   7.6223   7.8638   7.8638   7.9245   7.9245
     8.4620   8.4625   8.4649   8.4654   8.6603   8.6603   9.4014   9.4036
     9.4053

     occupation numbers 
     1.0000   1.0000   1.0000   1.0000   1.0000   1.0000   1.0000   1.0000
     1.0000   1.0000   1.0000   1.0000   1.0000   1.0000   1.0000   1.0000
     1.0000   1.0000   1.0000   1.0000   1.0000   1.0000   1.0000   1.0000
     1.0000   1.0000   1.0000   1.0000   1.0000   1.0000   1.0000   1.0000
     1.0000   1.0000   1.0342   1.0346   0.8214   0.8213   0.6609   0.6608
    -0.0152  -0.0151  -0.0147  -0.0147  -0.0011  -0.0011  -0.0000  -0.0000
    -0.0000

          k = 0.0000-0.7071 0.0000 ( 17886 PWs)   bands (ev):

    -2.1881  -2.1841  -1.1880  -1.1880  -1.1880  -1.1880   1.7590   1.7613
     1.7613   1.7627   1.7634   1.7649   1.7649   1.7670   2.7307   2.7323
     2.7323   2.7332   2.7335   2.7344   2.7344   2.7360   5.0306   5.6224
     5.6224   5.6232   5.6236   5.6263   5.6268   5.6275   5.6275   5.9551
     5.9551   5.9551   5.9551   6.3619   7.3120   7.3120   7.3120   7.3120
     8.7369   8.7369   8.7369   8.7369   9.6630   9.6641   9.6658   9.6661
     9.6686

     occupation numbers 
     1.0000   1.0000   1.0000   1.0000   1.0000   1.0000   1.0000   1.0000
     1.0000   1.0000   1.0000   1.0000   1.0000   1.0000   1.0000   1.0000
     1.0000   1.0000   1.0000   1.0000   1.0000   1.0000   1.0000   1.0000
     1.0000   1.0000   1.0000   1.0000   1.0000   1.0000   1.0000   1.0000
     1.0000   1.0000   1.0000   1.0000   1.0015   1.0015   1.0015   1.0015
    -0.0003  -0.0003  -0.0003  -0.0003  -0.0000  -0.0000  -0.0000  -0.0000
    -0.0000

          k =-0.1768 0.3536 0.0000 ( 17891 PWs)   bands (ev):

    -2.8764  -1.3746  -1.3746  -0.8776  -0.3820  -0.3820   0.1110   0.6037
     0.6038   1.0917   1.0917   1.5829   1.5829   2.0625   2.0689   3.0170
     3.0355   3.0356   3.9913   3.9914   3.9916   4.4483   4.4484   5.3396
     5.3396   5.4297   5.4298   5.7816   5.8671   5.9175   5.9176   5.9245
     5.9245   6.7074   6.8235   6.8236   7.0771   7.2415   7.2415   7.6345
     7.8072   7.8072   7.8800   8.1718   8.5624   8.5769   8.5769   8.9290
     9.1193

     occupation numbers 
     1.0000   1.0000   1.0000   1.0000   1.0000   1.0000   1.0000   1.0000
     1.0000   1.0000   1.0000   1.0000   1.0000   1.0000   1.0000   1.0000
     1.0000   1.0000   1.0000   1.0000   1.0000   1.0000   1.0000   1.0000
     1.0000   1.0000   1.0000   1.0000   1.0000   1.0000   1.0000   1.0000
     1.0000   1.0000   1.0000   1.0000   1.0000   1.0004   1.0004   1.0353
     0.9311   0.9310   0.7823   0.0350  -0.0048  -0.0039  -0.0039  -0.0000
    -0.0000

          k = 0.4419-0.2652 0.6187 ( 17909 PWs)   bands (ev):

    -2.6407  -1.8891  -1.3902  -1.1414  -0.3975  -0.1508   0.0963   0.5881
     0.8324   1.0786   1.3230   1.8069   2.0543   2.2960   2.5387   2.7692
     3.2594   3.2610   3.4912   3.7060   3.9689   4.2035   4.2099   4.4208
     4.7203   4.8939   4.9614   5.2253   5.4228   5.6697   6.0609   6.1318
     6.6443   6.8053   7.0309   7.0683   7.1871   7.2767   7.5501   7.5670
     7.9395   8.2260   8.4860   8.6508   8.9399   8.9672   8.9925   9.3866
     9.4235

     occupation numbers 
     1.0000   1.0000   1.0000   1.0000   1.0000   1.0000   1.0000   1.0000
     1.0000   1.0000   1.0000   1.0000   1.0000   1.0000   1.0000   1.0000
     1.0000   1.0000   1.0000   1.0000   1.0000   1.0000   1.0000   1.0000
     1.0000   1.0000   1.0000   1.0000   1.0000   1.0000   1.0000   1.0000
     1.0000   1.0000   1.0000   1.0000   1.0002   1.0008   1.0245   1.0273
     0.6164  -0.0137  -0.0119  -0.0013  -0.0000  -0.0000  -0.0000  -0.0000
    -0.0000

          k = 0.3536-0.1768 0.5303 ( 17894 PWs)   bands (ev):

    -2.3124  -2.3103  -1.3134  -1.3113  -0.3209  -0.3199   0.6623   0.6645
     0.6651   0.6671   1.6426   1.6436   2.6071   2.6082   2.6139   2.6150
     3.4735   3.5574   3.5578   3.5702   3.5723   3.7027   4.4057   4.4583
     4.4592   4.5124   4.5128   4.6732   5.5020   5.5031   6.2346   6.4298
     6.4302   6.4601   7.2940   7.2962   7.3743   7.3756   7.6299   7.6309
     8.2968   8.2981   9.0789   9.0803   9.1726   9.1735   9.2406   9.2415
     9.2428

     occupation numbers 
     1.0000   1.0000   1.0000   1.0000   1.0000   1.0000   1.0000   1.0000
     1.0000   1.0000   1.0000   1.0000   1.0000   1.0000   1.0000   1.0000
     1.0000   1.0000   1.0000   1.0000   1.0000   1.0000   1.0000   1.0000
     1.0000   1.0000   1.0000   1.0000   1.0000   1.0000   1.0000   1.0000
     1.0000   1.0000   1.0011   1.0011   1.0037   1.0038   1.0351   1.0351
    -0.0350  -0.0351  -0.0000  -0.0000  -0.0000  -0.0000  -0.0000  -0.0000
    -0.0000

          k = 0.5303-0.1768 0.7071 ( 17893 PWs)   bands (ev):

    -2.5622  -1.5630  -1.5615  -1.5600  -0.5676  -0.5676   0.4187   1.3955
     1.3971   1.3982   1.3993   1.4018   2.3651   2.3697   2.3701   2.3728
     2.3739   3.3305   3.3309   3.3322   4.1729   4.1730   4.2218   4.4332
     4.4332   5.1667   5.1668   5.2701   5.2701   5.6082   6.2107   6.2107
     6.5337   6.9571   7.0085   7.1580   7.1580   7.3981   7.9163   7.9164
     7.9855   8.0022   8.0023   8.3886   8.4412   8.4412   8.9606   9.3172
     9.8610

     occupation numbers 
     1.0000   1.0000   1.0000   1.0000   1.0000   1.0000   1.0000   1.0000
     1.0000   1.0000   1.0000   1.0000   1.0000   1.0000   1.0000   1.0000
     1.0000   1.0000   1.0000   1.0000   1.0000   1.0000   1.0000   1.0000
     1.0000   1.0000   1.0000   1.0000   1.0000   1.0000   1.0000   1.0000
     1.0000   1.0000   1.0000   1.0001   1.0001   1.0052   0.6845   0.6844
     0.4747   0.4230   0.4228  -0.0271  -0.0183  -0.0183  -0.0000  -0.0000
    -0.0000

          k = 0.4419-0.0884 0.6187 ( 17897 PWs)   bands (ev):

    -2.2644  -2.0141  -1.7642  -1.5147  -0.5213  -0.0270   0.2191   0.7108
     1.1998   1.4442   1.6881   1.9316   2.1716   2.4142   2.6563   2.8977
     2.8999   3.1309   3.3720   3.6106   3.6118   3.8464   4.1326   4.3023
     4.3708   4.6111   4.7773   4.8748   5.0754   5.1086   6.4860   6.5031
     6.8410   6.9595   7.0782   7.2054   7.4246   7.6262   7.8973   8.0975
     8.1372   8.3798   8.4067   8.5582   8.7472   9.0294   9.1395   9.2220
     9.3012

     occupation numbers 
     1.0000   1.0000   1.0000   1.0000   1.0000   1.0000   1.0000   1.0000
     1.0000   1.0000   1.0000   1.0000   1.0000   1.0000   1.0000   1.0000
     1.0000   1.0000   1.0000   1.0000   1.0000   1.0000   1.0000   1.0000
     1.0000   1.0000   1.0000   1.0000   1.0000   1.0000   1.0000   1.0000
     1.0000   1.0000   1.0000   1.0002   1.0072   1.0349   0.7373   0.1636
     0.0856  -0.0286  -0.0241  -0.0051  -0.0002  -0.0000  -0.0000  -0.0000
    -0.0000

          k = 0.3536 0.0000 0.5303 ( 17889 PWs)   bands (ev):

    -2.3740  -1.8754  -1.8715  -1.3746  -0.3822   0.1096   0.1135   0.6036
     1.0915   1.0954   1.5791   1.5815   2.5510   2.5535   3.0285   3.0323
     3.0325   3.0363   3.4978   3.5118   3.5142   3.9746   3.9786   4.3996
     4.4538   4.4963   4.4988   4.9687   4.9727   5.3194   6.2780   6.6635
     6.8414   6.8456   7.1708   7.3084   7.3111   7.5743   8.0985   8.1606
     8.1634   8.2527   8.2555   8.5205   8.7103   8.7145   9.3702   9.4702
     9.6920

     occupation numbers 
     1.0000   1.0000   1.0000   1.0000   1.0000   1.0000   1.0000   1.0000
     1.0000   1.0000   1.0000   1.0000   1.0000   1.0000   1.0000   1.0000
     1.0000   1.0000   1.0000   1.0000   1.0000   1.0000   1.0000   1.0000
     1.0000   1.0000   1.0000   1.0000   1.0000   1.0000   1.0000   1.0000
     1.0000   1.0000   1.0001   1.0014   1.0015   1.0285   0.1614   0.0497
     0.0459  -0.0263  -0.0273  -0.0081  -0.0005  -0.0004  -0.0000  -0.0000
    -0.0000

          k =-0.1768-0.7071 0.0000 ( 17918 PWs)   bands (ev):

    -2.1255  -2.1216  -1.6238  -1.6238  -0.6295  -0.6295   0.8464   0.8504
     1.8218   1.8221   1.8258   1.8261   2.3081   2.3094   2.3105   2.3119
     2.7873   2.7913   3.2712   3.2724   3.2736   3.2748   4.7347   4.7349
     4.7387   4.7388   5.0883   5.1085   5.1085   5.5504   6.4228   6.4758
     6.6231   6.6234   6.6272   6.6275   6.9039   7.7965   7.8665   8.2533
     8.2533   8.7949   8.7950   8.8738   8.8757   8.8768   8.8787   9.2577
     9.2612

     occupation numbers 
     1.0000   1.0000   1.0000   1.0000   1.0000   1.0000   1.0000   1.0000
     1.0000   1.0000   1.0000   1.0000   1.0000   1.0000   1.0000   1.0000
     1.0000   1.0000   1.0000   1.0000   1.0000   1.0000   1.0000   1.0000
     1.0000   1.0000   1.0000   1.0000   1.0000   1.0000   1.0000   1.0000
     1.0000   1.0000   1.0000   1.0000   1.0000   0.9469   0.8150  -0.0266
    -0.0266  -0.0001  -0.0001  -0.0000  -0.0000  -0.0000  -0.0000  -0.0000
    -0.0000

          k =-0.3536-0.7071 0.0000 ( 17916 PWs)   bands (ev):

    -1.9388  -1.9359  -1.9359  -1.9331   0.0477   0.0499   0.0499   0.0521
     2.0018   2.0039   2.0060   2.0063   2.0065   2.0069   2.0090   2.0111
     3.8227   3.8232   3.8238   3.8242   3.9149   3.9170   3.9170   3.9191
     4.0688   4.0694   4.0704   4.0708   5.2616   5.2616   6.6045   6.6045
     7.1129   7.1129   7.7202   7.7219   7.7228   7.7232   7.7244   7.7248
     7.7257   7.7274   8.1284   8.9666   8.9691   8.9692   8.9716   9.0821
     9.6782

     occupation numbers 
     1.0000   1.0000   1.0000   1.0000   1.0000   1.0000   1.0000   1.0000
     1.0000   1.0000   1.0000   1.0000   1.0000   1.0000   1.0000   1.0000
     1.0000   1.0000   1.0000   1.0000   1.0000   1.0000   1.0000   1.0000
     1.0000   1.0000   1.0000   1.0000   1.0000   1.0000   1.0000   1.0000
     1.0000   1.0000   1.0184   1.0175   1.0170   1.0168   1.0162   1.0160
     1.0154   1.0144   0.1012  -0.0000  -0.0000  -0.0000  -0.0000  -0.0000
    -0.0000

          k = 0.0000 0.0000 0.1768 ( 17926 PWs)   bands (ev):

    -3.1282  -0.6328  -0.6301  -0.6289  -0.6262  -0.1357   0.3548   0.3575
     0.3587   0.3615   0.8438   0.8468   0.8468   0.8498   1.8194   3.7535
     3.7566   3.7566   3.7597   4.7036   4.7045   4.7060   4.7069   5.6422
     5.6455   5.6455   5.6486   6.0689   6.0717   6.0729   6.0757   6.4729
     6.4758   6.4759   6.4787   7.3996   7.4026   7.4026   7.4055   7.5774
     7.5781   7.5800   7.5808   7.9441   7.9463   7.9464   7.9486   8.8940
     8.8959

     occupation numbers 
     1.0000   1.0000   1.0000   1.0000   1.0000   1.0000   1.0000   1.0000
     1.0000   1.0000   1.0000   1.0000   1.0000   1.0000   1.0000   1.0000
     1.0000   1.0000   1.0000   1.0000   1.0000   1.0000   1.0000   1.0000
     1.0000   1.0000   1.0000   1.0000   1.0000   1.0000   1.0000   1.0000
     1.0000   1.0000   1.0000   1.0053   1.0055   1.0055   1.0057   1.0290
     1.0291   1.0294   1.0295   0.6026   0.5957   0.5956   0.5887  -0.0000
    -0.0000

          k = 0.0884-0.0884 0.2652 ( 17895 PWs)   bands (ev):

    -3.0180  -1.2657  -0.7703  -0.7676  -0.5215  -0.2738   0.2195   0.4628
     0.4655   0.7100   0.7127   1.2015   1.4400   1.4427   2.4065   2.8995
     2.9022   3.8583   3.8602   3.8611   4.7961   4.7973   4.9986   5.5237
     5.5262   5.7333   5.7363   5.7941   5.8015   5.8041   5.9822   6.2664
     6.2972   6.2982   6.6756   6.6787   7.2090   7.2097   7.2174   7.2200
     7.6846   7.6858   7.8839   7.8845   8.1475   8.3322   8.3346   9.0760
     9.2787

     occupation numbers 
     1.0000   1.0000   1.0000   1.0000   1.0000   1.0000   1.0000   1.0000
     1.0000   1.0000   1.0000   1.0000   1.0000   1.0000   1.0000   1.0000
     1.0000   1.0000   1.0000   1.0000   1.0000   1.0000   1.0000   1.0000
     1.0000   1.0000   1.0000   1.0000   1.0000   1.0000   1.0000   1.0000
     1.0000   1.0000   1.0000   1.0000   1.0002   1.0002   1.0003   1.0003
     1.0313   1.0310   0.7725   0.7708   0.0689  -0.0346  -0.0344  -0.0000
    -0.0000

          k = 0.1768-0.1768 0.3536 ( 17909 PWs)   bands (ev):

    -2.8135  -1.8110  -0.8175  -0.8155  -0.8135   0.1701   0.1726   0.1734
     0.1756   1.1540   1.1567   2.1215   2.1242   2.1284   2.1304   2.1315
     3.0772   3.0966   4.0351   4.0493   4.0521   4.8679   4.8705   4.9293
     4.9320   5.0335   5.1446   5.1456   5.7802   5.7826   5.9587   6.0397
     6.0412   6.8294   6.8321   6.9069   6.9245   6.9252   7.7154   7.7185
     7.7692   7.7701   8.2580   8.2586   8.7850   8.7976   8.9846   9.0860
     9.0887

     occupation numbers 
     1.0000   1.0000   1.0000   1.0000   1.0000   1.0000   1.0000   1.0000
     1.0000   1.0000   1.0000   1.0000   1.0000   1.0000   1.0000   1.0000
     1.0000   1.0000   1.0000   1.0000   1.0000   1.0000   1.0000   1.0000
     1.0000   1.0000   1.0000   1.0000   1.0000   1.0000   1.0000   1.0000
     1.0000   1.0000   1.0000   1.0000   1.0000   1.0000   1.0208   1.0193
     0.9805   0.9795  -0.0281  -0.0283  -0.0001  -0.0001  -0.0000  -0.0000
    -0.0000

          k =-0.4419 0.4419-0.2652 ( 17901 PWs)   bands (ev):

    -2.5152  -2.2644  -1.0172  -0.7704  -0.7676  -0.0287  -0.0260   0.2191
     0.7111   1.4438   1.4466   1.6878   1.6906   2.4179   2.8885   2.8912
     3.1308   3.1337   3.8254   3.8918   4.0626   4.0654   4.3260   4.3288
     4.5500   4.5531   5.3183   5.3188   5.4708   5.4720   6.0149   6.2263
     6.2289   6.4512   6.4540   6.7248   6.7256   7.8648   7.8656   8.1078
     8.3362   8.5099   8.5116   8.5691   9.1104   9.1124   9.2171   9.2202
     9.5258

     occupation numbers 
     1.0000   1.0000   1.0000   1.0000   1.0000   1.0000   1.0000   1.0000
     1.0000   1.0000   1.0000   1.0000   1.0000   1.0000   1.0000   1.0000
     1.0000   1.0000   1.0000   1.0000   1.0000   1.0000   1.0000   1.0000
     1.0000   1.0000   1.0000   1.0000   1.0000   1.0000   1.0000   1.0000
     1.0000   1.0000   1.0000   1.0000   1.0000   0.8191   0.8172   0.1413
    -0.0343  -0.0092  -0.0090  -0.0044  -0.0000  -0.0000  -0.0000  -0.0000
    -0.0000

          k =-0.3536 0.3536-0.1768 ( 17925 PWs)   bands (ev):

    -2.6250  -2.1235  -1.1258  -0.6311  -0.6283  -0.1365  -0.1337   0.3572
     0.8477   0.8504   1.3384   1.8264   2.3051   2.3103   2.3131   2.7941
     3.2562   3.2590   3.7358   3.7386   4.2240   4.2269   4.2591   4.6360
     4.6849   4.6877   5.1606   5.1616   5.6665   5.6672   6.1363   6.1391
     6.1555   6.5388   6.5416   6.6083   6.6091   7.7873   7.9897   7.9928
     8.0223   8.0231   8.4139   8.9792   9.1425   9.1437   9.3780   9.6929
     9.6957

     occupation numbers 
     1.0000   1.0000   1.0000   1.0000   1.0000   1.0000   1.0000   1.0000
     1.0000   1.0000   1.0000   1.0000   1.0000   1.0000   1.0000   1.0000
     1.0000   1.0000   1.0000   1.0000   1.0000   1.0000   1.0000   1.0000
     1.0000   1.0000   1.0000   1.0000   1.0000   1.0000   1.0000   1.0000
     1.0000   1.0000   1.0000   1.0000   1.0000   0.9593   0.4614   0.4520
     0.3622   0.3600  -0.0229  -0.0000  -0.0000  -0.0000  -0.0000  -0.0000
    -0.0000

          k =-0.2652 0.2652-0.0884 ( 17904 PWs)   bands (ev):

    -2.8921  -1.6394  -1.1414  -0.3992  -0.3965  -0.1517  -0.1490   0.3413
     0.3440   0.5870   1.3236   1.5633   1.8115   2.0539   2.5261   2.5288
     3.0199   3.0227   3.9763   3.9792   4.6551   4.6578   4.9218   4.9227
     5.1155   5.1183   5.4352   5.4580   5.9044   5.9072   6.0998   6.1005
     6.3821   6.5702   6.5709   6.8250   6.8280   6.8679   6.8710   7.3276
     7.9133   8.2559   8.2566   8.2685   8.9126   8.9148   9.1891   9.1898
     9.2158

     occupation numbers 
     1.0000   1.0000   1.0000   1.0000   1.0000   1.0000   1.0000   1.0000
     1.0000   1.0000   1.0000   1.0000   1.0000   1.0000   1.0000   1.0000
     1.0000   1.0000   1.0000   1.0000   1.0000   1.0000   1.0000   1.0000
     1.0000   1.0000   1.0000   1.0000   1.0000   1.0000   1.0000   1.0000
     1.0000   1.0000   1.0000   1.0000   1.0000   1.0000   1.0000   1.0019
     0.6930  -0.0274  -0.0277  -0.0309  -0.0000  -0.0000  -0.0000  -0.0000
    -0.0000

          k =-0.1768 0.1768 0.0000 ( 17906 PWs)   bands (ev):

    -3.0652  -1.0637  -1.0637  -0.0776  -0.0739  -0.0736  -0.0734  -0.0727
    -0.0694   0.9073   0.9079   0.9108   0.9114   1.8788   1.8816   2.8559
     3.8144   3.8146   3.8173   3.8174   4.7646   4.7655   5.5484   5.5492
     5.5513   5.5520   5.8141   5.8153   5.8168   5.8181   6.0708   6.5958
     6.5967   6.5967   6.5971   6.5976   6.6952   6.6953   6.9954   6.9986
     7.5698   7.9243   8.4740   8.4760   8.5700   8.5707   8.5712   8.5719
     8.8686

     occupation numbers 
     1.0000   1.0000   1.0000   1.0000   1.0000   1.0000   1.0000   1.0000
     1.0000   1.0000   1.0000   1.0000   1.0000   1.0000   1.0000   1.0000
     1.0000   1.0000   1.0000   1.0000   1.0000   1.0000   1.0000   1.0000
     1.0000   1.0000   1.0000   1.0000   1.0000   1.0000   1.0000   1.0000
     1.0000   1.0000   1.0000   1.0000   1.0000   1.0000   1.0000   1.0000
     1.0278   0.6614  -0.0135  -0.0132  -0.0043  -0.0043  -0.0042  -0.0042
    -0.0000

          k = 0.0000 0.0000 0.3536 ( 17870 PWs)   bands (ev):

    -2.9393  -0.9435  -0.9401  -0.9396  -0.9389  -0.9356   1.0253   1.0302
     1.0305   1.0314   1.0320   1.0325   1.0337   1.0383   2.9568   2.9723
     2.9753   2.9753   2.9784   4.7511   4.7524   4.7538   4.7550   5.0267
     5.0270   5.0276   5.0279   6.1836   6.1865   6.1865   6.1894   6.7024
     6.7057   6.7057   6.7090   6.8099   6.8106   6.8125   6.8132   7.6796
     7.6816   7.6816   7.6836   8.0374   8.0404   8.0404   8.0433   8.8718
     9.5429

     occupation numbers 
     1.0000   1.0000   1.0000   1.0000   1.0000   1.0000   1.0000   1.0000
     1.0000   1.0000   1.0000   1.0000   1.0000   1.0000   1.0000   1.0000
     1.0000   1.0000   1.0000   1.0000   1.0000   1.0000   1.0000   1.0000
     1.0000   1.0000   1.0000   1.0000   1.0000   1.0000   1.0000   1.0000
     1.0000   1.0000   1.0000   1.0000   1.0000   1.0000   1.0000   1.0323
     1.0319   1.0319   1.0315   0.3180   0.3096   0.3095   0.3012  -0.0000
    -0.0000

          k = 0.0884-0.0884 0.4419 ( 17885 PWs)   bands (ev):

    -2.7663  -1.5147  -1.2658  -1.0185  -1.0157  -0.5212   0.7084   0.7111
     0.9562   1.4440   1.4468   1.6838   1.6865   1.9328   2.1732   2.1760
     3.1379   3.1406   3.5864   3.8492   4.0866   4.3124   4.3154   4.8417
     5.0886   5.0891   5.5533   5.5736   5.5762   6.0206   6.0357   6.0370
     6.4990   6.4997   6.8844   6.8873   7.4403   7.4456   7.4478   7.9162
     7.9189   7.9988   8.0006   8.1016   8.1039   8.1105   8.3838   8.3850
     9.9747

     occupation numbers 
     1.0000   1.0000   1.0000   1.0000   1.0000   1.0000   1.0000   1.0000
     1.0000   1.0000   1.0000   1.0000   1.0000   1.0000   1.0000   1.0000
     1.0000   1.0000   1.0000   1.0000   1.0000   1.0000   1.0000   1.0000
     1.0000   1.0000   1.0000   1.0000   1.0000   1.0000   1.0000   1.0000
     1.0000   1.0000   1.0000   1.0000   1.0087   1.0093   1.0095   0.6848
     0.6772   0.4333   0.4280   0.1545   0.1496   0.1358  -0.0279  -0.0277
    -0.0000

          k =-0.5303 0.5303-0.1768 ( 17894 PWs)   bands (ev):

    -2.4995  -1.9984  -1.4992  -1.0030  -1.0002  -0.0116   0.4788   0.4815
     0.9710   1.4587   1.4614   1.9462   1.9489   2.4250   2.4277   2.9098
     2.9141   3.3904   3.3931   3.3943   3.8656   3.8685   4.2811   4.3788
     4.7529   4.7557   4.8512   5.3275   5.3281   5.6924   5.6935   6.2730
     6.2737   7.1097   7.1127   7.2056   7.4566   7.5893   7.5921   7.9055
     7.9068   8.1512   8.5294   8.5303   8.8687   8.8716   9.0299   9.0326
     9.4417

     occupation numbers 
     1.0000   1.0000   1.0000   1.0000   1.0000   1.0000   1.0000   1.0000
     1.0000   1.0000   1.0000   1.0000   1.0000   1.0000   1.0000   1.0000
     1.0000   1.0000   1.0000   1.0000   1.0000   1.0000   1.0000   1.0000
     1.0000   1.0000   1.0000   1.0000   1.0000   1.0000   1.0000   1.0000
     1.0000   1.0000   1.0000   1.0002   1.0105   1.0308   1.0312   0.7150
     0.7115   0.0633  -0.0073  -0.0072  -0.0000  -0.0000  -0.0000  -0.0000
    -0.0000

          k =-0.4419 0.4419-0.0884 ( 17931 PWs)   bands (ev):

    -2.3897  -2.1392  -1.6394  -0.8944  -0.8917   0.3409   0.3436   0.5883
     0.8322   0.8349   1.0775   2.0502   2.5368   2.5396   2.7800   3.2498
     3.2526   3.2532   3.4970   3.4998   3.7299   3.7327   3.9435   3.9462
     4.0120   4.9562   4.9916   5.3667   5.3677   5.6597   5.6604   6.1327
     6.1334   6.9586   7.2698   7.2726   7.3305   7.3336   8.1986   8.2016
     8.4522   8.4533   8.4675   8.6843   8.6850   8.9393   9.2314   9.2343
     9.6157

     occupation numbers 
     1.0000   1.0000   1.0000   1.0000   1.0000   1.0000   1.0000   1.0000
     1.0000   1.0000   1.0000   1.0000   1.0000   1.0000   1.0000   1.0000
     1.0000   1.0000   1.0000   1.0000   1.0000   1.0000   1.0000   1.0000
     1.0000   1.0000   1.0000   1.0000   1.0000   1.0000   1.0000   1.0000
     1.0000   1.0000   1.0007   1.0008   1.0020   1.0021   0.0067   0.0041
    -0.0166  -0.0165  -0.0144  -0.0007  -0.0007  -0.0000  -0.0000  -0.0000
    -0.0000

          k =-0.3536 0.3536 0.0000 ( 17930 PWs)   bands (ev):

    -2.6878  -1.6862  -1.6862  -0.6930  -0.6903   0.2941   0.2959   0.2968
     0.2986   1.2745   1.2751   1.2779   2.2516   2.2516   3.1960   3.1988
     3.2144   3.2144   3.2171   3.2173   4.1525   4.1543   4.1553   4.1571
     5.1054   5.1063   5.1513   5.1513   5.4926   6.0761   6.0768   6.0769
     6.0776   6.8360   7.0102   7.0104   7.0131   7.0133   7.3430   7.3463
     8.7968   8.7989   8.8987   8.8995   8.9000   8.9006   8.9067   9.0981
     9.2009

     occupation numbers 
     1.0000   1.0000   1.0000   1.0000   1.0000   1.0000   1.0000   1.0000
     1.0000   1.0000   1.0000   1.0000   1.0000   1.0000   1.0000   1.0000
     1.0000   1.0000   1.0000   1.0000   1.0000   1.0000   1.0000   1.0000
     1.0000   1.0000   1.0000   1.0000   1.0000   1.0000   1.0000   1.0000
     1.0000   1.0000   1.0000   1.0000   1.0000   1.0000   1.0024   1.0025
    -0.0001  -0.0001  -0.0000  -0.0000  -0.0000  -0.0000  -0.0000  -0.0000
    -0.0000

          k = 0.0000 0.0000 0.5303 ( 17886 PWs)   bands (ev):

    -2.6250  -1.6238  -1.1291  -1.1264  -1.1252  -1.1225   1.3332   1.3362
     1.3362   1.3392   1.8226   1.8253   1.8265   1.8293   2.3070   2.3100
     2.3100   2.3130   3.7439   3.7468   3.7479   3.7508   4.1625   5.2111
     5.2117   5.2136   5.2143   6.0100   6.0130   6.0130   6.0158   6.1577
     6.1584   6.1603   6.1611   7.3162   7.3191   7.3191   7.3219   7.3391
     8.0272   8.0299   8.0299   8.0326   8.7918   8.7948   8.7948   8.7978
    10.2953

     occupation numbers 
     1.0000   1.0000   1.0000   1.0000   1.0000   1.0000   1.0000   1.0000
     1.0000   1.0000   1.0000   1.0000   1.0000   1.0000   1.0000   1.0000
     1.0000   1.0000   1.0000   1.0000   1.0000   1.0000   1.0000   1.0000
     1.0000   1.0000   1.0000   1.0000   1.0000   1.0000   1.0000   1.0000
     1.0000   1.0000   1.0000   1.0016   1.0016   1.0016   1.0017   1.0022
     0.3477   0.3398   0.3397   0.3319  -0.0001  -0.0001  -0.0001  -0.0001
    -0.0000

          k =-0.6187 0.6187-0.0884 ( 17913 PWs)   bands (ev):

    -2.3897  -1.8891  -1.6394  -1.1427  -1.1400  -0.6450   1.0761   1.0788
     1.5648   1.5675   1.8099   2.0488   2.0515   2.2946   2.2973   2.5340
     2.5367   2.7770   2.7793   3.2566   3.2595   3.7272   4.4932   4.7577
     4.9584   5.4314   5.4321   5.4577   5.4603   5.9055   5.9062   5.9245
     5.9258   6.3753   6.7213   6.8493   7.4248   7.4261   7.7975   7.8006
     8.1342   8.1369   8.7305   8.7332   8.9809   8.9840   9.1983   9.1995
     9.6586

     occupation numbers 
     1.0000   1.0000   1.0000   1.0000   1.0000   1.0000   1.0000   1.0000
     1.0000   1.0000   1.0000   1.0000   1.0000   1.0000   1.0000   1.0000
     1.0000   1.0000   1.0000   1.0000   1.0000   1.0000   1.0000   1.0000
     1.0000   1.0000   1.0000   1.0000   1.0000   1.0000   1.0000   1.0000
     1.0000   1.0000   1.0000   1.0000   1.0072   1.0073   0.9455   0.9410
     0.0909   0.0861  -0.0003  -0.0003  -0.0000  -0.0000  -0.0000  -0.0000
    -0.0000

          k =-0.5303 0.5303 0.0000 ( 17942 PWs)   bands (ev):

    -2.0625  -2.0610  -2.0595  -1.0651  -1.0623  -0.0733   0.9074   0.9093
     0.9102   0.9120   1.8848   1.8848   2.8466   2.8489   2.8499   2.8509
     2.8530   2.8534   2.8556   2.8566   3.7069   3.7069   3.9478   3.9478
     4.6940   4.6968   5.1461   5.6368   5.6378   5.7388   5.7395   5.7396
     5.7403   6.4833   7.6202   7.6202   7.8633   7.8643   7.9228   7.9261
     8.4622   8.4624   8.4651   8.4653   8.6587   8.6619   9.4025   9.4032
     9.4043

     occupation numbers 
     1.0000   1.0000   1.0000   1.0000   1.0000   1.0000   1.0000   1.0000
     1.0000   1.0000   1.0000   1.0000   1.0000   1.0000   1.0000   1.0000
     1.0000   1.0000   1.0000   1.0000   1.0000   1.0000   1.0000   1.0000
     1.0000   1.0000   1.0000   1.0000   1.0000   1.0000   1.0000   1.0000
     1.0000   1.0000   1.0344   1.0344   0.8225   0.8201   0.6658   0.6561
    -0.0151  -0.0151  -0.0147  -0.0147  -0.0011  -0.0011  -0.0000  -0.0000
    -0.0000

          k = 0.0000 0.0000-0.7071 ( 17886 PWs)   bands (ev):

    -2.1861  -2.1861  -1.1913  -1.1886  -1.1874  -1.1846   1.7581   1.7620
     1.7631   1.7631   1.7631   1.7631   1.7641   1.7680   2.7297   2.7302
     2.7326   2.7329   2.7338   2.7341   2.7365   2.7370   5.0306   5.6222
     5.6236   5.6244   5.6245   5.6255   5.6255   5.6263   5.6277   5.9523
     5.9551   5.9552   5.9581   6.3619   7.3093   7.3120   7.3120   7.3147
     8.7331   8.7369   8.7369   8.7407   9.6633   9.6647   9.6659   9.6661
     9.6670

     occupation numbers 
     1.0000   1.0000   1.0000   1.0000   1.0000   1.0000   1.0000   1.0000
     1.0000   1.0000   1.0000   1.0000   1.0000   1.0000   1.0000   1.0000
     1.0000   1.0000   1.0000   1.0000   1.0000   1.0000   1.0000   1.0000
     1.0000   1.0000   1.0000   1.0000   1.0000   1.0000   1.0000   1.0000
     1.0000   1.0000   1.0000   1.0000   1.0014   1.0015   1.0015   1.0015
    -0.0003  -0.0003  -0.0003  -0.0003  -0.0000  -0.0000  -0.0000  -0.0000
    -0.0000

          k = 0.1768 0.0000 0.3536 ( 17891 PWs)   bands (ev):

    -2.8764  -1.3766  -1.3726  -0.8776  -0.3840  -0.3800   0.1110   0.6017
     0.6057   1.0905   1.0929   1.5810   1.5849   2.0625   2.0689   3.0170
     3.0343   3.0368   3.9902   3.9914   3.9926   4.4463   4.4504   5.3375
     5.3416   5.4278   5.4317   5.7817   5.8671   5.9163   5.9189   5.9232
     5.9258   6.7074   6.8223   6.8248   7.0771   7.2394   7.2436   7.6345
     7.8058   7.8085   7.8800   8.1718   8.5624   8.5751   8.5787   8.9290
     9.1193

     occupation numbers 
     1.0000   1.0000   1.0000   1.0000   1.0000   1.0000   1.0000   1.0000
     1.0000   1.0000   1.0000   1.0000   1.0000   1.0000   1.0000   1.0000
     1.0000   1.0000   1.0000   1.0000   1.0000   1.0000   1.0000   1.0000
     1.0000   1.0000   1.0000   1.0000   1.0000   1.0000   1.0000   1.0000
     1.0000   1.0000   1.0000   1.0000   1.0000   1.0004   1.0005   1.0353
     0.9331   0.9289   0.7824   0.0351  -0.0048  -0.0040  -0.0038  -0.0000
    -0.0000

          k = 0.0000-0.1768 0.3536 ( 17891 PWs)   bands (ev):

    -2.8764  -1.3746  -1.3746  -0.8776  -0.3820  -0.3820   0.1110   0.6037
     0.6037   1.0917   1.0917   1.5829   1.5830   2.0624   2.0690   3.0171
     3.0355   3.0355   3.9913   3.9914   3.9916   4.4483   4.4483   5.3396
     5.3396   5.4297   5.4298   5.7816   5.8671   5.9174   5.9176   5.9245
     5.9246   6.7074   6.8235   6.8235   7.0771   7.2415   7.2415   7.6345
     7.8072   7.8072   7.8800   8.1718   8.5625   8.5769   8.5769   8.9290
     9.1193

     occupation numbers 
     1.0000   1.0000   1.0000   1.0000   1.0000   1.0000   1.0000   1.0000
     1.0000   1.0000   1.0000   1.0000   1.0000   1.0000   1.0000   1.0000
     1.0000   1.0000   1.0000   1.0000   1.0000   1.0000   1.0000   1.0000
     1.0000   1.0000   1.0000   1.0000   1.0000   1.0000   1.0000   1.0000
     1.0000   1.0000   1.0000   1.0000   1.0000   1.0004   1.0004   1.0353
     0.9310   0.9310   0.7824   0.0351  -0.0048  -0.0039  -0.0039  -0.0000
    -0.0000

          k =-0.4419 0.6187-0.2652 ( 17909 PWs)   bands (ev):

    -2.6407  -1.8891  -1.3902  -1.1414  -0.3975  -0.1508   0.0963   0.5881
     0.8324   1.0786   1.3230   1.8069   2.0543   2.2960   2.5387   2.7692
     3.2594   3.2610   3.4912   3.7060   3.9689   4.2035   4.2099   4.4208
     4.7203   4.8939   4.9613   5.2253   5.4228   5.6697   6.0609   6.1318
     6.6443   6.8052   7.0309   7.0683   7.1871   7.2767   7.5501   7.5670
     7.9395   8.2260   8.4860   8.6508   8.9398   8.9673   8.9925   9.3866
     9.4235

     occupation numbers 
     1.0000   1.0000   1.0000   1.0000   1.0000   1.0000   1.0000   1.0000
     1.0000   1.0000   1.0000   1.0000   1.0000   1.0000   1.0000   1.0000
     1.0000   1.0000   1.0000   1.0000   1.0000   1.0000   1.0000   1.0000
     1.0000   1.0000   1.0000   1.0000   1.0000   1.0000   1.0000   1.0000
     1.0000   1.0000   1.0000   1.0000   1.0002   1.0008   1.0245   1.0273
     0.6164  -0.0137  -0.0119  -0.0013  -0.0000  -0.0000  -0.0000  -0.0000
    -0.0000

          k = 0.6187 0.4419-0.2652 ( 17909 PWs)   bands (ev):

    -2.6407  -1.8891  -1.3902  -1.1414  -0.3975  -0.1508   0.0963   0.5881
     0.8324   1.0786   1.3230   1.8069   2.0543   2.2959   2.5387   2.7692
     3.2594   3.2610   3.4912   3.7060   3.9689   4.2035   4.2100   4.4208
     4.7203   4.8939   4.9614   5.2253   5.4228   5.6697   6.0609   6.1318
     6.6443   6.8052   7.0309   7.0683   7.1871   7.2767   7.5501   7.5670
     7.9395   8.2260   8.4860   8.6508   8.9399   8.9672   8.9925   9.3866
     9.4235

     occupation numbers 
     1.0000   1.0000   1.0000   1.0000   1.0000   1.0000   1.0000   1.0000
     1.0000   1.0000   1.0000   1.0000   1.0000   1.0000   1.0000   1.0000
     1.0000   1.0000   1.0000   1.0000   1.0000   1.0000   1.0000   1.0000
     1.0000   1.0000   1.0000   1.0000   1.0000   1.0000   1.0000   1.0000
     1.0000   1.0000   1.0000   1.0000   1.0002   1.0008   1.0245   1.0273
     0.6164  -0.0137  -0.0119  -0.0013  -0.0000  -0.0000  -0.0000  -0.0000
    -0.0000

          k = 0.5303 0.3536-0.1768 ( 17894 PWs)   bands (ev):

    -2.3124  -2.3103  -1.3134  -1.3113  -0.3219  -0.3188   0.6624   0.6642
     0.6651   0.6672   1.6429   1.6433   2.6076   2.6080   2.6127   2.6158
     3.4735   3.5575   3.5577   3.5702   3.5724   3.7026   4.4057   4.4586
     4.4589   4.5125   4.5127   4.6732   5.5009   5.5041   6.2346   6.4299
     6.4300   6.4601   7.2940   7.2962   7.3744   7.3755   7.6300   7.6307
     8.2969   8.2979   9.0791   9.0801   9.1714   9.1747   9.2408   9.2415
     9.2426

     occupation numbers 
     1.0000   1.0000   1.0000   1.0000   1.0000   1.0000   1.0000   1.0000
     1.0000   1.0000   1.0000   1.0000   1.0000   1.0000   1.0000   1.0000
     1.0000   1.0000   1.0000   1.0000   1.0000   1.0000   1.0000   1.0000
     1.0000   1.0000   1.0000   1.0000   1.0000   1.0000   1.0000   1.0000
     1.0000   1.0000   1.0011   1.0011   1.0037   1.0038   1.0351   1.0351
    -0.0350  -0.0351  -0.0000  -0.0000  -0.0000  -0.0000  -0.0000  -0.0000
    -0.0000

          k =-0.5303 0.7071-0.1768 ( 17893 PWs)   bands (ev):

    -2.5622  -1.5639  -1.5615  -1.5590  -0.5696  -0.5656   0.4187   1.3943
     1.3974   1.3985   1.3991   1.4024   2.3651   2.3694   2.3705   2.3719
     2.3746   3.3288   3.3317   3.3331   4.1724   4.1735   4.2218   4.4330
     4.4334   5.1647   5.1688   5.2688   5.2714   5.6083   6.2094   6.2120
     6.5337   6.9571   7.0085   7.1567   7.1593   7.3981   7.9156   7.9171
     7.9855   8.0001   8.0043   8.3886   8.4400   8.4424   8.9606   9.3172
     9.8610

     occupation numbers 
     1.0000   1.0000   1.0000   1.0000   1.0000   1.0000   1.0000   1.0000
     1.0000   1.0000   1.0000   1.0000   1.0000   1.0000   1.0000   1.0000
     1.0000   1.0000   1.0000   1.0000   1.0000   1.0000   1.0000   1.0000
     1.0000   1.0000   1.0000   1.0000   1.0000   1.0000   1.0000   1.0000
     1.0000   1.0000   1.0000   1.0001   1.0001   1.0052   0.6866   0.6823
     0.4746   0.4295   0.4165  -0.0271  -0.0185  -0.0182  -0.0000  -0.0000
    -0.0000

          k = 0.7071 0.5303-0.1768 ( 17893 PWs)   bands (ev):

    -2.5622  -1.5630  -1.5615  -1.5600  -0.5676  -0.5676   0.4187   1.3959
     1.3971   1.3989   1.3993   1.4006   2.3652   2.3706   2.3707   2.3723
     2.3729   3.3290   3.3309   3.3336   4.1730   4.1730   4.2218   4.4332
     4.4332   5.1668   5.1668   5.2701   5.2701   5.6082   6.2107   6.2107
     6.5337   6.9571   7.0085   7.1580   7.1580   7.3981   7.9162   7.9163
     7.9855   8.0022   8.0023   8.3886   8.4412   8.4412   8.9606   9.3172
     9.8609

     occupation numbers 
     1.0000   1.0000   1.0000   1.0000   1.0000   1.0000   1.0000   1.0000
     1.0000   1.0000   1.0000   1.0000   1.0000   1.0000   1.0000   1.0000
     1.0000   1.0000   1.0000   1.0000   1.0000   1.0000   1.0000   1.0000
     1.0000   1.0000   1.0000   1.0000   1.0000   1.0000   1.0000   1.0000
     1.0000   1.0000   1.0000   1.0001   1.0001   1.0052   0.6848   0.6845
     0.4746   0.4230   0.4226  -0.0271  -0.0183  -0.0183  -0.0000  -0.0000
    -0.0000

          k =-0.4419 0.6187-0.0884 ( 17897 PWs)   bands (ev):

    -2.2644  -2.0141  -1.7642  -1.5147  -0.5213  -0.0270   0.2191   0.7108
     1.1998   1.4442   1.6881   1.9316   2.1716   2.4141   2.6563   2.8977
     2.8999   3.1310   3.3720   3.6107   3.6118   3.8464   4.1326   4.3023
     4.3708   4.6112   4.7773   4.8747   5.0754   5.1086   6.4860   6.5032
     6.8410   6.9595   7.0782   7.2054   7.4246   7.6262   7.8973   8.0975
     8.1372   8.3798   8.4067   8.5582   8.7472   9.0294   9.1395   9.2220
     9.3013

     occupation numbers 
     1.0000   1.0000   1.0000   1.0000   1.0000   1.0000   1.0000   1.0000
     1.0000   1.0000   1.0000   1.0000   1.0000   1.0000   1.0000   1.0000
     1.0000   1.0000   1.0000   1.0000   1.0000   1.0000   1.0000   1.0000
     1.0000   1.0000   1.0000   1.0000   1.0000   1.0000   1.0000   1.0000
     1.0000   1.0000   1.0000   1.0002   1.0072   1.0349   0.7373   0.1637
     0.0856  -0.0286  -0.0241  -0.0051  -0.0002  -0.0000  -0.0000  -0.0000
    -0.0000

          k = 0.6187 0.4419-0.0884 ( 17897 PWs)   bands (ev):

    -2.2644  -2.0141  -1.7642  -1.5147  -0.5213  -0.0270   0.2191   0.7108
     1.1998   1.4442   1.6881   1.9316   2.1716   2.4142   2.6563   2.8977
     2.8999   3.1310   3.3720   3.6107   3.6118   3.8464   4.1326   4.3023
     4.3708   4.6112   4.7773   4.8747   5.0754   5.1086   6.4860   6.5032
     6.8410   6.9595   7.0782   7.2054   7.4246   7.6262   7.8973   8.0975
     8.1373   8.3798   8.4067   8.5582   8.7473   9.0293   9.1395   9.2220
     9.3012

     occupation numbers 
     1.0000   1.0000   1.0000   1.0000   1.0000   1.0000   1.0000   1.0000
     1.0000   1.0000   1.0000   1.0000   1.0000   1.0000   1.0000   1.0000
     1.0000   1.0000   1.0000   1.0000   1.0000   1.0000   1.0000   1.0000
     1.0000   1.0000   1.0000   1.0000   1.0000   1.0000   1.0000   1.0000
     1.0000   1.0000   1.0000   1.0002   1.0072   1.0349   0.7373   0.1637
     0.0856  -0.0286  -0.0241  -0.0051  -0.0002  -0.0000  -0.0000  -0.0000
    -0.0000

          k =-0.3536 0.5303 0.0000 ( 17889 PWs)   bands (ev):

    -2.3740  -1.8735  -1.8735  -1.3746  -0.3822   0.1116   0.1116   0.6036
     1.0934   1.0935   1.5803   1.5803   2.5523   2.5523   3.0303   3.0304
     3.0344   3.0345   3.4978   3.5130   3.5130   3.9766   3.9766   4.3996
     4.4539   4.4975   4.4975   4.9707   4.9707   5.3193   6.2780   6.6635
     6.8435   6.8435   7.1708   7.3098   7.3098   7.5743   8.0985   8.1620
     8.1620   8.2541   8.2541   8.5205   8.7124   8.7124   9.3702   9.4702
     9.6920

     occupation numbers 
     1.0000   1.0000   1.0000   1.0000   1.0000   1.0000   1.0000   1.0000
     1.0000   1.0000   1.0000   1.0000   1.0000   1.0000   1.0000   1.0000
     1.0000   1.0000   1.0000   1.0000   1.0000   1.0000   1.0000   1.0000
     1.0000   1.0000   1.0000   1.0000   1.0000   1.0000   1.0000   1.0000
     1.0000   1.0000   1.0001   1.0014   1.0014   1.0285   0.1614   0.0478
     0.0478  -0.0268  -0.0268  -0.0081  -0.0004  -0.0004  -0.0000  -0.0000
    -0.0000

          k = 0.5303 0.3536 0.0000 ( 17889 PWs)   bands (ev):

    -2.3740  -1.8735  -1.8735  -1.3746  -0.3822   0.1116   0.1116   0.6036
     1.0934   1.0934   1.5803   1.5803   2.5523   2.5523   3.0304   3.0305
     3.0343   3.0344   3.4977   3.5130   3.5130   3.9766   3.9766   4.3996
     4.4538   4.4975   4.4975   4.9707   4.9707   5.3193   6.2780   6.6635
     6.8435   6.8435   7.1708   7.3098   7.3098   7.5743   8.0985   8.1620
     8.1620   8.2541   8.2541   8.5205   8.7124   8.7124   9.3702   9.4702
     9.6920

     occupation numbers 
     1.0000   1.0000   1.0000   1.0000   1.0000   1.0000   1.0000   1.0000
     1.0000   1.0000   1.0000   1.0000   1.0000   1.0000   1.0000   1.0000
     1.0000   1.0000   1.0000   1.0000   1.0000   1.0000   1.0000   1.0000
     1.0000   1.0000   1.0000   1.0000   1.0000   1.0000   1.0000   1.0000
     1.0000   1.0000   1.0001   1.0014   1.0014   1.0285   0.1614   0.0478
     0.0477  -0.0268  -0.0268  -0.0081  -0.0004  -0.0004  -0.0000  -0.0000
    -0.0000

          k = 0.1768 0.0000-0.7071 ( 17918 PWs)   bands (ev):

    -2.1235  -2.1235  -1.6258  -1.6218  -0.6315  -0.6276   0.8484   0.8484
     1.8221   1.8234   1.8245   1.8258   2.3078   2.3082   2.3118   2.3122
     2.7893   2.7893   3.2708   3.2712   3.2748   3.2752   4.7347   4.7363
     4.7373   4.7388   5.0883   5.1064   5.1105   5.5505   6.4228   6.4759
     6.6232   6.6247   6.6258   6.6274   6.9039   7.7965   7.8665   8.2514
     8.2553   8.7932   8.7967   8.8738   8.8744   8.8781   8.8787   9.2595
     9.2595

     occupation numbers 
     1.0000   1.0000   1.0000   1.0000   1.0000   1.0000   1.0000   1.0000
     1.0000   1.0000   1.0000   1.0000   1.0000   1.0000   1.0000   1.0000
     1.0000   1.0000   1.0000   1.0000   1.0000   1.0000   1.0000   1.0000
     1.0000   1.0000   1.0000   1.0000   1.0000   1.0000   1.0000   1.0000
     1.0000   1.0000   1.0000   1.0000   1.0000   0.9469   0.8151  -0.0259
    -0.0272  -0.0001  -0.0001  -0.0000  -0.0000  -0.0000  -0.0000  -0.0000
    -0.0000

          k = 0.0000-0.1768-0.7071 ( 17918 PWs)   bands (ev):

    -2.1235  -2.1235  -1.6238  -1.6238  -0.6295  -0.6295   0.8484   0.8484
     1.8239   1.8239   1.8240   1.8240   2.3099   2.3100   2.3100   2.3100
     2.7893   2.7893   3.2730   3.2730   3.2730   3.2730   4.7368   4.7368
     4.7368   4.7368   5.0883   5.1085   5.1085   5.5504   6.4228   6.4758
     6.6253   6.6253   6.6253   6.6253   6.9039   7.7965   7.8665   8.2533
     8.2534   8.7948   8.7949   8.8762   8.8763   8.8763   8.8764   9.2595
     9.2595

     occupation numbers 
     1.0000   1.0000   1.0000   1.0000   1.0000   1.0000   1.0000   1.0000
     1.0000   1.0000   1.0000   1.0000   1.0000   1.0000   1.0000   1.0000
     1.0000   1.0000   1.0000   1.0000   1.0000   1.0000   1.0000   1.0000
     1.0000   1.0000   1.0000   1.0000   1.0000   1.0000   1.0000   1.0000
     1.0000   1.0000   1.0000   1.0000   1.0000   0.9469   0.8150  -0.0266
    -0.0266  -0.0001  -0.0001  -0.0000  -0.0000  -0.0000  -0.0000  -0.0000
    -0.0000

          k = 0.0000-0.3536-0.7071 ( 17916 PWs)   bands (ev):

    -1.9380  -1.9359  -1.9359  -1.9338   0.0468   0.0499   0.0499   0.0530
     2.0042   2.0056   2.0056   2.0062   2.0067   2.0073   2.0073   2.0087
     3.8235   3.8235   3.8235   3.8235   3.9168   3.9170   3.9170   3.9172
     4.0698   4.0698   4.0698   4.0700   5.2616   5.2616   6.6040   6.6050
     7.1129   7.1129   7.7225   7.7232   7.7232   7.7233   7.7243   7.7244
     7.7244   7.7252   8.1284   8.9682   8.9691   8.9691   8.9700   9.0822
     9.6771

     occupation numbers 
     1.0000   1.0000   1.0000   1.0000   1.0000   1.0000   1.0000   1.0000
     1.0000   1.0000   1.0000   1.0000   1.0000   1.0000   1.0000   1.0000
     1.0000   1.0000   1.0000   1.0000   1.0000   1.0000   1.0000   1.0000
     1.0000   1.0000   1.0000   1.0000   1.0000   1.0000   1.0000   1.0000
     1.0000   1.0000   1.0172   1.0168   1.0168   1.0168   1.0163   1.0162
     1.0162   1.0158   0.1012  -0.0000  -0.0000  -0.0000  -0.0000  -0.0000
    -0.0000

     the Fermi energy is     7.9773 ev

!    total energy              =   -1066.55009776 Ry
     total all-electron energy =     -1066.550098 Ry
     estimated scf accuracy    <          2.5E-16 Ry
     smearing contrib. (-TS)   =      -0.00216161 Ry
     internal energy E=F+TS    =   -1066.54793615 Ry

     The total energy is F=E-TS. E is the sum of the following terms:
     one-electron contribution =      85.38450009 Ry
     hartree contribution      =       0.22208992 Ry
     xc contribution           =     -56.80716999 Ry
     ewald contribution        =    -146.01199371 Ry
     one-center paw contrib.   =    -949.33536246 Ry
      -> PAW hartree energy AE =       0.92249871 Ry
      -> PAW hartree energy PS =      -0.89453391 Ry
      -> PAW xc energy AE      =    -108.07409748 Ry
      -> PAW xc energy PS      =       2.56441900 Ry
      -> total E_H with PAW    =       0.25005472 Ry
      -> total E_XC with PAW   =    -162.31684846 Ry

     convergence has been achieved in  23 iterations

     negative rho (up, down):  1.870E-02 0.000E+00

     Forces acting on atoms (cartesian axes, Ry/au):

     atom    1 type  1   force =     0.00000000   -0.00181913    0.00000000
     atom    2 type  1   force =    -0.00026718    0.00024685    0.00000000
     atom    3 type  1   force =    -0.00025930    0.00024006    0.00000000
     atom    4 type  1   force =    -0.00000000    0.00024685    0.00026718
     atom    5 type  1   force =     0.00000660   -0.00001621   -0.00000660
     atom    6 type  1   force =    -0.00000137   -0.00004040   -0.00000137
     atom    7 type  1   force =    -0.00000000    0.00024006    0.00025930
     atom    8 type  1   force =     0.00000137   -0.00004040    0.00000137
     atom    9 type  1   force =     0.00000432   -0.00001674   -0.00000432
     atom   10 type  1   force =     0.00000137   -0.00004040   -0.00000137
     atom   11 type  1   force =     0.00000432   -0.00001674    0.00000432
     atom   12 type  1   force =     0.00000000    0.00024006   -0.00025930
     atom   13 type  1   force =    -0.00000432   -0.00001674   -0.00000432
     atom   14 type  1   force =    -0.00000660   -0.00001621    0.00000660
     atom   15 type  1   force =     0.00000000    0.00000712    0.00000154
     atom   16 type  1   force =     0.00025930    0.00024006    0.00000000
     atom   17 type  1   force =    -0.00000154    0.00000712    0.00000000
     atom   18 type  1   force =     0.00000000    0.00006696    0.00000000
     atom   19 type  1   force =    -0.00000137   -0.00004040    0.00000137
     atom   20 type  1   force =     0.00000000    0.00024685   -0.00026718
     atom   21 type  1   force =     0.00000660   -0.00001621    0.00000660
     atom   22 type  1   force =     0.00026718    0.00024685   -0.00000000
     atom   23 type  1   force =     0.00000000    0.00006943    0.00000000
     atom   24 type  1   force =     0.00000154    0.00000712   -0.00000000
     atom   25 type  1   force =    -0.00000660   -0.00001621   -0.00000660
     atom   26 type  1   force =     0.00000000    0.00000712   -0.00000154
     atom   27 type  1   force =    -0.00000432   -0.00001674    0.00000432
     The non-local contrib.  to forces
     atom    1 type  1   force =     0.00000000   -0.00452453    0.00000000
     atom    2 type  1   force =    -0.00057907    0.00052663    0.00000000
     atom    3 type  1   force =    -0.00055685    0.00051262    0.00000000
     atom    4 type  1   force =    -0.00000000    0.00052663    0.00057907
     atom    5 type  1   force =    -0.00001375    0.00001290    0.00001375
     atom    6 type  1   force =    -0.00000018   -0.00000416   -0.00000018
     atom    7 type  1   force =    -0.00000000    0.00051262    0.00055685
     atom    8 type  1   force =     0.00000018   -0.00000416    0.00000018
     atom    9 type  1   force =    -0.00001409    0.00001036    0.00001409
     atom   10 type  1   force =     0.00000018   -0.00000416   -0.00000018
     atom   11 type  1   force =    -0.00001409    0.00001036   -0.00001409
     atom   12 type  1   force =     0.00000000    0.00051262   -0.00055685
     atom   13 type  1   force =     0.00001409    0.00001036    0.00001409
     atom   14 type  1   force =     0.00001375    0.00001290   -0.00001375
     atom   15 type  1   force =     0.00000000    0.00003203   -0.00000001
     atom   16 type  1   force =     0.00055685    0.00051262   -0.00000000
     atom   17 type  1   force =     0.00000001    0.00003203    0.00000000
     atom   18 type  1   force =     0.00000000    0.00007915    0.00000000
     atom   19 type  1   force =    -0.00000018   -0.00000416    0.00000018
     atom   20 type  1   force =     0.00000000    0.00052663   -0.00057907
     atom   21 type  1   force =    -0.00001375    0.00001290   -0.00001375
     atom   22 type  1   force =     0.00057907    0.00052663    0.00000000
     atom   23 type  1   force =     0.00000000    0.00008386    0.00000000
     atom   24 type  1   force =    -0.00000001    0.00003203   -0.00000000
     atom   25 type  1   force =     0.00001375    0.00001290    0.00001375
     atom   26 type  1   force =    -0.00000000    0.00003203    0.00000001
     atom   27 type  1   force =     0.00001409    0.00001036   -0.00001409
     The ionic contribution  to forces
     atom    1 type  1   force =     0.00000001   -0.01235360   -0.00000001
     atom    2 type  1   force =    -0.00341752    0.00156884   -0.00000460
     atom    3 type  1   force =    -0.00338487    0.00156649    0.00000460
     atom    4 type  1   force =     0.00000460    0.00156884    0.00341752
     atom    5 type  1   force =    -0.00043607    0.00048714    0.00043607
     atom    6 type  1   force =     0.00000171   -0.00170995    0.00000171
     atom    7 type  1   force =    -0.00000460    0.00156649    0.00338487
     atom    8 type  1   force =    -0.00000171   -0.00170995   -0.00000171
     atom    9 type  1   force =    -0.00043328    0.00046314    0.00043328
     atom   10 type  1   force =     0.00000289   -0.00171455   -0.00000289
     atom   11 type  1   force =    -0.00044328    0.00047314   -0.00043328
     atom   12 type  1   force =     0.00000000    0.00156189   -0.00338027
     atom   13 type  1   force =     0.00043328    0.00047314    0.00044328
     atom   14 type  1   force =     0.00043068    0.00048254   -0.00043068
     atom   15 type  1   force =     0.00000460   -0.00009734    0.00001105
     atom   16 type  1   force =     0.00338027    0.00156189    0.00000000
     atom   17 type  1   force =    -0.00001105   -0.00009734   -0.00000460
     atom   18 type  1   force =    -0.00000460    0.00159003    0.00000460
     atom   19 type  1   force =    -0.00000289   -0.00170535    0.00000289
     atom   20 type  1   force =    -0.00000000    0.00157344   -0.00342212
     atom   21 type  1   force =    -0.00042608    0.00047714   -0.00043607
     atom   22 type  1   force =     0.00342212    0.00157344    0.00000000
     atom   23 type  1   force =     0.00000460    0.00163184   -0.00000460
     atom   24 type  1   force =     0.00001105   -0.00008813    0.00000460
     atom   25 type  1   force =     0.00043607    0.00047714    0.00042608
     atom   26 type  1   force =    -0.00000460   -0.00008813   -0.00001105
     atom   27 type  1   force =     0.00043868    0.00046775   -0.00043868
     The local contribution  to forces
     atom    1 type  1   force =    -0.00000000    0.01475808    0.00000000
     atom    2 type  1   force =     0.00369092   -0.00181472    0.00000000
     atom    3 type  1   force =     0.00364075   -0.00180143    0.00000000
     atom    4 type  1   force =    -0.00000000   -0.00181472   -0.00369092
     atom    5 type  1   force =     0.00045719   -0.00051471   -0.00045719
     atom    6 type  1   force =    -0.00000061    0.00167190   -0.00000061
     atom    7 type  1   force =    -0.00000000   -0.00180143   -0.00364075
     atom    8 type  1   force =     0.00000061    0.00167190    0.00000061
     atom    9 type  1   force =     0.00044929   -0.00049032   -0.00044929
     atom   10 type  1   force =     0.00000061    0.00167190   -0.00000061
     atom   11 type  1   force =     0.00046012   -0.00050115    0.00044928
     atom   12 type  1   force =     0.00000000   -0.00180143    0.00364075
     atom   13 type  1   force =    -0.00044928   -0.00050115   -0.00046012
     atom   14 type  1   force =    -0.00044636   -0.00051470    0.00044636
     atom   15 type  1   force =     0.00000000    0.00006961   -0.00000948
     atom   16 type  1   force =    -0.00364075   -0.00180143   -0.00000000
     atom   17 type  1   force =     0.00000948    0.00006961   -0.00000000
     atom   18 type  1   force =     0.00000000   -0.00159785   -0.00000000
     atom   19 type  1   force =    -0.00000061    0.00167190    0.00000061
     atom   20 type  1   force =    -0.00000000   -0.00181472    0.00369092
     atom   21 type  1   force =     0.00044636   -0.00050387    0.00045719
     atom   22 type  1   force =    -0.00369092   -0.00181472   -0.00000000
     atom   23 type  1   force =     0.00000000   -0.00164156   -0.00000000
     atom   24 type  1   force =    -0.00000948    0.00006961   -0.00000000
     atom   25 type  1   force =    -0.00045719   -0.00050387   -0.00044636
     atom   26 type  1   force =     0.00000000    0.00006961    0.00000948
     atom   27 type  1   force =    -0.00046012   -0.00049032    0.00046012
     The core correction contribution to forces
     atom    1 type  1   force =    -0.00000000    0.00030093    0.00000000
     atom    2 type  1   force =     0.00004079   -0.00003620    0.00000000
     atom    3 type  1   force =     0.00003936   -0.00003531   -0.00000000
     atom    4 type  1   force =    -0.00000000   -0.00003620   -0.00004079
     atom    5 type  1   force =     0.00000104   -0.00000105   -0.00000104
     atom    6 type  1   force =     0.00000002    0.00000181    0.00000002
     atom    7 type  1   force =     0.00000000   -0.00003531   -0.00003936
     atom    8 type  1   force =    -0.00000002    0.00000181   -0.00000002
     atom    9 type  1   force =     0.00000059   -0.00000042   -0.00000059
     atom   10 type  1   force =    -0.00000002    0.00000181    0.00000002
     atom   11 type  1   force =     0.00000108   -0.00000090    0.00000059
     atom   12 type  1   force =     0.00000000   -0.00003531    0.00003936
     atom   13 type  1   force =    -0.00000059   -0.00000090   -0.00000108
     atom   14 type  1   force =    -0.00000056   -0.00000105    0.00000056
     atom   15 type  1   force =    -0.00000000   -0.00000179   -0.00000003
     atom   16 type  1   force =    -0.00003936   -0.00003531   -0.00000000
     atom   17 type  1   force =     0.00000003   -0.00000179    0.00000000
     atom   18 type  1   force =     0.00000000   -0.00000437   -0.00000000
     atom   19 type  1   force =     0.00000002    0.00000181   -0.00000002
     atom   20 type  1   force =     0.00000000   -0.00003620    0.00004079
     atom   21 type  1   force =     0.00000056   -0.00000057    0.00000104
     atom   22 type  1   force =    -0.00004079   -0.00003620   -0.00000000
     atom   23 type  1   force =    -0.00000000   -0.00000470    0.00000000
     atom   24 type  1   force =    -0.00000003   -0.00000179   -0.00000000
     atom   25 type  1   force =    -0.00000104   -0.00000057   -0.00000056
     atom   26 type  1   force =     0.00000000   -0.00000179    0.00000003
     atom   27 type  1   force =    -0.00000108   -0.00000042    0.00000108
     The Hubbard contrib.    to forces
     atom    1 type  1   force =     0.00000000    0.00000000    0.00000000
     atom    2 type  1   force =     0.00000000    0.00000000    0.00000000
     atom    3 type  1   force =     0.00000000    0.00000000    0.00000000
     atom    4 type  1   force =     0.00000000    0.00000000    0.00000000
     atom    5 type  1   force =     0.00000000    0.00000000    0.00000000
     atom    6 type  1   force =     0.00000000    0.00000000    0.00000000
     atom    7 type  1   force =     0.00000000    0.00000000    0.00000000
     atom    8 type  1   force =     0.00000000    0.00000000    0.00000000
     atom    9 type  1   force =     0.00000000    0.00000000    0.00000000
     atom   10 type  1   force =     0.00000000    0.00000000    0.00000000
     atom   11 type  1   force =     0.00000000    0.00000000    0.00000000
     atom   12 type  1   force =     0.00000000    0.00000000    0.00000000
     atom   13 type  1   force =     0.00000000    0.00000000    0.00000000
     atom   14 type  1   force =     0.00000000    0.00000000    0.00000000
     atom   15 type  1   force =     0.00000000    0.00000000    0.00000000
     atom   16 type  1   force =     0.00000000    0.00000000    0.00000000
     atom   17 type  1   force =     0.00000000    0.00000000    0.00000000
     atom   18 type  1   force =     0.00000000    0.00000000    0.00000000
     atom   19 type  1   force =     0.00000000    0.00000000    0.00000000
     atom   20 type  1   force =     0.00000000    0.00000000    0.00000000
     atom   21 type  1   force =     0.00000000    0.00000000    0.00000000
     atom   22 type  1   force =     0.00000000    0.00000000    0.00000000
     atom   23 type  1   force =     0.00000000    0.00000000    0.00000000
     atom   24 type  1   force =     0.00000000    0.00000000    0.00000000
     atom   25 type  1   force =     0.00000000    0.00000000    0.00000000
     atom   26 type  1   force =     0.00000000    0.00000000    0.00000000
     atom   27 type  1   force =     0.00000000    0.00000000    0.00000000
     The SCF correction term to forces
     atom    1 type  1   force =    -0.00000000   -0.00000000    0.00000000
     atom    2 type  1   force =    -0.00000000   -0.00000000    0.00000000
     atom    3 type  1   force =     0.00000000    0.00000000   -0.00000000
     atom    4 type  1   force =    -0.00000000   -0.00000000    0.00000000
     atom    5 type  1   force =    -0.00000000    0.00000000    0.00000000
     atom    6 type  1   force =     0.00000000   -0.00000000    0.00000000
     atom    7 type  1   force =     0.00000000    0.00000000   -0.00000000
     atom    8 type  1   force =    -0.00000000   -0.00000000   -0.00000000
     atom    9 type  1   force =    -0.00000000   -0.00000000    0.00000000
     atom   10 type  1   force =    -0.00000000   -0.00000000    0.00000000
     atom   11 type  1   force =    -0.00000000   -0.00000000   -0.00000000
     atom   12 type  1   force =     0.00000000    0.00000000    0.00000000
     atom   13 type  1   force =     0.00000000   -0.00000000    0.00000000
     atom   14 type  1   force =     0.00000000    0.00000000   -0.00000000
     atom   15 type  1   force =    -0.00000000   -0.00000000    0.00000000
     atom   16 type  1   force =    -0.00000000    0.00000000   -0.00000000
     atom   17 type  1   force =    -0.00000000   -0.00000000    0.00000000
     atom   18 type  1   force =     0.00000000   -0.00000000   -0.00000000
     atom   19 type  1   force =     0.00000000   -0.00000000   -0.00000000
     atom   20 type  1   force =     0.00000000   -0.00000000   -0.00000000
     atom   21 type  1   force =    -0.00000000    0.00000000   -0.00000000
     atom   22 type  1   force =     0.00000000   -0.00000000   -0.00000000
     atom   23 type  1   force =    -0.00000000    0.00000000    0.00000000
     atom   24 type  1   force =     0.00000000   -0.00000000   -0.00000000
     atom   25 type  1   force =     0.00000000    0.00000000    0.00000000
     atom   26 type  1   force =     0.00000000   -0.00000000   -0.00000000
     atom   27 type  1   force =     0.00000000   -0.00000000   -0.00000000

     Total force =     0.002087     Total SCF correction =     0.000000


     Computing stress (Cartesian axis) and pressure


     negative rho (up, down):  1.870E-02 0.000E+00
          total   stress  (Ry/bohr**3)                   (kbar)     P=       -0.03
  -0.00000024   0.00000000   0.00000000           -0.03        0.00        0.00
   0.00000000  -0.00000022   0.00000000            0.00       -0.03        0.00
   0.00000000  -0.00000000  -0.00000024            0.00       -0.00       -0.03

     kinetic stress (kbar)   1464.97      0.00      0.00
                                0.00   1464.97     -0.00
                               -0.00     -0.00   1464.97

     local   stress (kbar)    -46.89      0.00      0.00
                                0.00    -46.88     -0.00
                                0.00     -0.00    -46.89

     nonloc. stress (kbar)   1751.55      0.00      0.00
                                0.00   1751.55      0.00
                                0.00      0.00   1751.55

     hartree stress (kbar)      3.63     -0.00      0.00
                               -0.00      3.63     -0.00
                                0.00     -0.00      3.63

     exc-cor stress (kbar)    -86.34      0.00      0.00
                                0.00    -86.34     -0.00
                                0.00     -0.00    -86.34

     corecor stress (kbar)   -699.36     -0.00     -0.00
                               -0.00   -699.36      0.00
                               -0.00      0.00   -699.36

     ewald   stress (kbar)  -2387.59     -0.00     -0.00
                               -0.00  -2387.60      0.00
                               -0.00      0.00  -2387.59

     hubbard stress (kbar)      0.00      0.00      0.00
                                0.00      0.00      0.00
                                0.00      0.00      0.00

     DFT-D   stress (kbar)      0.00      0.00      0.00
                                0.00      0.00      0.00
                                0.00      0.00      0.00

     XDM     stress (kbar)      0.00      0.00      0.00
                                0.00      0.00      0.00
                                0.00      0.00      0.00

     dft-nl  stress (kbar)      0.00      0.00      0.00
                                0.00      0.00      0.00
                                0.00      0.00      0.00

     TS-vdW  stress (kbar)      0.00      0.00      0.00
                                0.00      0.00      0.00
                                0.00      0.00      0.00

     MDB     stress (kbar)      0.00      0.00      0.00
                                0.00      0.00      0.00
                                0.00      0.00      0.00

     3D-RISM stress (kbar)      0.00      0.00      0.00
                                0.00      0.00      0.00
                                0.00      0.00      0.00


     Writing all to output data dir ./scratch_runs/atom01_y_plus/al.save/ :
     XML data file, charge density, pseudopotentials, collected wavefunctions
 
     init_run     :      7.57s CPU      7.82s WALL (       1 calls)
     electrons    :    121.48s CPU    122.52s WALL (       1 calls)
     forces       :      0.69s CPU      0.70s WALL (       1 calls)
     stress       :      2.30s CPU      2.30s WALL (       1 calls)

     Called by init_run:
     wfcinit      :      7.25s CPU      7.44s WALL (       1 calls)
     wfcinit:atom :      0.08s CPU      0.08s WALL (      59 calls)
     wfcinit:wfcr :      6.63s CPU      6.81s WALL (      59 calls)
     potinit      :      0.17s CPU      0.22s WALL (       1 calls)
     hinit0       :      0.01s CPU      0.02s WALL (       1 calls)

     Called by electrons:
     c_bands      :     99.01s CPU     99.79s WALL (      24 calls)
     sum_band     :     17.55s CPU     17.80s WALL (      24 calls)
     v_of_rho     :      0.21s CPU      0.22s WALL (      24 calls)
     v_h          :      0.01s CPU      0.01s WALL (      24 calls)
     v_xc         :      0.22s CPU      0.22s WALL (      26 calls)
     newd         :      0.19s CPU      0.20s WALL (      24 calls)
     PAW_pot      :      4.61s CPU      4.67s WALL (      24 calls)
     mix_rho      :      0.05s CPU      0.05s WALL (      24 calls)

     Called by c_bands:
     init_us_2    :      4.16s CPU      4.19s WALL (    3009 calls)
     cegterg      :     92.35s CPU     93.09s WALL (    1416 calls)

     Called by sum_band:
     sum_band:wei :      0.04s CPU      0.04s WALL (      24 calls)
     sum_band:loo :     17.34s CPU     17.58s WALL (      24 calls)
     sum_band:buf :      0.29s CPU      0.29s WALL (    1416 calls)
     sum_band:ini :      1.82s CPU      1.83s WALL (    1416 calls)
     sum_band:cal :      2.55s CPU      2.56s WALL (    1416 calls)
     sum_band:bec :      0.04s CPU      0.04s WALL (    1416 calls)
     addusdens    :      0.14s CPU      0.14s WALL (      24 calls)
                                        0.00s GPU  (      24 calls)
     addusd:skk   :      0.02s CPU      0.02s WALL (      24 calls)
                                        0.00s GPU  (      24 calls)

     Called by *egterg:
     cdiaghg      :      7.22s CPU      7.23s WALL (    4721 calls)
     cegterg:over :      4.49s CPU      4.51s WALL (    3364 calls)
     cegterg:upda :      2.06s CPU      2.06s WALL (    3364 calls)
     cegterg:last :      3.46s CPU      3.46s WALL (    2404 calls)
     h_psi        :     71.00s CPU     71.86s WALL (    4839 calls)
     s_psi        :      6.42s CPU      6.43s WALL (    4839 calls)
     g_psi        :      0.21s CPU      0.21s WALL (    3364 calls)

     Called by h_psi:
     h_psi:calbec :      7.07s CPU      7.12s WALL (    4839 calls)
     vloc_psi     :     56.81s CPU     57.58s WALL (    4839 calls)
     add_vuspsi   :      6.46s CPU      6.49s WALL (    4839 calls)

     General routines
     calbec       :     11.38s CPU     11.45s WALL (    7258 calls)
     fft          :      0.08s CPU      0.09s WALL (     290 calls)
     ffts         :      0.01s CPU      0.01s WALL (      24 calls)
     fftw         :     58.72s CPU     59.59s WALL (  428138 calls)
 
     Parallel routines

     PAW routines
     PAW_pot      :      4.61s CPU      4.67s WALL (      24 calls)
     PAW_symme    :      0.00s CPU      0.00s WALL (      48 calls)
 
     PWSCF        :   2m12.36s CPU   2m13.98s WALL

 
   This run was terminated on:  10:30:30  16Jun2026            

=------------------------------------------------------------------------------=
   JOB DONE.
=------------------------------------------------------------------------------=

===== TIMING =====
Job:           atom01_y_plus
Start:         2026-06-16T10:28:16+02:00
End:           2026-06-16T10:30:30+02:00
Duration (s):  134
Duration (H:M:S): 00:02:14
==================
