
     Program PWSCF v.7.4 starts on 15Jun2026 at 23:14:52 

     This program is part of the open-source Quantum ESPRESSO suite
     for quantum simulation of materials; please cite
         "P. Giannozzi et al., J. Phys.:Condens. Matter 21 395502 (2009);
         "P. Giannozzi et al., J. Phys.:Condens. Matter 29 465901 (2017);
         "P. Giannozzi et al., J. Chem. Phys. 152 154105 (2020);
          URL http://www.quantum-espresso.org", 
     in publications or presentations arising from this work. More details at
     http://www.quantum-espresso.org/quote

     Parallel version (MPI), running on    12 processors

     MPI processes distributed on     1 nodes
     32831 MiB available memory on the printing compute node when the environment starts
 
     Reading input from ./scratch_runs/atom01_x_plus/atom01_x_plus.in

     Current dimensions of program PWSCF are:
     Max number of different atomic species (ntypx) = 10
     Max number of k-points (npk) =  40000
     Max angular momentum in pseudopotentials (lmaxx) =  4
read_pp_mesh; mismatch in mesh size, discarding the one in header
     Message from routine setup:
     using ibrav=0 with symmetry is DISCOURAGED, use correct ibrav instead
 
     R & G space division:  proc/nbgrp/npool/nimage =      12
     Subspace diagonalization in iterative solution of the eigenvalue problem:
     a serial algorithm will be used

 
     Parallelization info
     --------------------
     sticks:   dense  smooth     PW     G-vecs:    dense   smooth      PW
     Min         134     134     38                 3550     3550     551
     Max         135     135     39                 3553     3553     552
     Sum        1615    1615    463                42615    42615    6615
 
     Using Slab Decomposition
 


     bravais-lattice index     =            0
     lattice parameter (alat)  =      10.7909  a.u.
     unit-cell volume          =     888.5073 (a.u.)^3
     number of atoms/cell      =            8
     number of atomic types    =            1
     number of electrons       =        24.00
     number of Kohn-Sham states=           16
     kinetic-energy cutoff     =      50.0000  Ry
     charge density cutoff     =     200.0000  Ry
     scf convergence threshold =      1.0E-16
     mixing beta               =       0.7000
     number of iterations used =            8  plain     mixing
     Exchange-correlation= SLA PW PBX PBC
                           (   1   4   3   4   0   0   0)

     celldm(1)=  10.790925  celldm(2)=   0.000000  celldm(3)=   0.000000
     celldm(4)=   0.000000  celldm(5)=   0.000000  celldm(6)=   0.000000

     crystal axes: (cart. coord. in units of alat)
               a(1) = (  -0.707107   0.000000   0.707107 )  
               a(2) = (   0.000000   0.707107   0.707107 )  
               a(3) = (  -0.707107   0.707107   0.000000 )  

     reciprocal axes: (cart. coord. in units 2 pi/alat)
               b(1) = ( -0.707107 -0.707107  0.707107 )  
               b(2) = (  0.707107  0.707107  0.707107 )  
               b(3) = ( -0.707107  0.707107 -0.707107 )  


     PseudoPot. # 1 for Al read from file:
     ../../../pseudopotentzialak/Al.upf
     MD5 check sum: fd3ab6bbf4b2322b308692f0f9c61a66
     Pseudo is Projector augmented-wave + core cor, Zval =  3.0
     Generated using ATOMPAW code
     Shape of augmentation charge: SINC**2
     Using radial grid of 2342 points,  4 beta functions with: 
                l(1) =   0
                l(2) =   0
                l(3) =   1
                l(4) =   1
     Q(r) pseudized with 0 coefficients 


     atomic species   valence    mass     pseudopotential
     Al                3.00    26.98150     Al( 1.00)

      8 Sym. Ops. (no inversion) found


                                    s                        frac. trans.

      isym =  1     identity                                     

 cryst.   s( 1) = (     1          0          0      )
                  (     0          1          0      )
                  (     0          0          1      )

 cart.    s( 1) = (  1.0000000  0.0000000  0.0000000 )
                  (  0.0000000  1.0000000  0.0000000 )
                  (  0.0000000  0.0000000  1.0000000 )


      isym =  2     180 deg rotation - cart. axis [1,0,0]        

 cryst.   s( 2) = (     0         -1          1      )
                  (     0         -1          0      )
                  (     1         -1          0      )

 cart.    s( 2) = (  1.0000000  0.0000000  0.0000000 )
                  (  0.0000000 -1.0000000  0.0000000 )
                  (  0.0000000  0.0000000 -1.0000000 )


      isym =  3      90 deg rotation - cart. axis [-1,0,0]       

 cryst.   s( 3) = (     0          0          1      )
                  (    -1          0          1      )
                  (     0         -1          1      )

 cart.    s( 3) = (  1.0000000  0.0000000  0.0000000 )
                  (  0.0000000  0.0000000  1.0000000 )
                  (  0.0000000 -1.0000000  0.0000000 )


      isym =  4      90 deg rotation - cart. axis [1,0,0]        

 cryst.   s( 4) = (     1         -1          0      )
                  (     1          0         -1      )
                  (     1          0          0      )

 cart.    s( 4) = (  1.0000000  0.0000000  0.0000000 )
                  (  0.0000000  0.0000000 -1.0000000 )
                  (  0.0000000  1.0000000  0.0000000 )


      isym =  5     inv. 180 deg rotation - cart. axis [0,0,1]   

 cryst.   s( 5) = (     0         -1          1      )
                  (    -1          0          1      )
                  (     0          0          1      )

 cart.    s( 5) = (  1.0000000  0.0000000  0.0000000 )
                  (  0.0000000  1.0000000  0.0000000 )
                  (  0.0000000  0.0000000 -1.0000000 )


      isym =  6     inv. 180 deg rotation - cart. axis [0,1,0]   

 cryst.   s( 6) = (     1          0          0      )
                  (     1          0         -1      )
                  (     1         -1          0      )

 cart.    s( 6) = (  1.0000000  0.0000000  0.0000000 )
                  (  0.0000000 -1.0000000  0.0000000 )
                  (  0.0000000  0.0000000  1.0000000 )


      isym =  7     inv. 180 deg rotation - cart. axis [0,1,1]   

 cryst.   s( 7) = (     1         -1          0      )
                  (     0         -1          0      )
                  (     0         -1          1      )

 cart.    s( 7) = (  1.0000000  0.0000000  0.0000000 )
                  (  0.0000000  0.0000000 -1.0000000 )
                  (  0.0000000 -1.0000000  0.0000000 )


      isym =  8     inv. 180 deg rotation - cart. axis [0,1,-1]  

 cryst.   s( 8) = (     0          0          1      )
                  (     0          1          0      )
                  (     1          0          0      )

 cart.    s( 8) = (  1.0000000  0.0000000  0.0000000 )
                  (  0.0000000  0.0000000  1.0000000 )
                  (  0.0000000  1.0000000  0.0000000 )


   Cartesian axes

     site n.     atom                  positions (alat units)
         1        Al     tau(   1) = (   0.0017512   0.0000000   0.0000000  )
         2        Al     tau(   2) = (  -0.3535534   0.0000000   0.3535534  )
         3        Al     tau(   3) = (   0.0000000   0.3535534   0.3535534  )
         4        Al     tau(   4) = (  -0.3535534   0.3535534   0.7071068  )
         5        Al     tau(   5) = (  -0.3535534   0.3535534   0.0000000  )
         6        Al     tau(   6) = (  -0.7071068   0.3535534   0.3535534  )
         7        Al     tau(   7) = (  -0.3535534   0.7071068   0.3535534  )
         8        Al     tau(   8) = (  -0.7071068   0.7071068   0.7071068  )

   Crystallographic axes

     site n.     atom                  positions (cryst. coord.)
         1        Al     tau(   1) = ( -0.0012383  0.0012383 -0.0012383  )
         2        Al     tau(   2) = (  0.5000000  0.0000000  0.0000000  )
         3        Al     tau(   3) = (  0.0000000  0.5000000  0.0000000  )
         4        Al     tau(   4) = (  0.5000000  0.5000000  0.0000000  )
         5        Al     tau(   5) = (  0.0000000  0.0000000  0.5000000  )
         6        Al     tau(   6) = (  0.5000000  0.0000000  0.5000000  )
         7        Al     tau(   7) = (  0.0000000  0.5000000  0.5000000  )
         8        Al     tau(   8) = (  0.5000000  0.5000000  0.5000000  )

     number of k points=   163  Methfessel-Paxton smearing, width (Ry)=  0.0200
                       cart. coord. in units 2pi/alat
        k(    1) = (   0.0000000   0.0000000   0.0000000), wk =   0.0011574
        k(    2) = (  -0.0589256   0.0589256  -0.0589256), wk =   0.0092593
        k(    3) = (  -0.1178511   0.1178511  -0.1178511), wk =   0.0092593
        k(    4) = (  -0.1767767   0.1767767  -0.1767767), wk =   0.0092593
        k(    5) = (  -0.2357023   0.2357023  -0.2357023), wk =   0.0092593
        k(    6) = (  -0.2946278   0.2946278  -0.2946278), wk =   0.0092593
        k(    7) = (   0.3535534  -0.3535534   0.3535534), wk =   0.0046296
        k(    8) = (   0.0000000   0.1178511   0.0000000), wk =   0.0046296
        k(    9) = (  -0.0589256   0.1767767  -0.0589256), wk =   0.0185185
        k(   10) = (  -0.1178511   0.2357023  -0.1178511), wk =   0.0185185
        k(   11) = (  -0.1767767   0.2946278  -0.1767767), wk =   0.0185185
        k(   12) = (  -0.2357023   0.3535534  -0.2357023), wk =   0.0185185
        k(   13) = (   0.4124790  -0.2946278   0.4124790), wk =   0.0185185
        k(   14) = (   0.3535534  -0.2357023   0.3535534), wk =   0.0185185
        k(   15) = (   0.2946278  -0.1767767   0.2946278), wk =   0.0185185
        k(   16) = (   0.2357023  -0.1178511   0.2357023), wk =   0.0185185
        k(   17) = (   0.1767767  -0.0589256   0.1767767), wk =   0.0185185
        k(   18) = (   0.1178511  -0.0000000   0.1178511), wk =   0.0092593
        k(   19) = (   0.0000000   0.2357023   0.0000000), wk =   0.0046296
        k(   20) = (  -0.0589256   0.2946278  -0.0589256), wk =   0.0185185
        k(   21) = (  -0.1178511   0.3535534  -0.1178511), wk =   0.0185185
        k(   22) = (  -0.1767767   0.4124790  -0.1767767), wk =   0.0185185
        k(   23) = (   0.4714045  -0.2357023   0.4714045), wk =   0.0185185
        k(   24) = (   0.4124790  -0.1767767   0.4124790), wk =   0.0185185
        k(   25) = (   0.3535534  -0.1178511   0.3535534), wk =   0.0185185
        k(   26) = (   0.2946278  -0.0589256   0.2946278), wk =   0.0185185
        k(   27) = (   0.2357023  -0.0000000   0.2357023), wk =   0.0092593
        k(   28) = (   0.0000000   0.3535534   0.0000000), wk =   0.0046296
        k(   29) = (  -0.0589256   0.4124790  -0.0589256), wk =   0.0185185
        k(   30) = (  -0.1178511   0.4714045  -0.1178511), wk =   0.0185185
        k(   31) = (   0.5303301  -0.1767767   0.5303301), wk =   0.0185185
        k(   32) = (   0.4714045  -0.1178511   0.4714045), wk =   0.0185185
        k(   33) = (   0.4124790  -0.0589256   0.4124790), wk =   0.0185185
        k(   34) = (   0.3535534   0.0000000   0.3535534), wk =   0.0092593
        k(   35) = (   0.0000000   0.4714045   0.0000000), wk =   0.0046296
        k(   36) = (  -0.0589256   0.5303301  -0.0589256), wk =   0.0185185
        k(   37) = (   0.5892557  -0.1178511   0.5892557), wk =   0.0185185
        k(   38) = (   0.5303301  -0.0589256   0.5303301), wk =   0.0185185
        k(   39) = (   0.4714045  -0.0000000   0.4714045), wk =   0.0092593
        k(   40) = (   0.0000000   0.5892557   0.0000000), wk =   0.0046296
        k(   41) = (   0.6481812  -0.0589256   0.6481812), wk =   0.0185185
        k(   42) = (   0.5892557  -0.0000000   0.5892557), wk =   0.0092593
        k(   43) = (   0.0000000  -0.7071068   0.0000000), wk =   0.0023148
        k(   44) = (  -0.1178511   0.2357023   0.0000000), wk =   0.0092593
        k(   45) = (  -0.1767767   0.2946278  -0.0589256), wk =   0.0185185
        k(   46) = (  -0.2357023   0.3535534  -0.1178511), wk =   0.0185185
        k(   47) = (   0.4124790  -0.2946278   0.5303301), wk =   0.0185185
        k(   48) = (   0.3535534  -0.2357023   0.4714045), wk =   0.0092593
        k(   49) = (  -0.1178511   0.3535534   0.0000000), wk =   0.0092593
        k(   50) = (  -0.1767767   0.4124790  -0.0589256), wk =   0.0185185
        k(   51) = (   0.4714045  -0.2357023   0.5892557), wk =   0.0185185
        k(   52) = (   0.4124790  -0.1767767   0.5303301), wk =   0.0185185
        k(   53) = (   0.3535534  -0.1178511   0.4714045), wk =   0.0185185
        k(   54) = (   0.2946278  -0.0589256   0.4124790), wk =   0.0185185
        k(   55) = (   0.2357023  -0.0000000   0.3535534), wk =   0.0092593
        k(   56) = (  -0.1178511   0.4714045   0.0000000), wk =   0.0092593
        k(   57) = (   0.5303301  -0.1767767   0.6481812), wk =   0.0185185
        k(   58) = (   0.4714045  -0.1178511   0.5892557), wk =   0.0185185
        k(   59) = (   0.4124790  -0.0589256   0.5303301), wk =   0.0185185
        k(   60) = (   0.3535534   0.0000000   0.4714045), wk =   0.0092593
        k(   61) = (   0.5892557  -0.1178511   0.7071068), wk =   0.0092593
        k(   62) = (   0.5303301  -0.0589256   0.6481812), wk =   0.0185185
        k(   63) = (   0.4714045  -0.0000000   0.5892557), wk =   0.0092593
        k(   64) = (  -0.1178511  -0.7071068   0.0000000), wk =   0.0046296
        k(   65) = (   0.4714045  -0.2357023   0.7071068), wk =   0.0092593
        k(   66) = (   0.4124790  -0.1767767   0.6481812), wk =   0.0185185
        k(   67) = (   0.3535534  -0.1178511   0.5892557), wk =   0.0092593
        k(   68) = (   0.4714045  -0.1178511   0.7071068), wk =   0.0092593
        k(   69) = (   0.4124790  -0.0589256   0.6481812), wk =   0.0185185
        k(   70) = (   0.3535534   0.0000000   0.5892557), wk =   0.0092593
        k(   71) = (  -0.2357023  -0.7071068   0.0000000), wk =   0.0046296
        k(   72) = (  -0.3535534  -0.7071068   0.0000000), wk =   0.0023148
        k(   73) = (   0.1178511   0.0000000   0.0000000), wk =   0.0023148
        k(   74) = (   0.1767767  -0.0589256  -0.0589256), wk =   0.0092593
        k(   75) = (   0.2357023  -0.1178511  -0.1178511), wk =   0.0092593
        k(   76) = (   0.2946278  -0.1767767  -0.1767767), wk =   0.0092593
        k(   77) = (   0.3535534  -0.2357023  -0.2357023), wk =   0.0092593
        k(   78) = (  -0.2946278   0.4124790   0.4124790), wk =   0.0092593
        k(   79) = (  -0.2357023   0.3535534   0.3535534), wk =   0.0092593
        k(   80) = (  -0.1767767   0.2946278   0.2946278), wk =   0.0092593
        k(   81) = (  -0.1178511   0.2357023   0.2357023), wk =   0.0092593
        k(   82) = (  -0.0589256   0.1767767   0.1767767), wk =   0.0092593
        k(   83) = (  -0.0000000   0.1178511   0.1178511), wk =   0.0046296
        k(   84) = (   0.2357023   0.0000000   0.0000000), wk =   0.0023148
        k(   85) = (   0.2946278  -0.0589256  -0.0589256), wk =   0.0092593
        k(   86) = (   0.3535534  -0.1178511  -0.1178511), wk =   0.0092593
        k(   87) = (   0.4124790  -0.1767767  -0.1767767), wk =   0.0092593
        k(   88) = (  -0.2357023   0.4714045   0.4714045), wk =   0.0092593
        k(   89) = (  -0.1767767   0.4124790   0.4124790), wk =   0.0092593
        k(   90) = (  -0.1178511   0.3535534   0.3535534), wk =   0.0092593
        k(   91) = (  -0.0589256   0.2946278   0.2946278), wk =   0.0092593
        k(   92) = (  -0.0000000   0.2357023   0.2357023), wk =   0.0046296
        k(   93) = (   0.3535534   0.0000000   0.0000000), wk =   0.0023148
        k(   94) = (   0.4124790  -0.0589256  -0.0589256), wk =   0.0092593
        k(   95) = (   0.4714045  -0.1178511  -0.1178511), wk =   0.0092593
        k(   96) = (  -0.1767767   0.5303301   0.5303301), wk =   0.0092593
        k(   97) = (  -0.1178511   0.4714045   0.4714045), wk =   0.0092593
        k(   98) = (  -0.0589256   0.4124790   0.4124790), wk =   0.0092593
        k(   99) = (   0.0000000   0.3535534   0.3535534), wk =   0.0046296
        k(  100) = (   0.4714045   0.0000000   0.0000000), wk =   0.0023148
        k(  101) = (   0.5303301  -0.0589256  -0.0589256), wk =   0.0092593
        k(  102) = (  -0.1178511   0.5892557   0.5892557), wk =   0.0092593
        k(  103) = (  -0.0589256   0.5303301   0.5303301), wk =   0.0092593
        k(  104) = (   0.0000000   0.4714045   0.4714045), wk =   0.0046296
        k(  105) = (   0.5892557   0.0000000   0.0000000), wk =   0.0023148
        k(  106) = (  -0.0589256   0.6481812   0.6481812), wk =   0.0092593
        k(  107) = (   0.0000000   0.5892557   0.5892557), wk =   0.0046296
        k(  108) = (  -0.7071068   0.0000000   0.0000000), wk =   0.0011574
        k(  109) = (   0.0000000  -0.2357023  -0.1178511), wk =   0.0092593
        k(  110) = (   0.2357023   0.0000000  -0.1178511), wk =   0.0092593
        k(  111) = (  -0.0589256  -0.2946278  -0.1767767), wk =   0.0185185
        k(  112) = (   0.2946278  -0.0589256  -0.1767767), wk =   0.0185185
        k(  113) = (  -0.1178511  -0.3535534  -0.2357023), wk =   0.0185185
        k(  114) = (   0.3535534  -0.1178511  -0.2357023), wk =   0.0185185
        k(  115) = (   0.5303301   0.2946278   0.4124790), wk =   0.0185185
        k(  116) = (  -0.2946278   0.5303301   0.4124790), wk =   0.0185185
        k(  117) = (   0.4714045   0.2357023   0.3535534), wk =   0.0185185
        k(  118) = (   0.0000000  -0.3535534  -0.1178511), wk =   0.0092593
        k(  119) = (   0.3535534   0.0000000  -0.1178511), wk =   0.0092593
        k(  120) = (  -0.0589256  -0.4124790  -0.1767767), wk =   0.0185185
        k(  121) = (   0.4124790  -0.0589256  -0.1767767), wk =   0.0185185
        k(  122) = (   0.5892557   0.2357023   0.4714045), wk =   0.0185185
        k(  123) = (  -0.2357023   0.5892557   0.4714045), wk =   0.0185185
        k(  124) = (   0.5303301   0.1767767   0.4124790), wk =   0.0185185
        k(  125) = (  -0.1767767   0.5303301   0.4124790), wk =   0.0185185
        k(  126) = (   0.4714045   0.1178511   0.3535534), wk =   0.0185185
        k(  127) = (  -0.1178511   0.4714045   0.3535534), wk =   0.0185185
        k(  128) = (   0.4124790   0.0589256   0.2946278), wk =   0.0185185
        k(  129) = (  -0.0589256   0.4124790   0.2946278), wk =   0.0185185
        k(  130) = (   0.3535534   0.0000000   0.2357023), wk =   0.0092593
        k(  131) = (  -0.0000000   0.3535534   0.2357023), wk =   0.0092593
        k(  132) = (   0.0000000  -0.4714045  -0.1178511), wk =   0.0092593
        k(  133) = (   0.4714045   0.0000000  -0.1178511), wk =   0.0092593
        k(  134) = (   0.6481812   0.1767767   0.5303301), wk =   0.0185185
        k(  135) = (  -0.1767767   0.6481812   0.5303301), wk =   0.0185185
        k(  136) = (   0.5892557   0.1178511   0.4714045), wk =   0.0185185
        k(  137) = (  -0.1178511   0.5892557   0.4714045), wk =   0.0185185
        k(  138) = (   0.5303301   0.0589256   0.4124790), wk =   0.0185185
        k(  139) = (  -0.0589256   0.5303301   0.4124790), wk =   0.0185185
        k(  140) = (   0.4714045   0.0000000   0.3535534), wk =   0.0092593
        k(  141) = (  -0.0000000   0.4714045   0.3535534), wk =   0.0092593
        k(  142) = (   0.7071068   0.1178511   0.5892557), wk =   0.0092593
        k(  143) = (  -0.1178511   0.7071068   0.5892557), wk =   0.0092593
        k(  144) = (   0.6481812   0.0589256   0.5303301), wk =   0.0185185
        k(  145) = (  -0.0589256   0.6481812   0.5303301), wk =   0.0185185
        k(  146) = (   0.5892557  -0.0000000   0.4714045), wk =   0.0092593
        k(  147) = (  -0.0000000   0.5892557   0.4714045), wk =   0.0092593
        k(  148) = (   0.0000000   0.7071068  -0.1178511), wk =   0.0046296
        k(  149) = (  -0.7071068   0.0000000  -0.1178511), wk =   0.0046296
        k(  150) = (   0.7071068   0.2357023   0.4714045), wk =   0.0092593
        k(  151) = (  -0.2357023   0.7071068   0.4714045), wk =   0.0092593
        k(  152) = (   0.6481812   0.1767767   0.4124790), wk =   0.0185185
        k(  153) = (  -0.1767767   0.6481812   0.4124790), wk =   0.0185185
        k(  154) = (   0.5892557   0.1178511   0.3535534), wk =   0.0185185
        k(  155) = (   0.7071068   0.1178511   0.4714045), wk =   0.0092593
        k(  156) = (  -0.1178511   0.7071068   0.4714045), wk =   0.0092593
        k(  157) = (   0.6481812   0.0589256   0.4124790), wk =   0.0185185
        k(  158) = (  -0.0589256   0.6481812   0.4124790), wk =   0.0185185
        k(  159) = (   0.5892557   0.0000000   0.3535534), wk =   0.0092593
        k(  160) = (   0.0000000   0.5892557   0.3535534), wk =   0.0092593
        k(  161) = (   0.0000000   0.7071068  -0.2357023), wk =   0.0046296
        k(  162) = (  -0.7071068   0.0000000  -0.2357023), wk =   0.0046296
        k(  163) = (   0.0000000   0.7071068  -0.3535534), wk =   0.0046296

                       cryst. coord.
        k(    1) = (   0.0000000   0.0000000   0.0000000), wk =   0.0011574
        k(    2) = (   0.0000000   0.0000000   0.0833333), wk =   0.0092593
        k(    3) = (   0.0000000   0.0000000   0.1666667), wk =   0.0092593
        k(    4) = (   0.0000000   0.0000000   0.2500000), wk =   0.0092593
        k(    5) = (   0.0000000   0.0000000   0.3333333), wk =   0.0092593
        k(    6) = (   0.0000000   0.0000000   0.4166667), wk =   0.0092593
        k(    7) = (   0.0000000   0.0000000  -0.5000000), wk =   0.0046296
        k(    8) = (   0.0000000   0.0833333   0.0833333), wk =   0.0046296
        k(    9) = (   0.0000000   0.0833333   0.1666667), wk =   0.0185185
        k(   10) = (   0.0000000   0.0833333   0.2500000), wk =   0.0185185
        k(   11) = (   0.0000000   0.0833333   0.3333333), wk =   0.0185185
        k(   12) = (   0.0000000   0.0833333   0.4166667), wk =   0.0185185
        k(   13) = (   0.0000000   0.0833333  -0.5000000), wk =   0.0185185
        k(   14) = (   0.0000000   0.0833333  -0.4166667), wk =   0.0185185
        k(   15) = (   0.0000000   0.0833333  -0.3333333), wk =   0.0185185
        k(   16) = (   0.0000000   0.0833333  -0.2500000), wk =   0.0185185
        k(   17) = (   0.0000000   0.0833333  -0.1666667), wk =   0.0185185
        k(   18) = (   0.0000000   0.0833333  -0.0833333), wk =   0.0092593
        k(   19) = (   0.0000000   0.1666667   0.1666667), wk =   0.0046296
        k(   20) = (   0.0000000   0.1666667   0.2500000), wk =   0.0185185
        k(   21) = (   0.0000000   0.1666667   0.3333333), wk =   0.0185185
        k(   22) = (   0.0000000   0.1666667   0.4166667), wk =   0.0185185
        k(   23) = (   0.0000000   0.1666667  -0.5000000), wk =   0.0185185
        k(   24) = (   0.0000000   0.1666667  -0.4166667), wk =   0.0185185
        k(   25) = (   0.0000000   0.1666667  -0.3333333), wk =   0.0185185
        k(   26) = (   0.0000000   0.1666667  -0.2500000), wk =   0.0185185
        k(   27) = (   0.0000000   0.1666667  -0.1666667), wk =   0.0092593
        k(   28) = (   0.0000000   0.2500000   0.2500000), wk =   0.0046296
        k(   29) = (   0.0000000   0.2500000   0.3333333), wk =   0.0185185
        k(   30) = (   0.0000000   0.2500000   0.4166667), wk =   0.0185185
        k(   31) = (   0.0000000   0.2500000  -0.5000000), wk =   0.0185185
        k(   32) = (   0.0000000   0.2500000  -0.4166667), wk =   0.0185185
        k(   33) = (   0.0000000   0.2500000  -0.3333333), wk =   0.0185185
        k(   34) = (   0.0000000   0.2500000  -0.2500000), wk =   0.0092593
        k(   35) = (   0.0000000   0.3333333   0.3333333), wk =   0.0046296
        k(   36) = (   0.0000000   0.3333333   0.4166667), wk =   0.0185185
        k(   37) = (   0.0000000   0.3333333  -0.5000000), wk =   0.0185185
        k(   38) = (   0.0000000   0.3333333  -0.4166667), wk =   0.0185185
        k(   39) = (   0.0000000   0.3333333  -0.3333333), wk =   0.0092593
        k(   40) = (   0.0000000   0.4166667   0.4166667), wk =   0.0046296
        k(   41) = (   0.0000000   0.4166667  -0.5000000), wk =   0.0185185
        k(   42) = (   0.0000000   0.4166667  -0.4166667), wk =   0.0092593
        k(   43) = (   0.0000000  -0.5000000  -0.5000000), wk =   0.0023148
        k(   44) = (   0.0833333   0.1666667   0.2500000), wk =   0.0092593
        k(   45) = (   0.0833333   0.1666667   0.3333333), wk =   0.0185185
        k(   46) = (   0.0833333   0.1666667   0.4166667), wk =   0.0185185
        k(   47) = (   0.0833333   0.1666667  -0.5000000), wk =   0.0185185
        k(   48) = (   0.0833333   0.1666667  -0.4166667), wk =   0.0092593
        k(   49) = (   0.0833333   0.2500000   0.3333333), wk =   0.0092593
        k(   50) = (   0.0833333   0.2500000   0.4166667), wk =   0.0185185
        k(   51) = (   0.0833333   0.2500000  -0.5000000), wk =   0.0185185
        k(   52) = (   0.0833333   0.2500000  -0.4166667), wk =   0.0185185
        k(   53) = (   0.0833333   0.2500000  -0.3333333), wk =   0.0185185
        k(   54) = (   0.0833333   0.2500000  -0.2500000), wk =   0.0185185
        k(   55) = (   0.0833333   0.2500000  -0.1666667), wk =   0.0092593
        k(   56) = (   0.0833333   0.3333333   0.4166667), wk =   0.0092593
        k(   57) = (   0.0833333   0.3333333  -0.5000000), wk =   0.0185185
        k(   58) = (   0.0833333   0.3333333  -0.4166667), wk =   0.0185185
        k(   59) = (   0.0833333   0.3333333  -0.3333333), wk =   0.0185185
        k(   60) = (   0.0833333   0.3333333  -0.2500000), wk =   0.0092593
        k(   61) = (   0.0833333   0.4166667  -0.5000000), wk =   0.0092593
        k(   62) = (   0.0833333   0.4166667  -0.4166667), wk =   0.0185185
        k(   63) = (   0.0833333   0.4166667  -0.3333333), wk =   0.0092593
        k(   64) = (   0.0833333  -0.5000000  -0.4166667), wk =   0.0046296
        k(   65) = (   0.1666667   0.3333333  -0.5000000), wk =   0.0092593
        k(   66) = (   0.1666667   0.3333333  -0.4166667), wk =   0.0185185
        k(   67) = (   0.1666667   0.3333333  -0.3333333), wk =   0.0092593
        k(   68) = (   0.1666667   0.4166667  -0.4166667), wk =   0.0092593
        k(   69) = (   0.1666667   0.4166667  -0.3333333), wk =   0.0185185
        k(   70) = (   0.1666667   0.4166667  -0.2500000), wk =   0.0092593
        k(   71) = (   0.1666667  -0.5000000  -0.3333333), wk =   0.0046296
        k(   72) = (   0.2500000  -0.5000000  -0.2500000), wk =   0.0023148
        k(   73) = (  -0.0833333   0.0000000  -0.0833333), wk =   0.0023148
        k(   74) = (  -0.1666667  -0.0833333  -0.1666667), wk =   0.0092593
        k(   75) = (  -0.2500000  -0.1666667  -0.2500000), wk =   0.0092593
        k(   76) = (  -0.3333333  -0.2500000  -0.3333333), wk =   0.0092593
        k(   77) = (  -0.4166667  -0.3333333  -0.4166667), wk =   0.0092593
        k(   78) = (   0.5000000   0.5833333   0.5000000), wk =   0.0092593
        k(   79) = (   0.4166667   0.5000000   0.4166667), wk =   0.0092593
        k(   80) = (   0.3333333   0.4166667   0.3333333), wk =   0.0092593
        k(   81) = (   0.2500000   0.3333333   0.2500000), wk =   0.0092593
        k(   82) = (   0.1666667   0.2500000   0.1666667), wk =   0.0092593
        k(   83) = (   0.0833333   0.1666667   0.0833333), wk =   0.0046296
        k(   84) = (  -0.1666667   0.0000000  -0.1666667), wk =   0.0023148
        k(   85) = (  -0.2500000  -0.0833333  -0.2500000), wk =   0.0092593
        k(   86) = (  -0.3333333  -0.1666667  -0.3333333), wk =   0.0092593
        k(   87) = (  -0.4166667  -0.2500000  -0.4166667), wk =   0.0092593
        k(   88) = (   0.5000000   0.6666667   0.5000000), wk =   0.0092593
        k(   89) = (   0.4166667   0.5833333   0.4166667), wk =   0.0092593
        k(   90) = (   0.3333333   0.5000000   0.3333333), wk =   0.0092593
        k(   91) = (   0.2500000   0.4166667   0.2500000), wk =   0.0092593
        k(   92) = (   0.1666667   0.3333333   0.1666667), wk =   0.0046296
        k(   93) = (  -0.2500000   0.0000000  -0.2500000), wk =   0.0023148
        k(   94) = (  -0.3333333  -0.0833333  -0.3333333), wk =   0.0092593
        k(   95) = (  -0.4166667  -0.1666667  -0.4166667), wk =   0.0092593
        k(   96) = (   0.5000000   0.7500000   0.5000000), wk =   0.0092593
        k(   97) = (   0.4166667   0.6666667   0.4166667), wk =   0.0092593
        k(   98) = (   0.3333333   0.5833333   0.3333333), wk =   0.0092593
        k(   99) = (   0.2500000   0.5000000   0.2500000), wk =   0.0046296
        k(  100) = (  -0.3333333   0.0000000  -0.3333333), wk =   0.0023148
        k(  101) = (  -0.4166667  -0.0833333  -0.4166667), wk =   0.0092593
        k(  102) = (   0.5000000   0.8333333   0.5000000), wk =   0.0092593
        k(  103) = (   0.4166667   0.7500000   0.4166667), wk =   0.0092593
        k(  104) = (   0.3333333   0.6666667   0.3333333), wk =   0.0046296
        k(  105) = (  -0.4166667   0.0000000  -0.4166667), wk =   0.0023148
        k(  106) = (   0.5000000   0.9166667   0.5000000), wk =   0.0092593
        k(  107) = (   0.4166667   0.8333333   0.4166667), wk =   0.0046296
        k(  108) = (   0.5000000   0.0000000   0.5000000), wk =   0.0011574
        k(  109) = (  -0.0833333  -0.2500000  -0.1666667), wk =   0.0092593
        k(  110) = (  -0.2500000  -0.0833333  -0.1666667), wk =   0.0092593
        k(  111) = (  -0.0833333  -0.3333333  -0.1666667), wk =   0.0185185
        k(  112) = (  -0.3333333  -0.1666667  -0.2500000), wk =   0.0185185
        k(  113) = (  -0.0833333  -0.4166667  -0.1666667), wk =   0.0185185
        k(  114) = (  -0.4166667  -0.2500000  -0.3333333), wk =   0.0185185
        k(  115) = (  -0.0833333   0.5000000  -0.1666667), wk =   0.0185185
        k(  116) = (   0.5000000   0.6666667   0.5833333), wk =   0.0185185
        k(  117) = (  -0.0833333   0.4166667  -0.1666667), wk =   0.0185185
        k(  118) = (  -0.0833333  -0.3333333  -0.2500000), wk =   0.0092593
        k(  119) = (  -0.3333333  -0.0833333  -0.2500000), wk =   0.0092593
        k(  120) = (  -0.0833333  -0.4166667  -0.2500000), wk =   0.0185185
        k(  121) = (  -0.4166667  -0.1666667  -0.3333333), wk =   0.0185185
        k(  122) = (  -0.0833333   0.5000000  -0.2500000), wk =   0.0185185
        k(  123) = (   0.5000000   0.7500000   0.5833333), wk =   0.0185185
        k(  124) = (  -0.0833333   0.4166667  -0.2500000), wk =   0.0185185
        k(  125) = (   0.4166667   0.6666667   0.5000000), wk =   0.0185185
        k(  126) = (  -0.0833333   0.3333333  -0.2500000), wk =   0.0185185
        k(  127) = (   0.3333333   0.5833333   0.4166667), wk =   0.0185185
        k(  128) = (  -0.0833333   0.2500000  -0.2500000), wk =   0.0185185
        k(  129) = (   0.2500000   0.5000000   0.3333333), wk =   0.0185185
        k(  130) = (  -0.0833333   0.1666667  -0.2500000), wk =   0.0092593
        k(  131) = (   0.1666667   0.4166667   0.2500000), wk =   0.0092593
        k(  132) = (  -0.0833333  -0.4166667  -0.3333333), wk =   0.0092593
        k(  133) = (  -0.4166667  -0.0833333  -0.3333333), wk =   0.0092593
        k(  134) = (  -0.0833333   0.5000000  -0.3333333), wk =   0.0185185
        k(  135) = (   0.5000000   0.8333333   0.5833333), wk =   0.0185185
        k(  136) = (  -0.0833333   0.4166667  -0.3333333), wk =   0.0185185
        k(  137) = (   0.4166667   0.7500000   0.5000000), wk =   0.0185185
        k(  138) = (  -0.0833333   0.3333333  -0.3333333), wk =   0.0185185
        k(  139) = (   0.3333333   0.6666667   0.4166667), wk =   0.0185185
        k(  140) = (  -0.0833333   0.2500000  -0.3333333), wk =   0.0092593
        k(  141) = (   0.2500000   0.5833333   0.3333333), wk =   0.0092593
        k(  142) = (  -0.0833333   0.5000000  -0.4166667), wk =   0.0092593
        k(  143) = (   0.5000000   0.9166667   0.5833333), wk =   0.0092593
        k(  144) = (  -0.0833333   0.4166667  -0.4166667), wk =   0.0185185
        k(  145) = (   0.4166667   0.8333333   0.5000000), wk =   0.0185185
        k(  146) = (  -0.0833333   0.3333333  -0.4166667), wk =   0.0092593
        k(  147) = (   0.3333333   0.7500000   0.4166667), wk =   0.0092593
        k(  148) = (  -0.0833333   0.4166667   0.5000000), wk =   0.0046296
        k(  149) = (   0.4166667  -0.0833333   0.5000000), wk =   0.0046296
        k(  150) = (  -0.1666667   0.5000000  -0.3333333), wk =   0.0092593
        k(  151) = (   0.5000000   0.8333333   0.6666667), wk =   0.0092593
        k(  152) = (  -0.1666667   0.4166667  -0.3333333), wk =   0.0185185
        k(  153) = (   0.4166667   0.7500000   0.5833333), wk =   0.0185185
        k(  154) = (  -0.1666667   0.3333333  -0.3333333), wk =   0.0185185
        k(  155) = (  -0.1666667   0.4166667  -0.4166667), wk =   0.0092593
        k(  156) = (   0.4166667   0.8333333   0.5833333), wk =   0.0092593
        k(  157) = (  -0.1666667   0.3333333  -0.4166667), wk =   0.0185185
        k(  158) = (   0.3333333   0.7500000   0.5000000), wk =   0.0185185
        k(  159) = (  -0.1666667   0.2500000  -0.4166667), wk =   0.0092593
        k(  160) = (   0.2500000   0.6666667   0.4166667), wk =   0.0092593
        k(  161) = (  -0.1666667   0.3333333   0.5000000), wk =   0.0046296
        k(  162) = (   0.3333333  -0.1666667   0.5000000), wk =   0.0046296
        k(  163) = (  -0.2500000   0.2500000   0.5000000), wk =   0.0046296

     Dense  grid:    42615 G-vectors     FFT dimensions: (  50,  50,  50)

     Dynamical RAM for                 wfc:       0.11 MB

     Dynamical RAM for     wfc (w. buffer):      17.70 MB

     Dynamical RAM for           str. fact:       0.05 MB

     Dynamical RAM for           local pot:       0.00 MB

     Dynamical RAM for          nlocal pot:       0.43 MB

     Dynamical RAM for                qrad:       0.32 MB

     Dynamical RAM for          rho,v,vnew:       0.45 MB

     Dynamical RAM for               rhoin:       0.15 MB

     Dynamical RAM for            rho*nmix:       0.87 MB

     Dynamical RAM for           G-vectors:       0.23 MB

     Dynamical RAM for          h,s,v(r/c):       0.05 MB

     Dynamical RAM for          <psi|beta>:       0.02 MB

     Dynamical RAM for                 psi:       0.22 MB

     Dynamical RAM for                hpsi:       0.22 MB

     Dynamical RAM for                spsi:       0.22 MB

     Dynamical RAM for      wfcinit/wfcrot:       0.22 MB

     Dynamical RAM for           addusdens:       2.76 MB

     Dynamical RAM for          addusforce:       3.56 MB

     Dynamical RAM for         addusstress:       2.71 MB

     Estimated static dynamical RAM per process >      19.92 MB

     Estimated max dynamical RAM per process >      24.35 MB

     Estimated total dynamical RAM >     292.16 MB

     Initial potential from superposition of free atoms

     starting charge      23.9800, renormalised to      24.0000

     negative rho (up, down):  5.434E-03 0.000E+00
     Starting wfcs are   64 randomized atomic wfcs
     Checking if some PAW data can be deallocated... 

     total cpu time spent up to now is        2.2 secs

     per-process dynamical memory:    66.4 Mb

     Self-consistent Calculation

     iteration #  1     ecut=    50.00 Ry     beta= 0.70
     Davidson diagonalization with overlap

---- Real-time Memory Report at c_bands before calling an iterative solver
           125 MiB given to the printing process from OS
            64 MiB allocation reported by mallinfo(arena+hblkhd)
         32478 MiB available memory on the node where the printing process lives
------------------
     ethr =  1.00E-02,  avg # of iterations =  2.6

     Threshold (ethr) on eigenvalues was too large:
     Diagonalizing with lowered threshold

     Davidson diagonalization with overlap

---- Real-time Memory Report at c_bands before calling an iterative solver
           131 MiB given to the printing process from OS
            66 MiB allocation reported by mallinfo(arena+hblkhd)
         32478 MiB available memory on the node where the printing process lives
------------------
     ethr =  1.65E-04,  avg # of iterations =  3.7

     negative rho (up, down):  6.134E-03 0.000E+00

     total cpu time spent up to now is        5.5 secs

     total energy              =    -316.05635643 Ry
     estimated scf accuracy    <       0.04054428 Ry

     iteration #  2     ecut=    50.00 Ry     beta= 0.70
     Davidson diagonalization with overlap

---- Real-time Memory Report at c_bands before calling an iterative solver
           141 MiB given to the printing process from OS
            66 MiB allocation reported by mallinfo(arena+hblkhd)
         32357 MiB available memory on the node where the printing process lives
------------------
     ethr =  1.69E-04,  avg # of iterations =  1.0

     negative rho (up, down):  6.716E-03 0.000E+00

     total cpu time spent up to now is        6.7 secs

     total energy              =    -316.01322355 Ry
     estimated scf accuracy    <       0.00320494 Ry

     iteration #  3     ecut=    50.00 Ry     beta= 0.70
     Davidson diagonalization with overlap

---- Real-time Memory Report at c_bands before calling an iterative solver
           141 MiB given to the printing process from OS
            67 MiB allocation reported by mallinfo(arena+hblkhd)
         32367 MiB available memory on the node where the printing process lives
------------------
     ethr =  1.34E-05,  avg # of iterations =  4.0

     negative rho (up, down):  6.239E-03 0.000E+00

     total cpu time spent up to now is        8.6 secs

     total energy              =    -316.01473478 Ry
     estimated scf accuracy    <       0.00042987 Ry

     iteration #  4     ecut=    50.00 Ry     beta= 0.70
     Davidson diagonalization with overlap

---- Real-time Memory Report at c_bands before calling an iterative solver
           142 MiB given to the printing process from OS
            67 MiB allocation reported by mallinfo(arena+hblkhd)
         32384 MiB available memory on the node where the printing process lives
------------------
     c_bands:  1 eigenvalues not converged
     ethr =  1.79E-06,  avg # of iterations =  4.1

     negative rho (up, down):  5.561E-03 0.000E+00

     total cpu time spent up to now is       10.4 secs

     total energy              =    -316.01479370 Ry
     estimated scf accuracy    <       0.00005495 Ry

     iteration #  5     ecut=    50.00 Ry     beta= 0.70
     Davidson diagonalization with overlap

---- Real-time Memory Report at c_bands before calling an iterative solver
           142 MiB given to the printing process from OS
            67 MiB allocation reported by mallinfo(arena+hblkhd)
         32376 MiB available memory on the node where the printing process lives
------------------
     ethr =  2.29E-07,  avg # of iterations =  2.4

     negative rho (up, down):  5.596E-03 0.000E+00

     total cpu time spent up to now is       12.1 secs

     total energy              =    -316.01482729 Ry
     estimated scf accuracy    <       0.00001031 Ry

     iteration #  6     ecut=    50.00 Ry     beta= 0.70
     Davidson diagonalization with overlap

---- Real-time Memory Report at c_bands before calling an iterative solver
           142 MiB given to the printing process from OS
            67 MiB allocation reported by mallinfo(arena+hblkhd)
         32424 MiB available memory on the node where the printing process lives
------------------
     ethr =  4.30E-08,  avg # of iterations =  2.5

     negative rho (up, down):  5.577E-03 0.000E+00

     total cpu time spent up to now is       13.7 secs

     total energy              =    -316.01483068 Ry
     estimated scf accuracy    <       0.00000079 Ry

     iteration #  7     ecut=    50.00 Ry     beta= 0.70
     Davidson diagonalization with overlap

---- Real-time Memory Report at c_bands before calling an iterative solver
           142 MiB given to the printing process from OS
            67 MiB allocation reported by mallinfo(arena+hblkhd)
         32432 MiB available memory on the node where the printing process lives
------------------
     ethr =  3.28E-09,  avg # of iterations =  2.7

     negative rho (up, down):  5.534E-03 0.000E+00

     total cpu time spent up to now is       15.2 secs

     total energy              =    -316.01483092 Ry
     estimated scf accuracy    <       0.00000008 Ry

     iteration #  8     ecut=    50.00 Ry     beta= 0.70
     Davidson diagonalization with overlap

---- Real-time Memory Report at c_bands before calling an iterative solver
           142 MiB given to the printing process from OS
            67 MiB allocation reported by mallinfo(arena+hblkhd)
         32464 MiB available memory on the node where the printing process lives
------------------
     ethr =  3.36E-10,  avg # of iterations =  2.7

     negative rho (up, down):  5.536E-03 0.000E+00

     total cpu time spent up to now is       16.7 secs

     total energy              =    -316.01483093 Ry
     estimated scf accuracy    <          2.9E-09 Ry

     iteration #  9     ecut=    50.00 Ry     beta= 0.70
     Davidson diagonalization with overlap

---- Real-time Memory Report at c_bands before calling an iterative solver
           143 MiB given to the printing process from OS
            67 MiB allocation reported by mallinfo(arena+hblkhd)
         32459 MiB available memory on the node where the printing process lives
------------------
     ethr =  1.19E-11,  avg # of iterations =  3.5

     negative rho (up, down):  5.537E-03 0.000E+00

     total cpu time spent up to now is       18.4 secs

     total energy              =    -316.01483093 Ry
     estimated scf accuracy    <          5.6E-10 Ry

     iteration # 10     ecut=    50.00 Ry     beta= 0.70
     Davidson diagonalization with overlap

---- Real-time Memory Report at c_bands before calling an iterative solver
           143 MiB given to the printing process from OS
            67 MiB allocation reported by mallinfo(arena+hblkhd)
         32485 MiB available memory on the node where the printing process lives
------------------
     ethr =  2.35E-12,  avg # of iterations =  2.2

     negative rho (up, down):  5.537E-03 0.000E+00

     total cpu time spent up to now is       19.9 secs

     total energy              =    -316.01483093 Ry
     estimated scf accuracy    <          2.0E-11 Ry

     iteration # 11     ecut=    50.00 Ry     beta= 0.70
     Davidson diagonalization with overlap

---- Real-time Memory Report at c_bands before calling an iterative solver
           143 MiB given to the printing process from OS
            67 MiB allocation reported by mallinfo(arena+hblkhd)
         32526 MiB available memory on the node where the printing process lives
------------------
     ethr =  1.00E-13,  avg # of iterations =  2.9

     negative rho (up, down):  5.537E-03 0.000E+00

     total cpu time spent up to now is       21.6 secs

     total energy              =    -316.01483093 Ry
     estimated scf accuracy    <          9.8E-13 Ry

     iteration # 12     ecut=    50.00 Ry     beta= 0.70
     Davidson diagonalization with overlap

---- Real-time Memory Report at c_bands before calling an iterative solver
           143 MiB given to the printing process from OS
            67 MiB allocation reported by mallinfo(arena+hblkhd)
         32560 MiB available memory on the node where the printing process lives
------------------
     ethr =  1.00E-13,  avg # of iterations =  1.0

     negative rho (up, down):  5.537E-03 0.000E+00

     total cpu time spent up to now is       22.8 secs

     total energy              =    -316.01483093 Ry
     estimated scf accuracy    <          7.7E-14 Ry

     iteration # 13     ecut=    50.00 Ry     beta= 0.70
     Davidson diagonalization with overlap

---- Real-time Memory Report at c_bands before calling an iterative solver
           143 MiB given to the printing process from OS
            67 MiB allocation reported by mallinfo(arena+hblkhd)
         32573 MiB available memory on the node where the printing process lives
------------------
     ethr =  1.00E-13,  avg # of iterations =  1.0

     negative rho (up, down):  5.537E-03 0.000E+00

     total cpu time spent up to now is       24.1 secs

     total energy              =    -316.01483093 Ry
     estimated scf accuracy    <          3.9E-15 Ry

     iteration # 14     ecut=    50.00 Ry     beta= 0.70
     Davidson diagonalization with overlap

---- Real-time Memory Report at c_bands before calling an iterative solver
           143 MiB given to the printing process from OS
            67 MiB allocation reported by mallinfo(arena+hblkhd)
         33118 MiB available memory on the node where the printing process lives
------------------
     ethr =  1.00E-13,  avg # of iterations =  1.0

     negative rho (up, down):  5.537E-03 0.000E+00

     total cpu time spent up to now is       25.3 secs

     total energy              =    -316.01483093 Ry
     estimated scf accuracy    <          6.6E-16 Ry

     iteration # 15     ecut=    50.00 Ry     beta= 0.70
     Davidson diagonalization with overlap

---- Real-time Memory Report at c_bands before calling an iterative solver
           143 MiB given to the printing process from OS
            67 MiB allocation reported by mallinfo(arena+hblkhd)
         32868 MiB available memory on the node where the printing process lives
------------------
     ethr =  1.00E-13,  avg # of iterations =  1.0

     negative rho (up, down):  5.537E-03 0.000E+00

     total cpu time spent up to now is       26.5 secs

     End of self-consistent calculation

          k = 0.0000 0.0000 0.0000 (  5209 PWs)   bands (ev):

    -3.1913   3.3562   3.3566   3.3566   3.3567   3.5795   3.5796   3.5796
     3.5800   5.0306   5.0306   5.0306   6.3619   6.3619   6.3620  13.5661

     occupation numbers 
     1.0000   1.0000   1.0000   1.0000   1.0000   1.0000   1.0000   1.0000
     1.0000   1.0000   1.0000   1.0000   1.0000   1.0000   1.0000  -0.0000

          k =-0.0589 0.0589-0.0589 (  5254 PWs)   bands (ev):

    -3.1440   2.4179   3.1310   3.1336   3.1364   3.8890   3.8918   3.8945
     4.6013   4.7557   4.7578   4.7599   6.7192   6.7213   6.7235  12.3448

     occupation numbers 
     1.0000   1.0000   1.0000   1.0000   1.0000   1.0000   1.0000   1.0000
     1.0000   1.0000   1.0000   1.0000   1.0000   1.0000   1.0000  -0.0000

          k =-0.1179 0.1179-0.1179 (  5291 PWs)   bands (ev):

    -3.0023   1.4611   2.9113   2.9140   2.9168   4.2784   4.2808   4.2835
     4.3762   4.3791   4.3818   5.8073   7.4539   7.4566   7.4594  11.2552

     occupation numbers 
     1.0000   1.0000   1.0000   1.0000   1.0000   1.0000   1.0000   1.0000
     1.0000   1.0000   1.0000   1.0000   1.0101   1.0105   1.0108  -0.0000

          k =-0.1768 0.1768-0.1768 (  5297 PWs)   bands (ev):

    -2.7664   0.5886   2.7764   2.7792   2.7820   3.8228   3.8254   3.8282
     4.9556   4.9585   4.9613   7.0945   8.3329   8.3362   8.3394  10.1774

     occupation numbers 
     1.0000   1.0000   1.0000   1.0000   1.0000   1.0000   1.0000   1.0000
     1.0000   1.0000   1.0000   1.0000  -0.0345  -0.0343  -0.0340  -0.0000

          k =-0.2357 0.2357-0.2357 (  5303 PWs)   bands (ev):

    -2.4368  -0.1966   2.7305   2.7333   2.7361   3.4350   3.4377   3.4405
     5.6220   5.6250   5.6279   8.4590   8.9858   8.9908   8.9959   9.4749

     occupation numbers 
     1.0000   1.0000   1.0000   1.0000   1.0000   1.0000   1.0000   1.0000
     1.0000   1.0000   1.0000  -0.0156  -0.0000  -0.0000  -0.0000  -0.0000

          k =-0.2946 0.2946-0.2946 (  5306 PWs)   bands (ev):

    -2.0141  -0.8930   2.7741   2.7769   2.7796   3.1282   3.1308   3.1337
     6.3723   6.3753   6.3783   8.1044   8.1079   8.1113   9.8978  10.4638

     occupation numbers 
     1.0000   1.0000   1.0000   1.0000   1.0000   1.0000   1.0000   1.0000
     1.0000   1.0000   1.0000   0.1487   0.1414   0.1343  -0.0000  -0.0000

          k = 0.3536-0.3536 0.3536 (  5342 PWs)   bands (ev):

    -1.5030  -1.4953   2.9007   2.9057   2.9070   2.9126   2.9139   2.9189
     7.2008   7.2029   7.2039   7.2072   7.2082   7.2103  11.4050  11.4088

     occupation numbers 
     1.0000   1.0000   1.0000   1.0000   1.0000   1.0000   1.0000   1.0000
     1.0002   1.0002   1.0002   1.0002   1.0002   1.0002  -0.0000  -0.0000

          k = 0.0000 0.1179 0.0000 (  5265 PWs)   bands (ev):

    -3.1282   2.7856   2.7896   2.7986   2.8025   4.1625   4.2505   4.2545
     4.2636   4.2676   5.0884   5.0884   6.4228   6.4228   7.3391  12.0451

     occupation numbers 
     1.0000   1.0000   1.0000   1.0000   1.0000   1.0000   1.0000   1.0000
     1.0000   1.0000   1.0000   1.0000   1.0000   1.0000   1.0022  -0.0000

          k =-0.0589 0.1768-0.0589 (  5274 PWs)   bands (ev):

    -3.0180   1.8114   2.5367   2.5407   3.2532   3.5865   4.0119   4.7181
     4.7222   4.8734   4.8763   5.4353   6.8394   6.8425   8.1105  11.1610

     occupation numbers 
     1.0000   1.0000   1.0000   1.0000   1.0000   1.0000   1.0000   1.0000
     1.0000   1.0000   1.0000   1.0000   1.0000   1.0000   0.1360  -0.0000

          k =-0.1179 0.2357-0.1179 (  5293 PWs)   bands (ev):

    -2.8135   0.9107   2.3703   2.3742   3.0772   3.7069   3.9478   4.4569
     4.4606   5.2680   5.2722   6.6952   7.6283   7.6324   8.9846  10.0999

     occupation numbers 
     1.0000   1.0000   1.0000   1.0000   1.0000   1.0000   1.0000   1.0000
     1.0000   1.0000   1.0000   1.0000   1.0350   1.0352  -0.0000  -0.0000

          k =-0.1768 0.2946-0.1768 (  5304 PWs)   bands (ev):

    -2.5152   0.0964   2.2939   2.2979   2.6484   3.7271   4.0621   4.0659
     4.4932   5.9038   5.9080   8.0333   8.5077   8.5139   9.1105   9.1123

     occupation numbers 
     1.0000   1.0000   1.0000   1.0000   1.0000   1.0000   1.0000   1.0000
     1.0000   1.0000   1.0000   0.3301  -0.0094  -0.0088  -0.0000  -0.0000

          k =-0.2357 0.3536-0.2357 (  5308 PWs)   bands (ev):

    -2.1236  -0.6295   2.3014   2.3094   2.3142   3.7339   3.7381   3.7497
     5.2127   6.6231   6.6275   7.9888   7.9937   9.3779   9.4465   9.6796

     occupation numbers 
     1.0000   1.0000   1.0000   1.0000   1.0000   1.0000   1.0000   1.0000
     1.0000   1.0000   1.0000   0.4646   0.4493  -0.0000  -0.0000  -0.0000

          k = 0.4125-0.2946 0.4125 (  5307 PWs)   bands (ev):

    -1.6395  -1.2657   2.0501   2.4122   2.4162   3.4892   3.4931   3.8493
     6.0206   7.0661   7.0705   7.4223   7.4269   8.4673  10.8041  10.8081

     occupation numbers 
     1.0000   1.0000   1.0000   1.0000   1.0000   1.0000   1.0000   1.0000
     1.0000   1.0000   1.0000   1.0070   1.0074  -0.0144  -0.0000  -0.0000

          k = 0.3536-0.2357 0.3536 (  5311 PWs)   bands (ev):

    -1.8111  -1.0637   1.8848   2.6059   2.6098   3.3289   3.3328   4.0354
     6.2086   6.2128   6.9069   7.6202   8.2950   8.2999   9.9650  10.4292

     occupation numbers 
     1.0000   1.0000   1.0000   1.0000   1.0000   1.0000   1.0000   1.0000
     1.0000   1.0000   1.0000   1.0344  -0.0349  -0.0352  -0.0000  -0.0000

          k = 0.2946-0.1768 0.2946 (  5319 PWs)   bands (ev):

    -2.2644  -0.3974   1.8099   2.8879   2.8918   3.2561   3.2600   4.3018
     5.4297   5.4338   6.8493   7.8436   8.8882   8.9679   9.2157   9.2217

     occupation numbers 
     1.0000   1.0000   1.0000   1.0000   1.0000   1.0000   1.0000   1.0000
     1.0000   1.0000   1.0000   0.8654  -0.0000  -0.0000  -0.0000  -0.0000

          k = 0.2357-0.1179 0.2357 (  5312 PWs)   bands (ev):

    -2.6250   0.3581   1.8259   3.2547   3.2586   3.2719   3.2759   4.6360
     4.7348   4.7388   6.1594   7.5790   7.7874   8.9791   9.1406   9.1458

     occupation numbers 
     1.0000   1.0000   1.0000   1.0000   1.0000   1.0000   1.0000   1.0000
     1.0000   1.0000   1.0000   1.0292   0.9593  -0.0000  -0.0000  -0.0000

          k = 0.1768-0.0589 0.1768 (  5287 PWs)   bands (ev):

    -2.8921   1.2014   1.9328   3.3700   3.3738   3.7041   3.7079   4.1307
     4.1345   4.9916   5.5534   6.2665   6.9586   8.2238   8.2282  10.0550

     occupation numbers 
     1.0000   1.0000   1.0000   1.0000   1.0000   1.0000   1.0000   1.0000
     1.0000   1.0000   1.0000   1.0000   1.0000  -0.0124  -0.0150  -0.0000

          k = 0.1179-0.0000 0.1179 (  5274 PWs)   bands (ev):

    -3.0652   2.1303   2.1304   3.4734   3.4735   3.7026   3.7026   4.2201
     4.2237   5.0333   5.0335   5.1462   6.4833   7.3962   7.4001  11.1955

     occupation numbers 
     1.0000   1.0000   1.0000   1.0000   1.0000   1.0000   1.0000   1.0000
     1.0000   1.0000   1.0000   1.0000   1.0000   1.0050   1.0053  -0.0000

          k = 0.0000 0.2357 0.0000 (  5293 PWs)   bands (ev):

    -2.9393   2.2430   2.2470   2.2561   2.2600   2.9569   5.1424   5.1465
     5.1558   5.1598   5.2619   5.2620   6.6045   6.6046   8.8718  10.8277

     occupation numbers 
     1.0000   1.0000   1.0000   1.0000   1.0000   1.0000   1.0000   1.0000
     1.0000   1.0000   1.0000   1.0000   1.0000   1.0000  -0.0000  -0.0000

          k =-0.0589 0.2946-0.0589 (  5301 PWs)   bands (ev):

    -2.7664   1.3235   2.0522   2.0562   2.4065   2.7801   4.9560   5.1072
     5.1101   5.6676   5.6718   6.3822   7.0766   7.0798   9.7255  10.0159

     occupation numbers 
     1.0000   1.0000   1.0000   1.0000   1.0000   1.0000   1.0000   1.0000
     1.0000   1.0000   1.0000   1.0000   1.0000   1.0000  -0.0000  -0.0000

          k =-0.1179 0.3536-0.1179 (  5290 PWs)   bands (ev):

    -2.4995   0.4810   1.9377   1.9468   1.9514   3.3943   4.7523   4.7560
     4.8515   6.2712   6.2755   7.6916   7.9038   7.9086   9.0300   9.0325

     occupation numbers 
     1.0000   1.0000   1.0000   1.0000   1.0000   1.0000   1.0000   1.0000
     1.0000   1.0000   1.0000   1.0296   0.7198   0.7066  -0.0000  -0.0000

          k =-0.1768 0.4125-0.1768 (  5307 PWs)   bands (ev):

    -2.1392  -0.2738   1.5632   1.9297   1.9336   4.0866   4.4189   4.4227
     4.8418   6.9572   6.9617   7.9368   7.9421   8.9911   8.9935   9.0763

     occupation numbers 
     1.0000   1.0000   1.0000   1.0000   1.0000   1.0000   1.0000   1.0000
     1.0000   1.0000   1.0000   0.6246   0.6087  -0.0000  -0.0000  -0.0000

          k = 0.4714-0.2357 0.4714 (  5308 PWs)   bands (ev):

    -1.6862  -0.9395   1.2750   2.0045   2.0084   4.1529   4.1567   4.7531
     5.0273   7.0095   7.0139   7.7214   7.7262   9.7981  10.0682  10.0716

     occupation numbers 
     1.0000   1.0000   1.0000   1.0000   1.0000   1.0000   1.0000   1.0000
     1.0000   1.0000   1.0000   1.0178   1.0152  -0.0000  -0.0000  -0.0000

          k = 0.4125-0.1768 0.4125 (  5310 PWs)   bands (ev):

    -1.5148  -1.1413   1.0774   2.1696   2.1736   3.9670   3.9709   4.9986
     5.7942   6.1297   6.1339   8.5556   8.5608   8.9393   9.5657  11.0381

     occupation numbers 
     1.0000   1.0000   1.0000   1.0000   1.0000   1.0000   1.0000   1.0000
     1.0000   1.0000   1.0000  -0.0052  -0.0049  -0.0000  -0.0000  -0.0000

          k = 0.3536-0.1179 0.3536 (  5315 PWs)   bands (ev):

    -1.9985  -0.5057   0.9710   2.4244   2.4283   3.8651   3.8690   5.2216
     5.3258   5.3298   6.7179   8.1512   8.4658   9.4395   9.4455   9.5579

     occupation numbers 
     1.0000   1.0000   1.0000   1.0000   1.0000   1.0000   1.0000   1.0000
     1.0000   1.0000   1.0000   0.0634  -0.0146  -0.0000  -0.0000  -0.0000

          k = 0.2946-0.0589 0.2946 (  5310 PWs)   bands (ev):

    -2.3897   0.2195   0.9561   2.7672   2.7711   3.8445   3.8483   4.6093
     4.6131   5.4580   7.3276   7.4407   7.9133   8.1475  10.0131  10.0195

     occupation numbers 
     1.0000   1.0000   1.0000   1.0000   1.0000   1.0000   1.0000   1.0000
     1.0000   1.0000   1.0019   1.0087   0.6932   0.0690  -0.0000  -0.0000

          k = 0.2357-0.0000 0.2357 (  5306 PWs)   bands (ev):

    -2.6878   1.0330   1.0330   3.1955   3.1994   3.8235   3.8235   4.0698
     4.0699   5.4926   6.8108   6.8116   6.8367   8.9064   9.0961   9.1008

     occupation numbers 
     1.0000   1.0000   1.0000   1.0000   1.0000   1.0000   1.0000   1.0000
     1.0000   1.0000   1.0000   1.0000   1.0000  -0.0000  -0.0000  -0.0000

          k = 0.0000 0.3536 0.0000 (  5321 PWs)   bands (ev):

    -2.6250   1.8124   1.8218   1.8229   1.8309   1.8368   5.5504   5.5504
     6.1466   6.1509   6.1602   6.1644   6.9038   6.9039   9.7241   9.7241

     occupation numbers 
     1.0000   1.0000   1.0000   1.0000   1.0000   1.0000   1.0000   1.0000
     1.0000   1.0000   1.0000   1.0000   1.0000   1.0000  -0.0000  -0.0000

          k =-0.0589 0.4125-0.0589 (  5317 PWs)   bands (ev):

    -2.3897   0.9563   1.3192   1.6872   1.6912   2.4180   5.4575   5.4604
     6.0149   6.7230   6.7274   7.4222   7.4262   7.4363   8.9814   8.9835

     occupation numbers 
     1.0000   1.0000   1.0000   1.0000   1.0000   1.0000   1.0000   1.0000
     1.0000   1.0000   1.0000   1.0070   1.0074   1.0083  -0.0000  -0.0000

          k =-0.1179 0.4714-0.1179 (  5298 PWs)   bands (ev):

    -2.0610   0.1733   0.9080   1.6411   1.6451   3.0966   5.1649   5.1686
     5.9587   7.3726   7.3772   7.9132   7.9195   8.4408   8.4415   8.7851

     occupation numbers 
     1.0000   1.0000   1.0000   1.0000   1.0000   1.0000   1.0000   1.0000
     1.0000   1.0036   1.0039   0.6936   0.6757  -0.0184  -0.0183  -0.0001

          k = 0.5303-0.1768 0.5303 (  5314 PWs)   bands (ev):

    -1.6394  -0.5212   0.5870   1.6861   1.6901   3.8602   4.8920   4.8958
     5.9822   7.0287   7.0330   8.0950   8.1000   9.4220   9.4250  10.2016

     occupation numbers 
     1.0000   1.0000   1.0000   1.0000   1.0000   1.0000   1.0000   1.0000
     1.0000   1.0000   1.0000   0.1694   0.1583  -0.0000  -0.0000  -0.0000

          k = 0.4714-0.1179 0.4714 (  5323 PWs)   bands (ev):

    -1.1297  -1.1220   0.3572   1.8220   1.8260   4.6844   4.6882   4.7053
     6.0722   6.1357   6.1397   8.8734   8.8790   9.2813  10.3266  10.5639

     occupation numbers 
     1.0000   1.0000   1.0000   1.0000   1.0000   1.0000   1.0000   1.0000
     1.0000   1.0000   1.0000  -0.0000  -0.0000  -0.0000  -0.0000  -0.0000

          k = 0.4125-0.0589 0.4125 (  5311 PWs)   bands (ev):

    -1.6394  -0.5213   0.2191   2.0482   2.0521   4.5497   4.5534   5.3166
     5.3204   5.6227   6.1814   8.2195   9.5258   9.6561   9.6628  10.2260

     occupation numbers 
     1.0000   1.0000   1.0000   1.0000   1.0000   1.0000   1.0000   1.0000
     1.0000   1.0000   1.0000  -0.0096  -0.0000  -0.0000  -0.0000  -0.0000

          k = 0.3536 0.0000 0.3536 (  5304 PWs)   bands (ev):

    -2.0610   0.1732   0.1732   2.3638   2.3677   4.4057   4.4057   4.6732
     4.6733   6.0708   6.5971   7.5698   8.7976   8.7976  10.2433  10.2510

     occupation numbers 
     1.0000   1.0000   1.0000   1.0000   1.0000   1.0000   1.0000   1.0000
     1.0000   1.0000   1.0000   1.0277  -0.0001  -0.0001  -0.0000  -0.0000

          k = 0.0000 0.4714 0.0000 (  5293 PWs)   bands (ev):

    -2.1861   0.7854   1.5131   1.5171   1.5261   1.5302   5.9551   5.9551
     7.2484   7.2535   7.2627   7.2668   7.3120   7.3130   8.7369   8.7369

     occupation numbers 
     1.0000   1.0000   1.0000   1.0000   1.0000   1.0000   1.0000   1.0000
     1.0005   1.0005   1.0006   1.0007   1.0015   1.0015  -0.0003  -0.0003

          k =-0.0589 0.5303-0.0589 (  5299 PWs)   bands (ev):

    -1.8891   0.3412   0.7111   1.4432   1.4472   2.1754   5.9235   5.9266
     7.1597   7.7957   7.8019   7.8628   7.8678   8.1351   8.1360   8.5692

     occupation numbers 
     1.0000   1.0000   1.0000   1.0000   1.0000   1.0000   1.0000   1.0000
     1.0001   0.9481   0.9391   0.8237   0.8122   0.0893   0.0878  -0.0044

          k = 0.5893-0.1179 0.5893 (  5309 PWs)   bands (ev):

    -1.4992  -0.0159  -0.0081   1.4581   1.4621   2.9162   5.6911   5.6947
     7.1090   7.1132   7.1248   8.5271   8.5326   8.8690   8.8714   9.9307

     occupation numbers 
     1.0000   1.0000   1.0000   1.0000   1.0000   1.0000   1.0000   1.0000
     1.0000   1.0000   1.0000  -0.0075  -0.0070  -0.0000  -0.0000  -0.0000

          k = 0.5303-0.0589 0.5303 (  5304 PWs)   bands (ev):

    -1.0172  -0.6450  -0.2742   1.5641   1.5682   3.7420   5.4696   5.4732
     6.2257   6.2295   7.1022   9.1656   9.1956   9.2021   9.9274   9.9299

     occupation numbers 
     1.0000   1.0000   1.0000   1.0000   1.0000   1.0000   1.0000   1.0000
     1.0000   1.0000   1.0000  -0.0000  -0.0000  -0.0000  -0.0000  -0.0000

          k = 0.4714-0.0000 0.4714 (  5330 PWs)   bands (ev):

    -1.1880  -0.4440  -0.4440   1.7611   1.7651   4.6497   5.2162   5.2162
     5.4930   5.4931   6.8811   8.3605   9.6621   9.6697  10.9651  10.9679

     occupation numbers 
     1.0000   1.0000   1.0000   1.0000   1.0000   1.0000   1.0000   1.0000
     1.0000   1.0000   1.0000  -0.0315  -0.0000  -0.0000  -0.0000  -0.0000

          k = 0.0000 0.5893 0.0000 (  5310 PWs)   bands (ev):

    -1.6238  -0.1357   1.3299   1.3339   1.3429   1.3470   6.4758   6.4758
     7.7962   7.7965   7.8665   7.8667   8.4040   8.4094   8.4184   8.4239

     occupation numbers 
     1.0000   1.0000   1.0000   1.0000   1.0000   1.0000   1.0000   1.0000
     0.9474   0.9470   0.8152   0.8146  -0.0246  -0.0236  -0.0221  -0.0212

          k = 0.6482-0.0589 0.6482 (  5333 PWs)   bands (ev):

    -1.2658  -0.5216   0.5883   1.3210   1.3250   2.0539   6.5015   6.5046
     7.2036   7.2072   8.2681   8.4062   8.4072   8.9640   8.9705   9.4899

     occupation numbers 
     1.0000   1.0000   1.0000   1.0000   1.0000   1.0000   1.0000   1.0000
     1.0002   1.0002  -0.0308  -0.0242  -0.0240  -0.0000  -0.0000  -0.0000

          k = 0.5893-0.0000 0.5893 (  5306 PWs)   bands (ev):

    -0.8157  -0.8156  -0.0733   1.3970   1.4010   2.8559   6.2346   6.2346
     6.4600   6.4601   7.9243   9.2417   9.2418   9.3135   9.3210   9.4320

     occupation numbers 
     1.0000   1.0000   1.0000   1.0000   1.0000   1.0000   1.0000   1.0000
     1.0000   1.0000   0.6617  -0.0000  -0.0000  -0.0000  -0.0000  -0.0000

          k = 0.0000-0.7071 0.0000 (  5346 PWs)   bands (ev):

    -0.9397  -0.9397   1.2688   1.2728   1.2818   1.2858   7.1128   7.1128
     7.1129   7.1129   8.1283   8.1284   9.0817   9.0821   9.1911   9.1979

     occupation numbers 
     1.0000   1.0000   1.0000   1.0000   1.0000   1.0000   1.0000   1.0000
     1.0000   1.0000   0.1014   0.1012  -0.0000  -0.0000  -0.0000  -0.0000

          k =-0.1179 0.2357 0.0000 (  5289 PWs)   bands (ev):

    -2.8764   1.5829   1.5829   3.0155   3.0343   3.0359   4.3993   4.4975
     4.4978   5.3193   5.9244   5.9245   6.6635   7.5743   8.9290  10.0402

     occupation numbers 
     1.0000   1.0000   1.0000   1.0000   1.0000   1.0000   1.0000   1.0000
     1.0000   1.0000   1.0000   1.0000   1.0000   1.0285  -0.0000  -0.0000

          k =-0.1768 0.2946-0.0589 (  5305 PWs)   bands (ev):

    -2.6407   0.7113   1.4454   2.5274   2.8999   3.6107   3.9448   4.3708
     5.0754   5.2253   6.4994   7.1865   7.2100   8.4528   8.9400   9.8346

     occupation numbers 
     1.0000   1.0000   1.0000   1.0000   1.0000   1.0000   1.0000   1.0000
     1.0000   1.0000   1.0000   1.0002   1.0002  -0.0165  -0.0000  -0.0000

          k =-0.2357 0.3536-0.1179 (  5307 PWs)   bands (ev):

    -2.3114  -0.0732   1.3991   2.1232   2.8541   3.5577   4.1730   4.4331
     4.9307   5.7395   7.1580   7.7170   8.2583   8.5710   9.0796   9.5499

     occupation numbers 
     1.0000   1.0000   1.0000   1.0000   1.0000   1.0000   1.0000   1.0000
     1.0000   1.0000   1.0001   1.0201  -0.0282  -0.0043  -0.0000  -0.0000

          k = 0.4125-0.2946 0.5303 (  5301 PWs)   bands (ev):

    -1.8891  -0.7689   1.4441   1.8069   2.8977   3.2512   4.3139   4.6565
     5.0888   6.4860   6.8265   7.8973   8.2000   9.2155   9.5933  10.0055

     occupation numbers 
     1.0000   1.0000   1.0000   1.0000   1.0000   1.0000   1.0000   1.0000
     1.0000   1.0000   1.0000   0.7374   0.0054  -0.0000  -0.0000  -0.0000

          k = 0.3536-0.2357 0.4714 (  5308 PWs)   bands (ev):

    -1.3785  -1.3708   1.5764   1.5841   3.0298   3.0311   4.4446   4.4521
     5.9172   5.9180   7.3082   7.3113   8.7116   8.7132  10.3680  10.3719

     occupation numbers 
     1.0000   1.0000   1.0000   1.0000   1.0000   1.0000   1.0000   1.0000
     1.0000   1.0000   1.0014   1.0015  -0.0005  -0.0004  -0.0000  -0.0000

          k =-0.1179 0.3536 0.0000 (  5310 PWs)   bands (ev):

    -2.5622   1.1552   1.1553   1.8802   2.6142   2.6143   4.6954   5.5024
     5.5025   5.6084   6.9243   6.9249   6.9577   7.8638   8.9606   9.7822

     occupation numbers 
     1.0000   1.0000   1.0000   1.0000   1.0000   1.0000   1.0000   1.0000
     1.0000   1.0000   1.0000   1.0000   1.0000   0.8214  -0.0000  -0.0000

          k =-0.1768 0.4125-0.0589 (  5308 PWs)   bands (ev):

    -2.2644   0.3426   1.0785   1.4413   2.5382   3.2610   4.3023   5.4227
     5.5749   6.1330   7.4465   7.5502   7.9997   8.2564   8.7473   9.1394

     occupation numbers 
     1.0000   1.0000   1.0000   1.0000   1.0000   1.0000   1.0000   1.0000
     1.0000   1.0000   1.0093   1.0245   0.4308  -0.0276  -0.0002  -0.0000

          k = 0.4714-0.2357 0.5893 (  5303 PWs)   bands (ev):

    -1.8735  -0.3820   1.0886   1.0965   2.5523   3.9766   3.9915   5.3394
     5.4299   6.8235   6.8435   8.1620   8.2541   8.5768   9.6593   9.8626

     occupation numbers 
     1.0000   1.0000   1.0000   1.0000   1.0000   1.0000   1.0000   1.0000
     1.0000   1.0000   1.0000   0.0479  -0.0268  -0.0039  -0.0000  -0.0000

          k = 0.4125-0.1768 0.5303 (  5304 PWs)   bands (ev):

    -1.3902  -1.0171   0.8324   1.1998   2.6563   3.7313   4.7967   5.1169
     5.5250   5.9058   7.2712   7.6262   9.0294   9.6750  10.0324  10.0659

     occupation numbers 
     1.0000   1.0000   1.0000   1.0000   1.0000   1.0000   1.0000   1.0000
     1.0000   1.0000   1.0007   1.0348  -0.0000  -0.0000  -0.0000  -0.0000

          k = 0.3536-0.1179 0.4714 (  5303 PWs)   bands (ev):

    -1.5615  -0.8155   0.6644   1.3972   2.8496   3.5712   4.8692   5.1451
     5.5502   5.8161   6.4300   8.4637   8.8686   9.2415   9.8594  10.6418

     occupation numbers 
     1.0000   1.0000   1.0000   1.0000   1.0000   1.0000   1.0000   1.0000
     1.0000   1.0000   1.0000  -0.0149  -0.0000  -0.0000  -0.0000  -0.0000

          k = 0.2946-0.0589 0.4125 (  5305 PWs)   bands (ev):

    -2.0141  -0.1504   0.5881   1.6852   3.1310   3.4984   4.2035   4.9613
     5.6600   5.8027   6.6772   7.8842   8.4860   9.1894   9.3012  10.3701

     occupation numbers 
     1.0000   1.0000   1.0000   1.0000   1.0000   1.0000   1.0000   1.0000
     1.0000   1.0000   1.0000   0.7718  -0.0119  -0.0000  -0.0000  -0.0000

          k = 0.2357-0.0000 0.3536 (  5295 PWs)   bands (ev):

    -2.3741   0.6037   0.6037   2.0625   3.4977   3.5129   3.5130   4.9707
     4.9707   5.7817   7.0771   7.8072   7.8072   7.8800   9.3702   9.9566

     occupation numbers 
     1.0000   1.0000   1.0000   1.0000   1.0000   1.0000   1.0000   1.0000
     1.0000   1.0000   1.0000   0.9311   0.9311   0.7825  -0.0000  -0.0000

          k =-0.1179 0.4714 0.0000 (  5306 PWs)   bands (ev):

    -2.1235   0.8423   0.8491   0.8535   2.3117   2.3118   5.1085   6.0129
     6.6086   6.6087   7.3190   8.0223   8.0227   8.0303   8.2535   8.7949

     occupation numbers 
     1.0000   1.0000   1.0000   1.0000   1.0000   1.0000   1.0000   1.0000
     1.0000   1.0000   1.0016   0.3625   0.3612   0.3390  -0.0266  -0.0001

          k = 0.5303-0.1768 0.6482 (  5307 PWs)   bands (ev):

    -1.7642   0.0962   0.4642   0.8335   2.2960   3.0213   4.7773   6.0363
     6.5705   6.8858   7.2767   8.1028   8.1372   8.6846   9.2219   9.3867

     occupation numbers 
     1.0000   1.0000   1.0000   1.0000   1.0000   1.0000   1.0000   1.0000
     1.0000   1.0000   1.0008   0.1521   0.0857  -0.0007  -0.0000  -0.0000

          k = 0.4714-0.1179 0.5893 (  5309 PWs)   bands (ev):

    -1.3124  -0.5676   0.1726   0.9097   2.3706   3.8159   4.5126   5.7814
     6.0404   6.5967   7.2951   8.0022   9.0873   9.4034   9.8094  10.1612

     occupation numbers 
     1.0000   1.0000   1.0000   1.0000   1.0000   1.0000   1.0000   1.0000
     1.0000   1.0000   1.0011   0.4233  -0.0000  -0.0000  -0.0000  -0.0000

          k = 0.4125-0.0589 0.5303 (  5305 PWs)   bands (ev):

    -1.1414  -0.7690  -0.0274   1.0774   2.5354   4.3274   4.6927   5.0258
     5.7610   6.4525   6.6368   8.6904   8.7318  10.1272  10.2425  10.6505

     occupation numbers 
     1.0000   1.0000   1.0000   1.0000   1.0000   1.0000   1.0000   1.0000
     1.0000   1.0000   1.0000  -0.0007  -0.0003  -0.0000  -0.0000  -0.0000

          k = 0.3536 0.0000 0.4714 (  5300 PWs)   bands (ev):

    -1.6238  -0.1351  -0.1351   1.3362   2.7893   4.2254   4.2254   5.6454
     5.6668   5.6669   6.4758   7.9463   9.2594   9.8848   9.8848  10.6413

     occupation numbers 
     1.0000   1.0000   1.0000   1.0000   1.0000   1.0000   1.0000   1.0000
     1.0000   1.0000   1.0000   0.5958  -0.0000  -0.0000  -0.0000  -0.0000

          k = 0.5893-0.1179 0.7071 (  5317 PWs)   bands (ev):

    -1.5615  -0.0740   0.6650   0.6650   2.1297   2.1297   5.6373   6.5337
     7.0085   7.7694   7.7696   7.9245   7.9856   8.6603   9.1731   9.1731

     occupation numbers 
     1.0000   1.0000   1.0000   1.0000   1.0000   1.0000   1.0000   1.0000
     1.0000   0.9803   0.9801   0.6612   0.4745  -0.0011  -0.0000  -0.0000

          k = 0.5303-0.0589 0.6482 (  5314 PWs)   bands (ev):

    -1.1415  -0.3979  -0.0270   0.7108   2.1746   2.9009   5.3672   6.0609
     6.6442   7.3320   7.6852   8.3843   8.6508   9.2328   9.7549   9.7814

     occupation numbers 
     1.0000   1.0000   1.0000   1.0000   1.0000   1.0000   1.0000   1.0000
     1.0000   1.0020   1.0312  -0.0279  -0.0013  -0.0000  -0.0000  -0.0000

          k = 0.4714-0.0000 0.5893 (  5314 PWs)   bands (ev):

    -0.6351  -0.6297  -0.6242   0.8484   2.3100   3.7566   5.1610   5.1611
     6.5402   6.5402   7.4026   8.7947   8.8959   9.6944   9.6945  10.2961

     occupation numbers 
     1.0000   1.0000   1.0000   1.0000   1.0000   1.0000   1.0000   1.0000
     1.0000   1.0000   1.0055  -0.0001  -0.0000  -0.0000  -0.0000  -0.0000

          k =-0.1179-0.7071 0.0000 (  5314 PWs)   bands (ev):

    -0.8777  -0.8776   0.6036   0.6036   2.0689   2.0689   6.2779   6.2780
     7.1708   7.1708   8.5196   8.5205   8.5625   8.5634   9.6918   9.6919

     occupation numbers 
     1.0000   1.0000   1.0000   1.0000   1.0000   1.0000   1.0000   1.0000
     1.0001   1.0001  -0.0082  -0.0081  -0.0048  -0.0047  -0.0000  -0.0000

          k = 0.4714-0.2357 0.7071 (  5301 PWs)   bands (ev):

    -1.9360   0.2963   0.2963   1.0305   3.2157   3.2157   3.9170   6.0767
     6.0768   6.1866   6.7057   7.6816   8.8998   8.8998   8.9691   9.6781

     occupation numbers 
     1.0000   1.0000   1.0000   1.0000   1.0000   1.0000   1.0000   1.0000
     1.0000   1.0000   1.0000   1.0320  -0.0000  -0.0000  -0.0000  -0.0000

          k = 0.4125-0.1768 0.6482 (  5297 PWs)   bands (ev):

    -1.5148  -0.3976   0.3422   0.7098   3.2594   3.6118   3.9778   5.7348
     6.1000   6.2977   6.8052   8.3334   8.3798   9.6150  10.2905  10.3146

     occupation numbers 
     1.0000   1.0000   1.0000   1.0000   1.0000   1.0000   1.0000   1.0000
     1.0000   1.0000   1.0000  -0.0345  -0.0286  -0.0000  -0.0000  -0.0000

          k = 0.3536-0.1179 0.5893 (  5292 PWs)   bands (ev):

    -1.0055  -0.9978   0.4763   0.4840   3.3911   3.3924   4.8199   4.8212
     6.1858   6.1936   7.5893   7.5920   9.3914   9.3947  10.3851  10.3878

     occupation numbers 
     1.0000   1.0000   1.0000   1.0000   1.0000   1.0000   1.0000   1.0000
     1.0000   1.0000   1.0308   1.0312  -0.0000  -0.0000  -0.0000  -0.0000

          k = 0.4714-0.1179 0.7071 (  5308 PWs)   bands (ev):

    -1.3747   0.1058   0.1116   0.1167   3.0355   3.0356   4.4538   5.8671
     6.7074   7.2414   7.2415   8.0985   8.1719   9.4702  10.0451  10.0452

     occupation numbers 
     1.0000   1.0000   1.0000   1.0000   1.0000   1.0000   1.0000   1.0000
     1.0000   1.0004   1.0004   0.1616   0.0351  -0.0000  -0.0000  -0.0000

          k = 0.4125-0.0589 0.6482 (  5301 PWs)   bands (ev):

    -0.8931  -0.5213  -0.1508   0.2192   3.1393   3.8597   4.2099   4.9223
     6.8694   7.2186   7.5669   7.9175   8.9137   9.2784   9.5950   9.9744

     occupation numbers 
     1.0000   1.0000   1.0000   1.0000   1.0000   1.0000   1.0000   1.0000
     1.0000   1.0003   1.0273   0.6813  -0.0000  -0.0000  -0.0000  -0.0000

          k = 0.3536 0.0000 0.5893 (  5311 PWs)   bands (ev):

    -1.0638  -0.3204  -0.3204   0.4187   3.3318   4.0506   4.0506   4.7651
     6.8307   6.8307   6.9970   8.3885   8.4750   9.8610  10.0267  10.0268

     occupation numbers 
     1.0000   1.0000   1.0000   1.0000   1.0000   1.0000   1.0000   1.0000
     1.0000   1.0000   1.0000  -0.0272  -0.0134  -0.0000  -0.0000  -0.0000

          k =-0.2357-0.7071 0.0000 (  5316 PWs)   bands (ev):

    -0.6918  -0.6917   0.0499   0.0500   2.9753   2.9754   5.1058   5.1059
     7.3446   7.3447   8.0403   8.0404   8.7979   8.7979   9.5440   9.5440

     occupation numbers 
     1.0000   1.0000   1.0000   1.0000   1.0000   1.0000   1.0000   1.0000
     1.0024   1.0024   0.3101   0.3098  -0.0001  -0.0001  -0.0000  -0.0000

          k =-0.3536-0.7071 0.0000 (  5268 PWs)   bands (ev):

    -0.3900  -0.3822  -0.3822  -0.3745   3.9902   3.9914   3.9914   3.9927
     7.6318   7.6344   7.6344   7.6372   9.1171   9.1193   9.1193   9.1215

     occupation numbers 
     1.0000   1.0000   1.0000   1.0000   1.0000   1.0000   1.0000   1.0000
     1.0352   1.0353   1.0353   1.0354  -0.0000  -0.0000  -0.0000  -0.0000

          k = 0.1179 0.0000 0.0000 (  5265 PWs)   bands (ev):

    -3.1282   2.7939   2.7940   2.7940   2.7941   4.1625   4.2590   4.2590
     4.2591   4.2592   5.0884   5.0884   6.4228   6.4228   7.3391  12.0452

     occupation numbers 
     1.0000   1.0000   1.0000   1.0000   1.0000   1.0000   1.0000   1.0000
     1.0000   1.0000   1.0000   1.0000   1.0000   1.0000   1.0022  -0.0000

          k = 0.1768-0.0589-0.0589 (  5274 PWs)   bands (ev):

    -3.0180   1.8114   2.5386   2.5387   3.2531   3.5865   4.0120   4.7201
     4.7203   4.8748   4.8749   5.4353   6.8410   6.8410   8.1104  11.1595

     occupation numbers 
     1.0000   1.0000   1.0000   1.0000   1.0000   1.0000   1.0000   1.0000
     1.0000   1.0000   1.0000   1.0000   1.0000   1.0000   0.1360  -0.0000

          k = 0.2357-0.1179-0.1179 (  5293 PWs)   bands (ev):

    -2.8135   0.9107   2.3722   2.3722   3.0773   3.7068   3.9478   4.4587
     4.4588   5.2701   5.2701   6.6952   7.6304   7.6304   8.9846  10.1008

     occupation numbers 
     1.0000   1.0000   1.0000   1.0000   1.0000   1.0000   1.0000   1.0000
     1.0000   1.0000   1.0000   1.0000   1.0351   1.0351  -0.0000  -0.0000

          k = 0.2946-0.1768-0.1768 (  5304 PWs)   bands (ev):

    -2.5152   0.0964   2.2958   2.2959   2.6484   3.7271   4.0640   4.0641
     4.4932   5.9059   5.9059   8.0333   8.5107   8.5108   9.1114   9.1114

     occupation numbers 
     1.0000   1.0000   1.0000   1.0000   1.0000   1.0000   1.0000   1.0000
     1.0000   1.0000   1.0000   0.3301  -0.0091  -0.0091  -0.0000  -0.0000

          k = 0.3536-0.2357-0.2357 (  5308 PWs)   bands (ev):

    -2.1236  -0.6295   2.3015   2.3099   2.3136   3.7348   3.7372   3.7497
     5.2127   6.6253   6.6253   7.9913   7.9913   9.3780   9.4465   9.6783

     occupation numbers 
     1.0000   1.0000   1.0000   1.0000   1.0000   1.0000   1.0000   1.0000
     1.0000   1.0000   1.0000   0.4569   0.4569  -0.0000  -0.0000  -0.0000

          k =-0.2946 0.4125 0.4125 (  5307 PWs)   bands (ev):

    -1.6395  -1.2657   2.0501   2.4141   2.4142   3.4911   3.4912   3.8493
     6.0206   7.0683   7.0683   7.4246   7.4246   8.4672  10.8056  10.8059

     occupation numbers 
     1.0000   1.0000   1.0000   1.0000   1.0000   1.0000   1.0000   1.0000
     1.0000   1.0000   1.0000   1.0072   1.0072  -0.0144  -0.0000  -0.0000

          k =-0.2357 0.3536 0.3536 (  5311 PWs)   bands (ev):

    -1.8110  -1.0637   1.8848   2.6078   2.6079   3.3308   3.3309   4.0354
     6.2107   6.2107   6.9069   7.6202   8.2974   8.2974   9.9650  10.4292

     occupation numbers 
     1.0000   1.0000   1.0000   1.0000   1.0000   1.0000   1.0000   1.0000
     1.0000   1.0000   1.0000   1.0344  -0.0351  -0.0351  -0.0000  -0.0000

          k =-0.1768 0.2946 0.2946 (  5319 PWs)   bands (ev):

    -2.2644  -0.3974   1.8099   2.8898   2.8898   3.2580   3.2581   4.3018
     5.4318   5.4318   6.8493   7.8436   8.8881   8.9679   9.2186   9.2188

     occupation numbers 
     1.0000   1.0000   1.0000   1.0000   1.0000   1.0000   1.0000   1.0000
     1.0000   1.0000   1.0000   0.8655  -0.0000  -0.0000  -0.0000  -0.0000

          k =-0.1179 0.2357 0.2357 (  5312 PWs)   bands (ev):

    -2.6250   0.3581   1.8259   3.2566   3.2567   3.2738   3.2739   4.6360
     4.7368   4.7369   6.1593   7.5790   7.7873   8.9791   9.1431   9.1432

     occupation numbers 
     1.0000   1.0000   1.0000   1.0000   1.0000   1.0000   1.0000   1.0000
     1.0000   1.0000   1.0000   1.0292   0.9593  -0.0000  -0.0000  -0.0000

          k =-0.0589 0.1768 0.1768 (  5287 PWs)   bands (ev):

    -2.8921   1.2014   1.9329   3.3719   3.3719   3.7060   3.7060   4.1327
     4.1327   4.9917   5.5533   6.2666   6.9586   8.2260   8.2260  10.0549

     occupation numbers 
     1.0000   1.0000   1.0000   1.0000   1.0000   1.0000   1.0000   1.0000
     1.0000   1.0000   1.0000   1.0000   1.0000  -0.0137  -0.0137  -0.0000

          k =-0.0000 0.1179 0.1179 (  5274 PWs)   bands (ev):

    -3.0652   2.1238   2.1369   3.4732   3.4733   3.7027   3.7028   4.2219
     4.2219   5.0267   5.0400   5.1463   6.4833   7.3981   7.3981  11.1955

     occupation numbers 
     1.0000   1.0000   1.0000   1.0000   1.0000   1.0000   1.0000   1.0000
     1.0000   1.0000   1.0000   1.0000   1.0000   1.0052   1.0052  -0.0000

          k = 0.2357 0.0000 0.0000 (  5293 PWs)   bands (ev):

    -2.9393   2.2514   2.2515   2.2515   2.2516   2.9569   5.1510   5.1510
     5.1513   5.1513   5.2619   5.2619   6.6045   6.6046   8.8718  10.8277

     occupation numbers 
     1.0000   1.0000   1.0000   1.0000   1.0000   1.0000   1.0000   1.0000
     1.0000   1.0000   1.0000   1.0000   1.0000   1.0000  -0.0000  -0.0000

          k = 0.2946-0.0589-0.0589 (  5301 PWs)   bands (ev):

    -2.7664   1.3235   2.0542   2.0542   2.4065   2.7800   4.9561   5.1085
     5.1088   5.6697   5.6697   6.3821   7.0782   7.0782   9.7254  10.0173

     occupation numbers 
     1.0000   1.0000   1.0000   1.0000   1.0000   1.0000   1.0000   1.0000
     1.0000   1.0000   1.0000   1.0000   1.0000   1.0000  -0.0000  -0.0000

          k = 0.3536-0.1179-0.1179 (  5290 PWs)   bands (ev):

    -2.4995   0.4810   1.9378   1.9475   1.9507   3.3943   4.7540   4.7543
     4.8515   6.2733   6.2733   7.6915   7.9061   7.9063   9.0313   9.0313

     occupation numbers 
     1.0000   1.0000   1.0000   1.0000   1.0000   1.0000   1.0000   1.0000
     1.0000   1.0000   1.0000   1.0296   0.7134   0.7129  -0.0000  -0.0000

          k = 0.4125-0.1768-0.1768 (  5307 PWs)   bands (ev):

    -2.1392  -0.2738   1.5632   1.9316   1.9317   4.0866   4.4207   4.4208
     4.8418   6.9595   6.9595   7.9395   7.9395   8.9922   8.9924   9.0762

     occupation numbers 
     1.0000   1.0000   1.0000   1.0000   1.0000   1.0000   1.0000   1.0000
     1.0000   1.0000   1.0000   0.6166   0.6166  -0.0000  -0.0000  -0.0000

          k =-0.2357 0.4714 0.4714 (  5308 PWs)   bands (ev):

    -1.6862  -0.9395   1.2751   2.0064   2.0065   4.1548   4.1548   4.7531
     5.0273   7.0117   7.0118   7.7238   7.7238   9.7981  10.0699  10.0699

     occupation numbers 
     1.0000   1.0000   1.0000   1.0000   1.0000   1.0000   1.0000   1.0000
     1.0000   1.0000   1.0000   1.0165   1.0165  -0.0000  -0.0000  -0.0000

          k =-0.1768 0.4125 0.4125 (  5310 PWs)   bands (ev):

    -1.5148  -1.1413   1.0774   2.1716   2.1716   3.9689   3.9689   4.9987
     5.7942   6.1318   6.1318   8.5582   8.5582   8.9393   9.5657  11.0382

     occupation numbers 
     1.0000   1.0000   1.0000   1.0000   1.0000   1.0000   1.0000   1.0000
     1.0000   1.0000   1.0000  -0.0051  -0.0051  -0.0000  -0.0000  -0.0000

          k =-0.1179 0.3536 0.3536 (  5315 PWs)   bands (ev):

    -1.9985  -0.5057   0.9710   2.4263   2.4263   3.8670   3.8670   5.2216
     5.3278   5.3279   6.7179   8.1511   8.4657   9.4424   9.4425   9.5579

     occupation numbers 
     1.0000   1.0000   1.0000   1.0000   1.0000   1.0000   1.0000   1.0000
     1.0000   1.0000   1.0000   0.0635  -0.0146  -0.0000  -0.0000  -0.0000

          k =-0.0589 0.2946 0.2946 (  5310 PWs)   bands (ev):

    -2.3897   0.2195   0.9562   2.7691   2.7692   3.8463   3.8464   4.6112
     4.6112   5.4580   7.3276   7.4405   7.9133   8.1476  10.0162  10.0163

     occupation numbers 
     1.0000   1.0000   1.0000   1.0000   1.0000   1.0000   1.0000   1.0000
     1.0000   1.0000   1.0019   1.0087   0.6934   0.0689  -0.0000  -0.0000

          k =-0.0000 0.2357 0.2357 (  5306 PWs)   bands (ev):

    -2.6878   1.0265   1.0395   3.1975   3.1975   3.8233   3.8233   4.0700
     4.0700   5.4927   6.8045   6.8181   6.8365   8.9064   9.0984   9.0984

     occupation numbers 
     1.0000   1.0000   1.0000   1.0000   1.0000   1.0000   1.0000   1.0000
     1.0000   1.0000   1.0000   1.0000   1.0000  -0.0000  -0.0000  -0.0000

          k = 0.3536 0.0000 0.0000 (  5321 PWs)   bands (ev):

    -2.6250   1.8143   1.8263   1.8263   1.8264   1.8314   5.5504   5.5504
     6.1555   6.1555   6.1556   6.1556   6.9038   6.9039   9.7241   9.7241

     occupation numbers 
     1.0000   1.0000   1.0000   1.0000   1.0000   1.0000   1.0000   1.0000
     1.0000   1.0000   1.0000   1.0000   1.0000   1.0000  -0.0000  -0.0000

          k = 0.4125-0.0589-0.0589 (  5317 PWs)   bands (ev):

    -2.3897   0.9564   1.3192   1.6892   1.6893   2.4179   5.4589   5.4589
     6.0150   6.7252   6.7252   7.4228   7.4254   7.4365   8.9825   8.9825

     occupation numbers 
     1.0000   1.0000   1.0000   1.0000   1.0000   1.0000   1.0000   1.0000
     1.0000   1.0000   1.0000   1.0071   1.0073   1.0083  -0.0000  -0.0000

          k = 0.4714-0.1179-0.1179 (  5298 PWs)   bands (ev):

    -2.0610   0.1733   0.9080   1.6431   1.6431   3.0966   5.1667   5.1667
     5.9587   7.3749   7.3749   7.9163   7.9163   8.4411   8.4412   8.7851

     occupation numbers 
     1.0000   1.0000   1.0000   1.0000   1.0000   1.0000   1.0000   1.0000
     1.0000   1.0038   1.0038   0.6847   0.6846  -0.0184  -0.0184  -0.0001

          k =-0.1768 0.5303 0.5303 (  5314 PWs)   bands (ev):

    -1.6394  -0.5212   0.5870   1.6881   1.6881   3.8602   4.8938   4.8939
     5.9822   7.0309   7.0309   8.0975   8.0975   9.4235   9.4235  10.2016

     occupation numbers 
     1.0000   1.0000   1.0000   1.0000   1.0000   1.0000   1.0000   1.0000
     1.0000   1.0000   1.0000   0.1638   0.1638  -0.0000  -0.0000  -0.0000

          k =-0.1179 0.4714 0.4714 (  5323 PWs)   bands (ev):

    -1.1297  -1.1220   0.3572   1.8239   1.8240   4.6863   4.6863   4.7052
     6.0722   6.1377   6.1378   8.8762   8.8762   9.2813  10.3265  10.5636

     occupation numbers 
     1.0000   1.0000   1.0000   1.0000   1.0000   1.0000   1.0000   1.0000
     1.0000   1.0000   1.0000  -0.0000  -0.0000  -0.0000  -0.0000  -0.0000

          k =-0.0589 0.4125 0.4125 (  5311 PWs)   bands (ev):

    -1.6394  -0.5213   0.2192   2.0501   2.0502   4.5514   4.5515   5.3186
     5.3186   5.6226   6.1815   8.2194   9.5257   9.6594   9.6595  10.2261

     occupation numbers 
     1.0000   1.0000   1.0000   1.0000   1.0000   1.0000   1.0000   1.0000
     1.0000   1.0000   1.0000  -0.0095  -0.0000  -0.0000  -0.0000  -0.0000

          k = 0.0000 0.3536 0.3536 (  5304 PWs)   bands (ev):

    -2.0610   0.1667   0.1797   2.3657   2.3658   4.4055   4.4056   4.6734
     4.6734   6.0708   6.5971   7.5698   8.7905   8.8046  10.2471  10.2472

     occupation numbers 
     1.0000   1.0000   1.0000   1.0000   1.0000   1.0000   1.0000   1.0000
     1.0000   1.0000   1.0000   1.0277  -0.0001  -0.0001  -0.0000  -0.0000

          k = 0.4714 0.0000 0.0000 (  5293 PWs)   bands (ev):

    -2.1861   0.7854   1.5216   1.5216   1.5216   1.5217   5.9551   5.9551
     7.2570   7.2581   7.2581   7.2581   7.3120   7.3131   8.7369   8.7369

     occupation numbers 
     1.0000   1.0000   1.0000   1.0000   1.0000   1.0000   1.0000   1.0000
     1.0006   1.0006   1.0006   1.0006   1.0015   1.0015  -0.0003  -0.0003

          k = 0.5303-0.0589-0.0589 (  5299 PWs)   bands (ev):

    -1.8891   0.3412   0.7112   1.4452   1.4452   2.1754   5.9250   5.9250
     7.1598   7.7987   7.7990   7.8651   7.8655   8.1356   8.1356   8.5691

     occupation numbers 
     1.0000   1.0000   1.0000   1.0000   1.0000   1.0000   1.0000   1.0000
     1.0001   0.9439   0.9434   0.8185   0.8176   0.0885   0.0884  -0.0044

          k =-0.1179 0.5893 0.5893 (  5309 PWs)   bands (ev):

    -1.4992  -0.0158  -0.0080   1.4600   1.4601   2.9162   5.6929   5.6929
     7.1107   7.1112   7.1252   8.5298   8.5298   8.8701   8.8702   9.9306

     occupation numbers 
     1.0000   1.0000   1.0000   1.0000   1.0000   1.0000   1.0000   1.0000
     1.0000   1.0000   1.0000  -0.0072  -0.0072  -0.0000  -0.0000  -0.0000

          k =-0.0589 0.5303 0.5303 (  5304 PWs)   bands (ev):

    -1.0173  -0.6450  -0.2742   1.5661   1.5662   3.7420   5.4713   5.4713
     6.2277   6.2277   7.1023   9.1649   9.1988   9.1996   9.9286   9.9287

     occupation numbers 
     1.0000   1.0000   1.0000   1.0000   1.0000   1.0000   1.0000   1.0000
     1.0000   1.0000   1.0000  -0.0000  -0.0000  -0.0000  -0.0000  -0.0000

          k = 0.0000 0.4714 0.4714 (  5330 PWs)   bands (ev):

    -1.1880  -0.4505  -0.4376   1.7631   1.7631   4.6497   5.2160   5.2161
     5.4932   5.4932   6.8812   8.3605   9.6659   9.6660  10.9623  10.9652

     occupation numbers 
     1.0000   1.0000   1.0000   1.0000   1.0000   1.0000   1.0000   1.0000
     1.0000   1.0000   1.0000  -0.0315  -0.0000  -0.0000  -0.0000  -0.0000

          k = 0.5893 0.0000 0.0000 (  5310 PWs)   bands (ev):

    -1.6239  -0.1357   1.3384   1.3384   1.3384   1.3384   6.4758   6.4758
     7.7964   7.7965   7.8665   7.8665   8.4139   8.4139   8.4139   8.4140

     occupation numbers 
     1.0000   1.0000   1.0000   1.0000   1.0000   1.0000   1.0000   1.0000
     0.9471   0.9470   0.8152   0.8152  -0.0229  -0.0229  -0.0229  -0.0229

          k =-0.0589 0.6482 0.6482 (  5333 PWs)   bands (ev):

    -1.2658  -0.5215   0.5883   1.3230   1.3230   2.0539   6.5030   6.5030
     7.2055   7.2055   8.2682   8.4066   8.4067   8.9673   8.9673   9.4897

     occupation numbers 
     1.0000   1.0000   1.0000   1.0000   1.0000   1.0000   1.0000   1.0000
     1.0002   1.0002  -0.0309  -0.0241  -0.0241  -0.0000  -0.0000  -0.0000

          k = 0.0000 0.5893 0.5893 (  5306 PWs)   bands (ev):

    -0.8221  -0.8092  -0.0732   1.3990   1.3990   2.8559   6.2344   6.2344
     6.4602   6.4603   7.9244   9.2415   9.2417   9.3170   9.3175   9.4323

     occupation numbers 
     1.0000   1.0000   1.0000   1.0000   1.0000   1.0000   1.0000   1.0000
     1.0000   1.0000   0.6614  -0.0000  -0.0000  -0.0000  -0.0000  -0.0000

          k =-0.7071 0.0000 0.0000 (  5346 PWs)   bands (ev):

    -0.9462  -0.9332   1.2773   1.2773   1.2773   1.2773   7.1051   7.1051
     7.1206   7.1206   8.1283   8.1283   9.0821   9.0821   9.2009   9.2010

     occupation numbers 
     1.0000   1.0000   1.0000   1.0000   1.0000   1.0000   1.0000   1.0000
     1.0000   1.0000   0.1015   0.1013  -0.0000  -0.0000  -0.0000  -0.0000

          k = 0.0000-0.2357-0.1179 (  5289 PWs)   bands (ev):

    -2.8764   1.5764   1.5894   3.0153   3.0290   3.0415   4.3993   4.4911
     4.5042   5.3194   5.9177   5.9312   6.6635   7.5743   8.9290  10.0402

     occupation numbers 
     1.0000   1.0000   1.0000   1.0000   1.0000   1.0000   1.0000   1.0000
     1.0000   1.0000   1.0000   1.0000   1.0000   1.0285  -0.0000  -0.0000

          k = 0.2357 0.0000-0.1179 (  5289 PWs)   bands (ev):

    -2.8764   1.5829   1.5829   3.0155   3.0343   3.0359   4.3993   4.4975
     4.4978   5.3193   5.9244   5.9245   6.6635   7.5743   8.9290  10.0402

     occupation numbers 
     1.0000   1.0000   1.0000   1.0000   1.0000   1.0000   1.0000   1.0000
     1.0000   1.0000   1.0000   1.0000   1.0000   1.0285  -0.0000  -0.0000

          k =-0.0589-0.2946-0.1768 (  5305 PWs)   bands (ev):

    -2.6407   0.7113   1.4454   2.5274   2.8998   3.6107   3.9448   4.3708
     5.0755   5.2253   6.4993   7.1866   7.2099   8.4529   8.9399   9.8346

     occupation numbers 
     1.0000   1.0000   1.0000   1.0000   1.0000   1.0000   1.0000   1.0000
     1.0000   1.0000   1.0000   1.0002   1.0002  -0.0165  -0.0000  -0.0000

          k = 0.2946-0.0589-0.1768 (  5305 PWs)   bands (ev):

    -2.6407   0.7113   1.4454   2.5274   2.8999   3.6107   3.9448   4.3708
     5.0754   5.2253   6.4994   7.1865   7.2100   8.4528   8.9399   9.8346

     occupation numbers 
     1.0000   1.0000   1.0000   1.0000   1.0000   1.0000   1.0000   1.0000
     1.0000   1.0000   1.0000   1.0002   1.0002  -0.0165  -0.0000  -0.0000

          k =-0.1179-0.3536-0.2357 (  5307 PWs)   bands (ev):

    -2.3114  -0.0732   1.3991   2.1232   2.8541   3.5577   4.1730   4.4331
     4.9307   5.7396   7.1580   7.7170   8.2582   8.5710   9.0797   9.5499

     occupation numbers 
     1.0000   1.0000   1.0000   1.0000   1.0000   1.0000   1.0000   1.0000
     1.0000   1.0000   1.0001   1.0201  -0.0281  -0.0043  -0.0000  -0.0000

          k = 0.3536-0.1179-0.2357 (  5307 PWs)   bands (ev):

    -2.3114  -0.0732   1.3991   2.1232   2.8541   3.5577   4.1730   4.4331
     4.9307   5.7395   7.1580   7.7170   8.2583   8.5709   9.0796   9.5499

     occupation numbers 
     1.0000   1.0000   1.0000   1.0000   1.0000   1.0000   1.0000   1.0000
     1.0000   1.0000   1.0001   1.0201  -0.0282  -0.0043  -0.0000  -0.0000

          k = 0.5303 0.2946 0.4125 (  5301 PWs)   bands (ev):

    -1.8891  -0.7689   1.4441   1.8070   2.8977   3.2512   4.3139   4.6565
     5.0889   6.4861   6.8265   7.8973   8.2001   9.2154   9.5933  10.0055

     occupation numbers 
     1.0000   1.0000   1.0000   1.0000   1.0000   1.0000   1.0000   1.0000
     1.0000   1.0000   1.0000   0.7375   0.0054  -0.0000  -0.0000  -0.0000

          k =-0.2946 0.5303 0.4125 (  5301 PWs)   bands (ev):

    -1.8891  -0.7689   1.4441   1.8070   2.8977   3.2512   4.3139   4.6565
     5.0888   6.4860   6.8265   7.8973   8.2001   9.2155   9.5932  10.0055

     occupation numbers 
     1.0000   1.0000   1.0000   1.0000   1.0000   1.0000   1.0000   1.0000
     1.0000   1.0000   1.0000   0.7374   0.0054  -0.0000  -0.0000  -0.0000

          k = 0.4714 0.2357 0.3536 (  5308 PWs)   bands (ev):

    -1.3785  -1.3708   1.5764   1.5842   3.0303   3.0306   4.4445   4.4521
     5.9176   5.9176   7.3077   7.3119   8.7122   8.7126  10.3678  10.3721

     occupation numbers 
     1.0000   1.0000   1.0000   1.0000   1.0000   1.0000   1.0000   1.0000
     1.0000   1.0000   1.0014   1.0015  -0.0005  -0.0004  -0.0000  -0.0000

          k = 0.0000-0.3536-0.1179 (  5310 PWs)   bands (ev):

    -2.5622   1.1488   1.1618   1.8802   2.6077   2.6208   4.6953   5.4957
     5.5092   5.6085   6.9178   6.9315   6.9574   7.8638   8.9606   9.7823

     occupation numbers 
     1.0000   1.0000   1.0000   1.0000   1.0000   1.0000   1.0000   1.0000
     1.0000   1.0000   1.0000   1.0000   1.0000   0.8214  -0.0000  -0.0000

          k = 0.3536 0.0000-0.1179 (  5310 PWs)   bands (ev):

    -2.5622   1.1553   1.1553   1.8802   2.6142   2.6142   4.6953   5.5024
     5.5026   5.6084   6.9243   6.9249   6.9576   7.8638   8.9606   9.7822

     occupation numbers 
     1.0000   1.0000   1.0000   1.0000   1.0000   1.0000   1.0000   1.0000
     1.0000   1.0000   1.0000   1.0000   1.0000   0.8214  -0.0000  -0.0000

          k =-0.0589-0.4125-0.1768 (  5308 PWs)   bands (ev):

    -2.2644   0.3425   1.0786   1.4413   2.5381   3.2610   4.3023   5.4226
     5.5750   6.1331   7.4465   7.5501   7.9997   8.2564   8.7473   9.1395

     occupation numbers 
     1.0000   1.0000   1.0000   1.0000   1.0000   1.0000   1.0000   1.0000
     1.0000   1.0000   1.0093   1.0244   0.4310  -0.0276  -0.0002  -0.0000

          k = 0.4125-0.0589-0.1768 (  5308 PWs)   bands (ev):

    -2.2644   0.3426   1.0785   1.4414   2.5382   3.2610   4.3023   5.4227
     5.5749   6.1331   7.4465   7.5502   7.9997   8.2563   8.7473   9.1395

     occupation numbers 
     1.0000   1.0000   1.0000   1.0000   1.0000   1.0000   1.0000   1.0000
     1.0000   1.0000   1.0093   1.0245   0.4308  -0.0275  -0.0002  -0.0000

          k = 0.5893 0.2357 0.4714 (  5303 PWs)   bands (ev):

    -1.8735  -0.3820   1.0886   1.0965   2.5523   3.9766   3.9915   5.3394
     5.4299   6.8235   6.8435   8.1620   8.2540   8.5768   9.6593   9.8626

     occupation numbers 
     1.0000   1.0000   1.0000   1.0000   1.0000   1.0000   1.0000   1.0000
     1.0000   1.0000   1.0000   0.0479  -0.0268  -0.0039  -0.0000  -0.0000

          k =-0.2357 0.5893 0.4714 (  5303 PWs)   bands (ev):

    -1.8735  -0.3820   1.0886   1.0965   2.5523   3.9766   3.9914   5.3394
     5.4299   6.8235   6.8435   8.1620   8.2541   8.5768   9.6593   9.8626

     occupation numbers 
     1.0000   1.0000   1.0000   1.0000   1.0000   1.0000   1.0000   1.0000
     1.0000   1.0000   1.0000   0.0479  -0.0268  -0.0039  -0.0000  -0.0000

          k = 0.5303 0.1768 0.4125 (  5304 PWs)   bands (ev):

    -1.3902  -1.0171   0.8324   1.1998   2.6563   3.7313   4.7967   5.1169
     5.5250   5.9058   7.2712   7.6262   9.0293   9.6750  10.0324  10.0659

     occupation numbers 
     1.0000   1.0000   1.0000   1.0000   1.0000   1.0000   1.0000   1.0000
     1.0000   1.0000   1.0007   1.0349  -0.0000  -0.0000  -0.0000  -0.0000

          k =-0.1768 0.5303 0.4125 (  5304 PWs)   bands (ev):

    -1.3902  -1.0171   0.8324   1.1998   2.6563   3.7312   4.7967   5.1169
     5.5250   5.9058   7.2712   7.6262   9.0293   9.6750  10.0324  10.0659

     occupation numbers 
     1.0000   1.0000   1.0000   1.0000   1.0000   1.0000   1.0000   1.0000
     1.0000   1.0000   1.0007   1.0348  -0.0000  -0.0000  -0.0000  -0.0000

          k = 0.4714 0.1179 0.3536 (  5303 PWs)   bands (ev):

    -1.5615  -0.8155   0.6644   1.3973   2.8496   3.5712   4.8692   5.1451
     5.5502   5.8161   6.4300   8.4637   8.8686   9.2415   9.8594  10.6412

     occupation numbers 
     1.0000   1.0000   1.0000   1.0000   1.0000   1.0000   1.0000   1.0000
     1.0000   1.0000   1.0000  -0.0149  -0.0000  -0.0000  -0.0000  -0.0000

          k =-0.1179 0.4714 0.3536 (  5303 PWs)   bands (ev):

    -1.5615  -0.8155   0.6644   1.3972   2.8496   3.5712   4.8692   5.1451
     5.5502   5.8161   6.4300   8.4637   8.8687   9.2414   9.8594  10.6412

     occupation numbers 
     1.0000   1.0000   1.0000   1.0000   1.0000   1.0000   1.0000   1.0000
     1.0000   1.0000   1.0000  -0.0149  -0.0000  -0.0000  -0.0000  -0.0000

          k = 0.4125 0.0589 0.2946 (  5305 PWs)   bands (ev):

    -2.0141  -0.1504   0.5881   1.6852   3.1309   3.4984   4.2035   4.9613
     5.6600   5.8027   6.6772   7.8842   8.4860   9.1893   9.3013  10.3702

     occupation numbers 
     1.0000   1.0000   1.0000   1.0000   1.0000   1.0000   1.0000   1.0000
     1.0000   1.0000   1.0000   0.7718  -0.0119  -0.0000  -0.0000  -0.0000

          k =-0.0589 0.4125 0.2946 (  5305 PWs)   bands (ev):

    -2.0141  -0.1505   0.5881   1.6852   3.1309   3.4984   4.2036   4.9613
     5.6601   5.8028   6.6772   7.8842   8.4859   9.1894   9.3013  10.3703

     occupation numbers 
     1.0000   1.0000   1.0000   1.0000   1.0000   1.0000   1.0000   1.0000
     1.0000   1.0000   1.0000   0.7719  -0.0119  -0.0000  -0.0000  -0.0000

          k = 0.3536 0.0000 0.2357 (  5295 PWs)   bands (ev):

    -2.3741   0.6037   0.6037   2.0625   3.4977   3.5129   3.5129   4.9707
     4.9707   5.7816   7.0771   7.8072   7.8072   7.8800   9.3702   9.9566

     occupation numbers 
     1.0000   1.0000   1.0000   1.0000   1.0000   1.0000   1.0000   1.0000
     1.0000   1.0000   1.0000   0.9312   0.9311   0.7824  -0.0000  -0.0000

          k =-0.0000 0.3536 0.2357 (  5295 PWs)   bands (ev):

    -2.3741   0.5972   0.6102   2.0625   3.4977   3.5064   3.5195   4.9641
     4.9773   5.7817   7.0771   7.8002   7.8140   7.8801   9.3702   9.9566

     occupation numbers 
     1.0000   1.0000   1.0000   1.0000   1.0000   1.0000   1.0000   1.0000
     1.0000   1.0000   1.0000   0.9417   0.9201   0.7823  -0.0000  -0.0000

          k = 0.0000-0.4714-0.1179 (  5306 PWs)   bands (ev):

    -2.1235   0.8400   0.8477   0.8572   2.3052   2.3182   5.1084   6.0129
     6.6018   6.6156   7.3190   8.0153   8.0279   8.0320   8.2535   8.7950

     occupation numbers 
     1.0000   1.0000   1.0000   1.0000   1.0000   1.0000   1.0000   1.0000
     1.0000   1.0000   1.0016   0.3834   0.3459   0.3340  -0.0266  -0.0001

          k = 0.4714 0.0000-0.1179 (  5306 PWs)   bands (ev):

    -2.1236   0.8423   0.8491   0.8535   2.3117   2.3117   5.1084   6.0129
     6.6087   6.6087   7.3190   8.0221   8.0227   8.0304   8.2535   8.7950

     occupation numbers 
     1.0000   1.0000   1.0000   1.0000   1.0000   1.0000   1.0000   1.0000
     1.0000   1.0000   1.0016   0.3629   0.3613   0.3386  -0.0266  -0.0001

          k = 0.6482 0.1768 0.5303 (  5307 PWs)   bands (ev):

    -1.7642   0.0962   0.4642   0.8336   2.2959   3.0213   4.7772   6.0363
     6.5705   6.8858   7.2768   8.1025   8.1376   8.6845   9.2219   9.3868

     occupation numbers 
     1.0000   1.0000   1.0000   1.0000   1.0000   1.0000   1.0000   1.0000
     1.0000   1.0000   1.0008   0.1528   0.0852  -0.0007  -0.0000  -0.0000

          k =-0.1768 0.6482 0.5303 (  5307 PWs)   bands (ev):

    -1.7642   0.0962   0.4642   0.8335   2.2959   3.0213   4.7772   6.0362
     6.5706   6.8859   7.2767   8.1028   8.1373   8.6846   9.2219   9.3867

     occupation numbers 
     1.0000   1.0000   1.0000   1.0000   1.0000   1.0000   1.0000   1.0000
     1.0000   1.0000   1.0008   0.1522   0.0856  -0.0007  -0.0000  -0.0000

          k = 0.5893 0.1179 0.4714 (  5309 PWs)   bands (ev):

    -1.3124  -0.5677   0.1726   0.9098   2.3706   3.8160   4.5126   5.7814
     6.0404   6.5967   7.2951   8.0022   9.0873   9.4033   9.8094  10.1612

     occupation numbers 
     1.0000   1.0000   1.0000   1.0000   1.0000   1.0000   1.0000   1.0000
     1.0000   1.0000   1.0011   0.4231  -0.0000  -0.0000  -0.0000  -0.0000

          k =-0.1179 0.5893 0.4714 (  5309 PWs)   bands (ev):

    -1.3124  -0.5676   0.1726   0.9097   2.3706   3.8159   4.5126   5.7814
     6.0404   6.5968   7.2951   8.0022   9.0873   9.4033   9.8094  10.1612

     occupation numbers 
     1.0000   1.0000   1.0000   1.0000   1.0000   1.0000   1.0000   1.0000
     1.0000   1.0000   1.0011   0.4232  -0.0000  -0.0000  -0.0000  -0.0000

          k = 0.5303 0.0589 0.4125 (  5305 PWs)   bands (ev):

    -1.1414  -0.7690  -0.0274   1.0775   2.5353   4.3274   4.6927   5.0258
     5.7610   6.4525   6.6368   8.6904   8.7319  10.1272  10.2424  10.6503

     occupation numbers 
     1.0000   1.0000   1.0000   1.0000   1.0000   1.0000   1.0000   1.0000
     1.0000   1.0000   1.0000  -0.0007  -0.0003  -0.0000  -0.0000  -0.0000

          k =-0.0589 0.5303 0.4125 (  5305 PWs)   bands (ev):

    -1.1414  -0.7690  -0.0273   1.0774   2.5353   4.3273   4.6927   5.0259
     5.7609   6.4526   6.6368   8.6901   8.7321  10.1272  10.2424  10.7618

     occupation numbers 
     1.0000   1.0000   1.0000   1.0000   1.0000   1.0000   1.0000   1.0000
     1.0000   1.0000   1.0000  -0.0007  -0.0003  -0.0000  -0.0000  -0.0000

          k = 0.4714 0.0000 0.3536 (  5300 PWs)   bands (ev):

    -1.6239  -0.1351  -0.1351   1.3362   2.7893   4.2254   4.2254   5.6454
     5.6668   5.6669   6.4758   7.9463   9.2594   9.8848   9.8848  10.6413

     occupation numbers 
     1.0000   1.0000   1.0000   1.0000   1.0000   1.0000   1.0000   1.0000
     1.0000   1.0000   1.0000   0.5959  -0.0000  -0.0000  -0.0000  -0.0000

          k =-0.0000 0.4714 0.3536 (  5300 PWs)   bands (ev):

    -1.6238  -0.1416  -0.1286   1.3362   2.7893   4.2189   4.2320   5.6454
     5.6602   5.6735   6.4759   7.9463   9.2595   9.8776   9.8920  10.6416

     occupation numbers 
     1.0000   1.0000   1.0000   1.0000   1.0000   1.0000   1.0000   1.0000
     1.0000   1.0000   1.0000   0.5960  -0.0000  -0.0000  -0.0000  -0.0000

          k = 0.7071 0.1179 0.5893 (  5317 PWs)   bands (ev):

    -1.5615  -0.0740   0.6585   0.6715   2.1231   2.1362   5.6373   6.5337
     7.0084   7.7624   7.7767   7.9244   7.9857   8.6602   9.1658   9.1804

     occupation numbers 
     1.0000   1.0000   1.0000   1.0000   1.0000   1.0000   1.0000   1.0000
     1.0000   0.9875   0.9722   0.6614   0.4743  -0.0011  -0.0000  -0.0000

          k =-0.1179 0.7071 0.5893 (  5317 PWs)   bands (ev):

    -1.5615  -0.0740   0.6650   0.6650   2.1296   2.1296   5.6372   6.5337
     7.0085   7.7695   7.7696   7.9246   7.9856   8.6602   9.1731   9.1731

     occupation numbers 
     1.0000   1.0000   1.0000   1.0000   1.0000   1.0000   1.0000   1.0000
     1.0000   0.9802   0.9802   0.6608   0.4746  -0.0011  -0.0000  -0.0000

          k = 0.6482 0.0589 0.5303 (  5314 PWs)   bands (ev):

    -1.1415  -0.3979  -0.0270   0.7109   2.1745   2.9009   5.3672   6.0609
     6.6443   7.3320   7.6851   8.3844   8.6508   9.2328   9.7549   9.7813

     occupation numbers 
     1.0000   1.0000   1.0000   1.0000   1.0000   1.0000   1.0000   1.0000
     1.0000   1.0020   1.0312  -0.0278  -0.0013  -0.0000  -0.0000  -0.0000

          k =-0.0589 0.6482 0.5303 (  5314 PWs)   bands (ev):

    -1.1415  -0.3979  -0.0270   0.7108   2.1746   2.9008   5.3672   6.0609
     6.6442   7.3320   7.6852   8.3843   8.6508   9.2328   9.7545   9.7818

     occupation numbers 
     1.0000   1.0000   1.0000   1.0000   1.0000   1.0000   1.0000   1.0000
     1.0000   1.0020   1.0312  -0.0279  -0.0013  -0.0000  -0.0000  -0.0000

          k = 0.5893-0.0000 0.4714 (  5314 PWs)   bands (ev):

    -0.6351  -0.6297  -0.6242   0.8485   2.3100   3.7566   5.1610   5.1610
     6.5402   6.5402   7.4025   8.7948   8.8959   9.6944   9.6945  10.2954

     occupation numbers 
     1.0000   1.0000   1.0000   1.0000   1.0000   1.0000   1.0000   1.0000
     1.0000   1.0000   1.0055  -0.0001  -0.0000  -0.0000  -0.0000  -0.0000

          k =-0.0000 0.5893 0.4714 (  5314 PWs)   bands (ev):

    -0.6382  -0.6296  -0.6212   0.8484   2.3100   3.7566   5.1544   5.1677
     6.5332   6.5471   7.4026   8.7947   8.8959   9.6890   9.6998  10.1885

     occupation numbers 
     1.0000   1.0000   1.0000   1.0000   1.0000   1.0000   1.0000   1.0000
     1.0000   1.0000   1.0055  -0.0001  -0.0000  -0.0000  -0.0000  -0.0000

          k = 0.0000 0.7071-0.1179 (  5314 PWs)   bands (ev):

    -0.8777  -0.8776   0.5971   0.6101   2.0624   2.0754   6.2779   6.2779
     7.1708   7.1709   8.5204   8.5205   8.5546   8.5703   9.6919   9.6919

     occupation numbers 
     1.0000   1.0000   1.0000   1.0000   1.0000   1.0000   1.0000   1.0000
     1.0001   1.0001  -0.0081  -0.0081  -0.0053  -0.0043  -0.0000  -0.0000

          k =-0.7071 0.0000-0.1179 (  5314 PWs)   bands (ev):

    -0.8841  -0.8712   0.6036   0.6036   2.0689   2.0689   6.2710   6.2849
     7.1631   7.1785   8.5168   8.5239   8.5625   8.5628   9.6876   9.6963

     occupation numbers 
     1.0000   1.0000   1.0000   1.0000   1.0000   1.0000   1.0000   1.0000
     1.0001   1.0001  -0.0085  -0.0078  -0.0048  -0.0048  -0.0000  -0.0000

          k = 0.7071 0.2357 0.4714 (  5301 PWs)   bands (ev):

    -1.9360   0.2898   0.3028   1.0305   3.2091   3.2223   3.9170   6.0699
     6.0835   6.1867   6.7057   7.6816   8.8926   8.9068   8.9693   9.6782

     occupation numbers 
     1.0000   1.0000   1.0000   1.0000   1.0000   1.0000   1.0000   1.0000
     1.0000   1.0000   1.0000   1.0320  -0.0000  -0.0000  -0.0000  -0.0000

          k =-0.2357 0.7071 0.4714 (  5301 PWs)   bands (ev):

    -1.9360   0.2963   0.2963   1.0305   3.2157   3.2157   3.9170   6.0767
     6.0769   6.1866   6.7057   7.6816   8.8996   8.8997   8.9693   9.6781

     occupation numbers 
     1.0000   1.0000   1.0000   1.0000   1.0000   1.0000   1.0000   1.0000
     1.0000   1.0000   1.0000   1.0320  -0.0000  -0.0000  -0.0000  -0.0000

          k = 0.6482 0.1768 0.4125 (  5297 PWs)   bands (ev):

    -1.5148  -0.3976   0.3422   0.7098   3.2593   3.6117   3.9778   5.7348
     6.1000   6.2977   6.8053   8.3331   8.3800   9.6149  10.2903  10.3149

     occupation numbers 
     1.0000   1.0000   1.0000   1.0000   1.0000   1.0000   1.0000   1.0000
     1.0000   1.0000   1.0000  -0.0345  -0.0285  -0.0000  -0.0000  -0.0000

          k =-0.1768 0.6482 0.4125 (  5297 PWs)   bands (ev):

    -1.5148  -0.3975   0.3422   0.7099   3.2594   3.6117   3.9777   5.7348
     6.1001   6.2977   6.8053   8.3334   8.3798   9.6150  10.2904  10.3148

     occupation numbers 
     1.0000   1.0000   1.0000   1.0000   1.0000   1.0000   1.0000   1.0000
     1.0000   1.0000   1.0000  -0.0345  -0.0286  -0.0000  -0.0000  -0.0000

          k = 0.5893 0.1179 0.3536 (  5292 PWs)   bands (ev):

    -1.0055  -0.9978   0.4763   0.4841   3.3916   3.3919   4.8202   4.8208
     6.1856   6.1938   7.5885   7.5929   9.3908   9.3952  10.3862  10.3867

     occupation numbers 
     1.0000   1.0000   1.0000   1.0000   1.0000   1.0000   1.0000   1.0000
     1.0000   1.0000   1.0307   1.0313  -0.0000  -0.0000  -0.0000  -0.0000

          k = 0.7071 0.1179 0.4714 (  5308 PWs)   bands (ev):

    -1.3747   0.1029   0.1112   0.1199   3.0290   3.0421   4.4538   5.8670
     6.7074   7.2344   7.2486   8.0984   8.1720   9.4701  10.0377  10.0526

     occupation numbers 
     1.0000   1.0000   1.0000   1.0000   1.0000   1.0000   1.0000   1.0000
     1.0000   1.0004   1.0005   0.1618   0.0350  -0.0000  -0.0000  -0.0000

          k =-0.1179 0.7071 0.4714 (  5308 PWs)   bands (ev):

    -1.3747   0.1058   0.1116   0.1168   3.0355   3.0355   4.4538   5.8671
     6.7073   7.2415   7.2415   8.0985   8.1718   9.4702  10.0451  10.0452

     occupation numbers 
     1.0000   1.0000   1.0000   1.0000   1.0000   1.0000   1.0000   1.0000
     1.0000   1.0004   1.0004   0.1614   0.0351  -0.0000  -0.0000  -0.0000

          k = 0.6482 0.0589 0.4125 (  5301 PWs)   bands (ev):

    -0.8931  -0.5213  -0.1508   0.2192   3.1392   3.8598   4.2099   4.9222
     6.8694   7.2186   7.5669   7.9176   8.9137   9.2784   9.5950   9.9745

     occupation numbers 
     1.0000   1.0000   1.0000   1.0000   1.0000   1.0000   1.0000   1.0000
     1.0000   1.0003   1.0273   0.6809  -0.0000  -0.0000  -0.0000  -0.0000

          k =-0.0589 0.6482 0.4125 (  5301 PWs)   bands (ev):

    -0.8932  -0.5213  -0.1507   0.2192   3.1393   3.8597   4.2099   4.9223
     6.8693   7.2187   7.5670   7.9176   8.9137   9.2784   9.5950   9.9744

     occupation numbers 
     1.0000   1.0000   1.0000   1.0000   1.0000   1.0000   1.0000   1.0000
     1.0000   1.0003   1.0273   0.6811  -0.0000  -0.0000  -0.0000  -0.0000

          k = 0.5893 0.0000 0.3536 (  5311 PWs)   bands (ev):

    -1.0638  -0.3204  -0.3204   0.4188   3.3318   4.0506   4.0506   4.7651
     6.8306   6.8308   6.9971   8.3886   8.4750   9.8609  10.0267  10.0268

     occupation numbers 
     1.0000   1.0000   1.0000   1.0000   1.0000   1.0000   1.0000   1.0000
     1.0000   1.0000   1.0000  -0.0271  -0.0134  -0.0000  -0.0000  -0.0000

          k = 0.0000 0.5893 0.3536 (  5311 PWs)   bands (ev):

    -1.0638  -0.3269  -0.3139   0.4187   3.3318   4.0440   4.0572   4.7651
     6.8236   6.8377   6.9971   8.3885   8.4751   9.8609  10.0208  10.0327

     occupation numbers 
     1.0000   1.0000   1.0000   1.0000   1.0000   1.0000   1.0000   1.0000
     1.0000   1.0000   1.0000  -0.0272  -0.0133  -0.0000  -0.0000  -0.0000

          k = 0.0000 0.7071-0.2357 (  5316 PWs)   bands (ev):

    -0.6918  -0.6917   0.0435   0.0564   2.9688   2.9819   5.1058   5.1058
     7.3446   7.3447   8.0326   8.0482   8.7977   8.7979   9.5387   9.5495

     occupation numbers 
     1.0000   1.0000   1.0000   1.0000   1.0000   1.0000   1.0000   1.0000
     1.0024   1.0024   0.3322   0.2878  -0.0001  -0.0001  -0.0000  -0.0000

          k =-0.7071 0.0000-0.2357 (  5316 PWs)   bands (ev):

    -0.6982  -0.6852   0.0499   0.0500   2.9753   2.9753   5.0991   5.1126
     7.3369   7.3524   8.0404   8.0404   8.7928   8.8028   9.5440   9.5441

     occupation numbers 
     1.0000   1.0000   1.0000   1.0000   1.0000   1.0000   1.0000   1.0000
     1.0022   1.0027   0.3097   0.3096  -0.0001  -0.0001  -0.0000  -0.0000

          k = 0.0000 0.7071-0.3536 (  5268 PWs)   bands (ev):

    -0.3923  -0.3822  -0.3822  -0.3721   3.9848   3.9914   3.9914   3.9981
     7.6244   7.6345   7.6345   7.6445   9.1112   9.1193   9.1193   9.1273

     occupation numbers 
     1.0000   1.0000   1.0000   1.0000   1.0000   1.0000   1.0000   1.0000
     1.0347   1.0353   1.0353   1.0355  -0.0000  -0.0000  -0.0000  -0.0000

     the Fermi energy is     7.9774 ev

!    total energy              =    -316.01483093 Ry
     total all-electron energy =      -316.014831 Ry
     estimated scf accuracy    <          9.3E-17 Ry
     smearing contrib. (-TS)   =      -0.00063047 Ry
     internal energy E=F+TS    =    -316.01420046 Ry

     The total energy is F=E-TS. E is the sum of the following terms:
     one-electron contribution =      25.29902190 Ry
     hartree contribution      =       0.06584471 Ry
     xc contribution           =     -16.83176644 Ry
     ewald contribution        =     -43.26274148 Ry
     one-center paw contrib.   =    -281.28455915 Ry
      -> PAW hartree energy AE =       0.30750877 Ry
      -> PAW hartree energy PS =      -0.29818686 Ry
      -> PAW xc energy AE      =     -36.02471118 Ry
      -> PAW xc energy PS      =       0.85481449 Ry
      -> total E_H with PAW    =       0.07516662 Ry
      -> total E_XC with PAW   =     -52.00166313 Ry

     convergence has been achieved in  15 iterations

     negative rho (up, down):  5.537E-03 0.000E+00

     Forces acting on atoms (cartesian axes, Ry/au):

     atom    1 type  1   force =    -0.00173450    0.00000000    0.00000000
     atom    2 type  1   force =     0.00048217    0.00000000   -0.00053506
     atom    3 type  1   force =    -0.00013034    0.00000000    0.00000000
     atom    4 type  1   force =     0.00048217    0.00053506   -0.00000000
     atom    5 type  1   force =     0.00048217   -0.00053506    0.00000000
     atom    6 type  1   force =    -0.00013034    0.00000000    0.00000000
     atom    7 type  1   force =     0.00048217    0.00000000    0.00053506
     atom    8 type  1   force =     0.00006651    0.00000000    0.00000000
     The non-local contrib.  to forces
     atom    1 type  1   force =    -0.00442753    0.00000000   -0.00000000
     atom    2 type  1   force =     0.00103468    0.00000000   -0.00109137
     atom    3 type  1   force =     0.00012187    0.00000000   -0.00000000
     atom    4 type  1   force =     0.00103468    0.00109137    0.00000000
     atom    5 type  1   force =     0.00103468   -0.00109137   -0.00000000
     atom    6 type  1   force =     0.00012187    0.00000000   -0.00000000
     atom    7 type  1   force =     0.00103468    0.00000000    0.00109137
     atom    8 type  1   force =     0.00004509    0.00000000    0.00000000
     The ionic contribution  to forces
     atom    1 type  1   force =    -0.01122514   -0.00000000   -0.00000000
     atom    2 type  1   force =     0.00326267   -0.00000000   -0.00553604
     atom    3 type  1   force =    -0.00171461    0.00000000    0.00000000
     atom    4 type  1   force =     0.00326267    0.00553604    0.00000000
     atom    5 type  1   force =     0.00326267   -0.00553604   -0.00000000
     atom    6 type  1   force =    -0.00171461   -0.00000000   -0.00000000
     atom    7 type  1   force =     0.00326267    0.00000000    0.00553604
     atom    8 type  1   force =     0.00160367    0.00000000    0.00000000
     The local contribution  to forces
     atom    1 type  1   force =     0.01362260    0.00000000   -0.00000000
     atom    2 type  1   force =    -0.00374380    0.00000000    0.00601480
     atom    3 type  1   force =     0.00146610   -0.00000000   -0.00000000
     atom    4 type  1   force =    -0.00374380   -0.00601480   -0.00000000
     atom    5 type  1   force =    -0.00374380    0.00601480    0.00000000
     atom    6 type  1   force =     0.00146610   -0.00000000   -0.00000000
     atom    7 type  1   force =    -0.00374380   -0.00000000   -0.00601480
     atom    8 type  1   force =    -0.00157966   -0.00000000   -0.00000000
     The core correction contribution to forces
     atom    1 type  1   force =     0.00029558    0.00000000   -0.00000000
     atom    2 type  1   force =    -0.00007139    0.00000000    0.00007756
     atom    3 type  1   force =    -0.00000370    0.00000000   -0.00000000
     atom    4 type  1   force =    -0.00007139   -0.00007756   -0.00000000
     atom    5 type  1   force =    -0.00007139    0.00007756    0.00000000
     atom    6 type  1   force =    -0.00000370   -0.00000000   -0.00000000
     atom    7 type  1   force =    -0.00007139   -0.00000000   -0.00007756
     atom    8 type  1   force =    -0.00000258   -0.00000000   -0.00000000
     The Hubbard contrib.    to forces
     atom    1 type  1   force =     0.00000000    0.00000000    0.00000000
     atom    2 type  1   force =     0.00000000    0.00000000    0.00000000
     atom    3 type  1   force =     0.00000000    0.00000000    0.00000000
     atom    4 type  1   force =     0.00000000    0.00000000    0.00000000
     atom    5 type  1   force =     0.00000000    0.00000000    0.00000000
     atom    6 type  1   force =     0.00000000    0.00000000    0.00000000
     atom    7 type  1   force =     0.00000000    0.00000000    0.00000000
     atom    8 type  1   force =     0.00000000    0.00000000    0.00000000
     The SCF correction term to forces
     atom    1 type  1   force =    -0.00000000    0.00000000    0.00000000
     atom    2 type  1   force =    -0.00000000    0.00000000   -0.00000000
     atom    3 type  1   force =     0.00000000    0.00000000   -0.00000000
     atom    4 type  1   force =    -0.00000000    0.00000000   -0.00000000
     atom    5 type  1   force =    -0.00000000   -0.00000000    0.00000000
     atom    6 type  1   force =     0.00000000    0.00000000    0.00000000
     atom    7 type  1   force =    -0.00000000   -0.00000000    0.00000000
     atom    8 type  1   force =     0.00000000   -0.00000000   -0.00000000

     Total force =     0.002263     Total SCF correction =     0.000000


     Computing stress (Cartesian axis) and pressure


     negative rho (up, down):  5.537E-03 0.000E+00
          total   stress  (Ry/bohr**3)                   (kbar)     P=       -0.03
  -0.00000018   0.00000000   0.00000000           -0.03        0.00        0.00
   0.00000000  -0.00000021  -0.00000000            0.00       -0.03       -0.00
   0.00000000  -0.00000000  -0.00000021            0.00       -0.00       -0.03

     kinetic stress (kbar)   1464.97      0.00      0.00
                                0.00   1464.97      0.00
                                0.00      0.00   1464.97

     local   stress (kbar)    -46.87     -0.00      0.00
                               -0.00    -46.91     -0.00
                                0.00     -0.00    -46.91

     nonloc. stress (kbar)   1751.55      0.00     -0.00
                                0.00   1751.56      0.00
                                0.00      0.00   1751.56

     hartree stress (kbar)      3.63     -0.00     -0.00
                               -0.00      3.64     -0.00
                               -0.00     -0.00      3.64

     exc-cor stress (kbar)    -86.34     -0.00      0.00
                               -0.00    -86.34     -0.00
                                0.00     -0.00    -86.34

     corecor stress (kbar)   -699.36     -0.00      0.00
                               -0.00   -699.36     -0.00
                                0.00     -0.00   -699.36

     ewald   stress (kbar)  -2387.61      0.00      0.00
                                0.00  -2387.58      0.00
                                0.00      0.00  -2387.58

     hubbard stress (kbar)      0.00      0.00      0.00
                                0.00      0.00      0.00
                                0.00      0.00      0.00

     DFT-D   stress (kbar)      0.00      0.00      0.00
                                0.00      0.00      0.00
                                0.00      0.00      0.00

     XDM     stress (kbar)      0.00      0.00      0.00
                                0.00      0.00      0.00
                                0.00      0.00      0.00

     dft-nl  stress (kbar)      0.00      0.00      0.00
                                0.00      0.00      0.00
                                0.00      0.00      0.00

     TS-vdW  stress (kbar)      0.00      0.00      0.00
                                0.00      0.00      0.00
                                0.00      0.00      0.00

     MDB     stress (kbar)      0.00      0.00      0.00
                                0.00      0.00      0.00
                                0.00      0.00      0.00

     3D-RISM stress (kbar)      0.00      0.00      0.00
                                0.00      0.00      0.00
                                0.00      0.00      0.00


     Writing all to output data dir ./scratch_runs/atom01_x_plus/al.save/ :
     XML data file, charge density, pseudopotentials, collected wavefunctions
 
     init_run     :      2.04s CPU      2.11s WALL (       1 calls)
     electrons    :     23.63s CPU     24.34s WALL (       1 calls)
     forces       :      0.08s CPU      0.09s WALL (       1 calls)
     stress       :      0.33s CPU      0.34s WALL (       1 calls)

     Called by init_run:
     wfcinit      :      1.84s CPU      1.89s WALL (       1 calls)
     wfcinit:atom :      0.01s CPU      0.01s WALL (     163 calls)
     wfcinit:wfcr :      1.67s CPU      1.73s WALL (     163 calls)
     potinit      :      0.13s CPU      0.14s WALL (       1 calls)
     hinit0       :      0.04s CPU      0.04s WALL (       1 calls)

     Called by electrons:
     c_bands      :     18.97s CPU     19.45s WALL (      16 calls)
     sum_band     :      3.45s CPU      3.54s WALL (      16 calls)
     v_of_rho     :      0.05s CPU      0.05s WALL (      16 calls)
     v_h          :      0.00s CPU      0.00s WALL (      16 calls)
     v_xc         :      0.05s CPU      0.06s WALL (      18 calls)
     newd         :      0.02s CPU      0.04s WALL (      16 calls)
     PAW_pot      :      1.25s CPU      1.38s WALL (      16 calls)
     mix_rho      :      0.01s CPU      0.01s WALL (      16 calls)

     Called by c_bands:
     init_us_2    :      0.44s CPU      0.45s WALL (    5705 calls)
     cegterg      :     17.96s CPU     18.40s WALL (    2608 calls)

     Called by sum_band:
     sum_band:wei :      0.03s CPU      0.03s WALL (      16 calls)
     sum_band:loo :      3.39s CPU      3.48s WALL (      16 calls)
     sum_band:buf :      0.04s CPU      0.04s WALL (    2608 calls)
     sum_band:ini :      0.19s CPU      0.20s WALL (    2608 calls)
     sum_band:cal :      0.22s CPU      0.22s WALL (    2608 calls)
     sum_band:bec :      0.01s CPU      0.01s WALL (    2608 calls)
     addusdens    :      0.03s CPU      0.03s WALL (      16 calls)
                                        0.00s GPU  (      16 calls)
     addusd:skk   :      0.00s CPU      0.00s WALL (      16 calls)
                                        0.00s GPU  (      16 calls)

     Called by *egterg:
     cdiaghg      :      1.76s CPU      1.80s WALL (    8647 calls)
     cegterg:over :      0.55s CPU      0.57s WALL (    6202 calls)
     cegterg:upda :      0.17s CPU      0.17s WALL (    6202 calls)
     cegterg:last :      0.28s CPU      0.28s WALL (    4717 calls)
     h_psi        :     15.84s CPU     16.24s WALL (    8973 calls)
     s_psi        :      0.43s CPU      0.44s WALL (    8973 calls)
     g_psi        :      0.05s CPU      0.05s WALL (    6202 calls)

     Called by h_psi:
     h_psi:calbec :      0.79s CPU      0.81s WALL (    8973 calls)
     vloc_psi     :     14.46s CPU     14.82s WALL (    8973 calls)
     add_vuspsi   :      0.49s CPU      0.50s WALL (    8973 calls)

     General routines
     calbec       :      1.21s CPU      1.25s WALL (   14352 calls)
     fft          :      0.03s CPU      0.03s WALL (     202 calls)
     ffts         :      0.00s CPU      0.00s WALL (      16 calls)
     fftw         :     15.03s CPU     15.42s WALL (  273558 calls)
 
     Parallel routines

     PAW routines
     PAW_pot      :      1.25s CPU      1.38s WALL (      16 calls)
     PAW_symme    :      0.00s CPU      0.00s WALL (      32 calls)
 
     PWSCF        :     26.36s CPU     27.86s WALL

 
   This run was terminated on:  23:15:20  15Jun2026            

=------------------------------------------------------------------------------=
   JOB DONE.
=------------------------------------------------------------------------------=

===== TIMING =====
Job:           atom01_x_plus
Start:         2026-06-15T23:14:51+02:00
End:           2026-06-15T23:15:20+02:00
Duration (s):  29
Duration (H:M:S): 00:00:29
==================
