
     Program PWSCF v.7.4 starts on 10Jun2026 at 18:54:55 

     This program is part of the open-source Quantum ESPRESSO suite
     for quantum simulation of materials; please cite
         "P. Giannozzi et al., J. Phys.:Condens. Matter 21 395502 (2009);
         "P. Giannozzi et al., J. Phys.:Condens. Matter 29 465901 (2017);
         "P. Giannozzi et al., J. Chem. Phys. 152 154105 (2020);
          URL http://www.quantum-espresso.org", 
     in publications or presentations arising from this work. More details at
     http://www.quantum-espresso.org/quote

     Parallel version (MPI), running on    48 processors

     MPI processes distributed on     1 nodes
     205774 MiB available memory on the printing compute node when the environment starts
 
     Reading input from si_sup.scf.in

     Current dimensions of program PWSCF are:
     Max number of different atomic species (ntypx) = 10
     Max number of k-points (npk) =  40000
     Max angular momentum in pseudopotentials (lmaxx) =  4
     file Si_NC_PBE.upf: wavefunction(s)  4f renormalized

     IMPORTANT: XC functional enforced from input :
     Exchange-correlation= HSE
                           (   1   4  12   4   0   0   0)
     EXX-fraction              =        0.25
     Any further DFT definition will be discarded
     Please, verify this is what you really want

     EXX fraction changed:   0.25
     Found identity + ( -0.5000  0.0000  0.0000) symmetry
     This is a supercell, fractional translations are disabled
     Message from routine setup:
     using ibrav=0 with symmetry is DISCOURAGED, use correct ibrav instead
 
     K-points division:     npool     =       2
     R & G space division:  proc/nbgrp/npool/nimage =      24
     Subspace diagonalization in iterative solution of the eigenvalue problem:
     a serial algorithm will be used

     EXX: q-point mesh:     6    6    6
     EXX: setup a grid of 216 q-points centered on each k-point
     (set verbosity='high' to see the list)
 
     Parallelization info
     --------------------
     sticks:   dense  smooth     PW     G-vecs:    dense   smooth      PW
     Min         121     121     33                 4307     4307     627
     Max         122     122     34                 4311     4311     630
     Sum        2905    2905    805               103379   103379   15089
 
     Using Slab Decomposition
 


     bravais-lattice index     =            0
     lattice parameter (alat)  =      14.5142  a.u.
     unit-cell volume          =    2162.0514 (a.u.)^3
     number of atoms/cell      =           16
     number of atomic types    =            1
     number of electrons       =        64.00
     number of Kohn-Sham states=           32
     kinetic-energy cutoff     =      50.0000  Ry
     charge density cutoff     =     200.0000  Ry
     cutoff for Fock operator  =     200.0000  Ry
     scf convergence threshold =      1.0E-08
     mixing beta               =       0.7000
     number of iterations used =            8  plain     mixing
     Exchange-correlation= HSE
                           (   1   4  12   4   0   0   0)
     EXX-fraction              =        0.25

     celldm(1)=  14.514219  celldm(2)=   0.000000  celldm(3)=   0.000000
     celldm(4)=   0.000000  celldm(5)=   0.000000  celldm(6)=   0.000000

     crystal axes: (cart. coord. in units of alat)
               a(1) = (  -0.707107   0.000000   0.707107 )  
               a(2) = (   0.000000   0.707107   0.707107 )  
               a(3) = (  -0.707107   0.707107   0.000000 )  

     reciprocal axes: (cart. coord. in units 2 pi/alat)
               b(1) = ( -0.707107 -0.707107  0.707107 )  
               b(2) = (  0.707107  0.707107  0.707107 )  
               b(3) = ( -0.707107  0.707107 -0.707107 )  


     PseudoPot. # 1 for Si read from file:
     ../../../pseudopotentzialak/Si_NC_PBE.upf
     MD5 check sum: 2f548285ada518390005852429903be6
     Pseudo is Norm-conserving, Zval =  4.0
     Generated using FHI98PP, converted with fhi2upf.x v.5.0.2
     Using radial grid of  495 points,  3 beta functions with: 
                l(1) =   0
                l(2) =   1
                l(3) =   3

     atomic species   valence    mass     pseudopotential
     Si                4.00    28.08600     Si( 1.00)

     24 Sym. Ops. (no inversion) found



   Cartesian axes

     site n.     atom                  positions (alat units)
         1        Si     tau(   1) = (   0.0000000   0.0000000   0.0000000  )
         2        Si     tau(   2) = (  -0.1767767   0.1767767   0.1767767  )
         3        Si     tau(   3) = (  -0.3535534   0.0000000   0.3535534  )
         4        Si     tau(   4) = (  -0.5303301   0.1767767   0.5303301  )
         5        Si     tau(   5) = (   0.0000000   0.3535534   0.3535534  )
         6        Si     tau(   6) = (  -0.1767767   0.5303301   0.5303301  )
         7        Si     tau(   7) = (  -0.3535534   0.3535534   0.0000000  )
         8        Si     tau(   8) = (  -0.5303301   0.5303301   0.1767767  )
         9        Si     tau(   9) = (  -0.3535534   0.3535534   0.7071068  )
        10        Si     tau(  10) = (  -0.5303301   0.5303301   0.8838835  )
        11        Si     tau(  11) = (  -0.7071068   0.3535534   0.3535534  )
        12        Si     tau(  12) = (  -0.8838835   0.5303301   0.5303301  )
        13        Si     tau(  13) = (  -0.3535534   0.7071068   0.3535534  )
        14        Si     tau(  14) = (  -0.5303301   0.8838835   0.5303301  )
        15        Si     tau(  15) = (  -0.7071068   0.7071068   0.7071068  )
        16        Si     tau(  16) = (  -0.8838835   0.8838835   0.8838835  )

     number of k points=    16
                       cart. coord. in units 2pi/alat
        k(    1) = (   0.0000000   0.0000000   0.0000000), wk =   0.0092593
        k(    2) = (  -0.1178511   0.1178511  -0.1178511), wk =   0.0740741
        k(    3) = (  -0.2357023   0.2357023  -0.2357023), wk =   0.0740741
        k(    4) = (   0.3535534  -0.3535534   0.3535534), wk =   0.0370370
        k(    5) = (   0.0000000   0.2357023   0.0000000), wk =   0.0555556
        k(    6) = (  -0.1178511   0.3535534  -0.1178511), wk =   0.2222222
        k(    7) = (   0.4714045  -0.2357023   0.4714045), wk =   0.2222222
        k(    8) = (   0.3535534  -0.1178511   0.3535534), wk =   0.2222222
        k(    9) = (   0.2357023  -0.0000000   0.2357023), wk =   0.1111111
        k(   10) = (   0.0000000   0.4714045   0.0000000), wk =   0.0555556
        k(   11) = (   0.5892557  -0.1178511   0.5892557), wk =   0.2222222
        k(   12) = (   0.4714045  -0.0000000   0.4714045), wk =   0.1111111
        k(   13) = (   0.0000000  -0.7071068   0.0000000), wk =   0.0277778
        k(   14) = (   0.4714045  -0.2357023   0.7071068), wk =   0.2222222
        k(   15) = (   0.3535534  -0.1178511   0.5892557), wk =   0.2222222
        k(   16) = (  -0.2357023  -0.7071068   0.0000000), wk =   0.1111111

     Dense  grid:   103379 G-vectors     FFT dimensions: (  72,  72,  72)

     Estimated max dynamical RAM per process >     924.68 MB

     Estimated total dynamical RAM >      43.32 GB
     EXX: ACE will be initialized later

     Initial potential from superposition of free atoms

     starting charge      63.9887, renormalised to      64.0000
     Starting wfcs are  256 randomized atomic wfcs

     total cpu time spent up to now is        1.4 secs

     per-process dynamical memory:    60.4 Mb

     Self-consistent Calculation

     iteration #  1     ecut=    50.00 Ry     beta= 0.70
     Davidson diagonalization with overlap
     ethr =  1.00E-02,  avg # of iterations =  2.0

     Threshold (ethr) on eigenvalues was too large:
     Diagonalizing with lowered threshold

     Davidson diagonalization with overlap
     ethr =  6.72E-04,  avg # of iterations =  1.0

     total cpu time spent up to now is        2.1 secs

     total energy              =    -126.07731693 Ry
     estimated scf accuracy    <       0.44937230 Ry

     iteration #  2     ecut=    50.00 Ry     beta= 0.70
     Davidson diagonalization with overlap
     ethr =  7.02E-04,  avg # of iterations =  1.0

     total cpu time spent up to now is        2.5 secs

     total energy              =    -126.09644028 Ry
     estimated scf accuracy    <       0.02088560 Ry

     iteration #  3     ecut=    50.00 Ry     beta= 0.70
     Davidson diagonalization with overlap
     ethr =  3.26E-05,  avg # of iterations =  2.0

     total cpu time spent up to now is        2.9 secs

     total energy              =    -126.09930459 Ry
     estimated scf accuracy    <       0.00039638 Ry

     iteration #  4     ecut=    50.00 Ry     beta= 0.70
     Davidson diagonalization with overlap
     ethr =  6.19E-07,  avg # of iterations =  4.3

     total cpu time spent up to now is        3.5 secs

     total energy              =    -126.09950968 Ry
     estimated scf accuracy    <       0.00000147 Ry

     iteration #  5     ecut=    50.00 Ry     beta= 0.70
     Davidson diagonalization with overlap
     ethr =  2.29E-09,  avg # of iterations =  6.5

     total cpu time spent up to now is        4.3 secs

     total energy              =    -126.09951694 Ry
     estimated scf accuracy    <       0.00000066 Ry

     iteration #  6     ecut=    50.00 Ry     beta= 0.70
     Davidson diagonalization with overlap
     ethr =  1.03E-09,  avg # of iterations =  2.0

     total cpu time spent up to now is        4.8 secs

     total energy              =    -126.09951705 Ry
     estimated scf accuracy    <       0.00000009 Ry

     iteration #  7     ecut=    50.00 Ry     beta= 0.70
     Davidson diagonalization with overlap
     ethr =  1.40E-10,  avg # of iterations =  2.8

     total cpu time spent up to now is        5.3 secs

     total energy              =    -126.09951706 Ry
     estimated scf accuracy    <       0.00000002 Ry

     iteration #  8     ecut=    50.00 Ry     beta= 0.70
     Davidson diagonalization with overlap
     ethr =  2.44E-11,  avg # of iterations =  2.5

     total cpu time spent up to now is        5.7 secs

     End of self-consistent calculation

          k = 0.0000 0.0000 0.0000 ( 12939 PWs)   bands (ev):

    -5.7481  -3.4145  -3.4145  -3.4145  -3.4145  -1.6000  -1.6000  -1.6000
    -1.6000  -1.6000  -1.6000  -0.7497  -0.7497  -0.7497  -0.7497   3.3707
     3.3707   3.3707   3.3707   3.3707   3.3707   5.0230   5.0230   5.0230
     5.0230   5.0230   5.0230   5.0230   5.0230   6.2210   6.2210   6.2210

          k =-0.1179 0.1179-0.1179 ( 12939 PWs)   bands (ev):

    -5.6570  -3.7488  -3.3770  -3.3770  -3.3770  -2.1974  -2.1974  -2.1974
    -0.9331  -0.9331  -0.9331  -0.6466  -0.6466  -0.6466  -0.2442   3.0495
     3.0495   3.0495   3.4466   3.4466   3.4466   4.4399   4.4399   4.4399
     4.8462   4.8462   4.8462   5.0729   5.0729   5.3600   6.0777   6.0777

          k =-0.2357 0.2357-0.2357 ( 12885 PWs)   bands (ev):

    -5.3865  -4.3698  -3.2549  -3.2549  -3.2549  -2.6770  -2.6770  -2.6770
    -0.3863  -0.3863  -0.3863  -0.3485  -0.3485  -0.3485   0.8858   2.5933
     2.5933   2.5933   3.4455   3.4455   3.4455   3.6690   3.6690   3.6690
     3.8380   4.4465   4.4465   4.4465   5.2215   5.2215   5.7716   5.7716

          k = 0.3536-0.3536 0.3536 ( 12938 PWs)   bands (ev):

    -4.9475  -4.9474  -3.0274  -3.0274  -3.0274  -3.0274  -3.0274  -3.0274
    -0.1647  -0.1647  -0.1647  -0.1647  -0.1647  -0.1647   2.2927   2.2927
     2.6901   2.6901   2.6901   2.6901   2.6901   2.6901   4.0182   4.0182
     4.0182   4.0182   4.0182   4.0182   5.4623   5.4623   5.4623   5.4623

          k = 0.0000 0.2357 0.0000 ( 12951 PWs)   bands (ev):

    -5.6264  -3.4979  -3.4979  -3.4979  -3.4979  -2.8114  -1.5620  -1.5620
    -1.5620  -1.5620  -0.4689  -0.4689  -0.4689  -0.4689  -0.2450   3.0654
     3.0654   3.0654   3.0654   3.4804   3.4804   4.3448   4.3448   4.3448
     4.3448   4.9891   4.9891   4.9891   4.9891   5.5216   5.7925   5.7925

          k =-0.1179 0.3536-0.1179 ( 12894 PWs)   bands (ev):

    -5.4152  -4.0802  -3.5112  -3.5112  -3.3065  -3.1404  -2.1046  -2.1046
    -0.9248  -0.9248  -0.5461  -0.1411  -0.1411   0.4200   0.5036   2.4732
     2.4732   3.2319   3.2535   3.2535   3.3205   3.6594   3.6594   3.6630
     4.2899   4.3725   4.6303   4.6671   4.6671   5.2286   5.4291   5.6175

          k = 0.4714-0.2357 0.4714 ( 12908 PWs)   bands (ev):

    -5.0308  -4.6888  -3.6519  -3.3951  -3.3951  -2.7035  -2.5471  -2.5471
    -0.5790  -0.5195  -0.5195   0.1927   0.1927   0.7610   1.8179   2.2765
     2.2765   2.3272   2.7894   3.0002   3.0002   3.2367   3.6034   3.6034
     3.9797   4.0975   4.0975   4.1981   4.5327   5.1159   5.2941   5.5385

          k = 0.3536-0.1179 0.3536 ( 12892 PWs)   bands (ev):

    -5.1781  -4.4943  -3.8388  -3.1368  -3.1368  -2.8979  -2.8979  -2.2079
    -0.8395  -0.5136  -0.5136   0.1952   0.1952   0.5478   1.3536   2.0149
     2.7543   2.7543   2.7974   2.7974   3.2757   3.5955   3.5955   3.7900
     3.8227   4.0793   4.0793   4.3930   4.8374   4.9058   4.9410   5.8677

          k = 0.2357-0.0000 0.2357 ( 12901 PWs)   bands (ev):

    -5.5058  -3.8681  -3.8681  -3.1726  -3.1726  -2.7339  -2.7339  -1.7415
    -1.3372  -0.6394  -0.6394  -0.2816  -0.2816   0.1233   0.1233   2.3798
     3.1009   3.1009   3.2974   3.2974   3.5637   3.6237   3.6237   4.5755
     4.5755   4.6277   4.6447   4.6447   4.8156   4.8156   5.3600   6.1029

          k = 0.0000 0.4714 0.0000 ( 12907 PWs)   bands (ev):

    -5.2634  -3.8417  -3.6401  -3.6401  -3.6401  -3.6401  -1.4804  -1.4804
    -1.4804  -1.4804   0.2128   0.2128   0.2128   0.2128   1.2055   2.5807
     2.5807   2.5807   2.5807   3.1758   3.1758   3.1758   3.1758   3.8058
     3.8058   4.1756   4.9250   4.9250   4.9250   4.9250   5.0306   5.0306

          k = 0.5893-0.1179 0.5893 ( 12907 PWs)   bands (ev):

    -4.9358  -4.2650  -4.2278  -3.6244  -3.6244  -3.0796  -1.9966  -1.9966
    -0.9326  -0.9326  -0.0852   0.5505   0.5505   1.3593   1.7890   2.1418
     2.1418   2.2082   2.7108   2.7108   2.9215   2.9215   3.0909   3.3212
     3.8685   4.0871   4.5027   4.5686   4.5686   4.6822   4.6962   5.2928

          k = 0.4714-0.0000 0.4714 ( 12878 PWs)   bands (ev):

    -4.7975  -4.4472  -4.4472  -3.4563  -3.4563  -2.4811  -2.4711  -2.4711
    -0.6257  -0.6257  -0.5531   0.5732   0.5732   1.7819   1.7819   1.8131
     2.2152   2.2153   2.5002   2.6557   2.6557   3.4635   3.4635   3.8125
     3.9296   3.9296   4.1112   4.2293   4.2293   4.4773   4.4773   5.6564

          k = 0.0000-0.7071 0.0000 ( 12896 PWs)   bands (ev):

    -4.6649  -4.6649  -3.7021  -3.7021  -3.7021  -3.7021  -1.4365  -1.4365
    -1.4365  -1.4365   0.7374   0.7374   0.7374   0.7374   2.3732   2.3732
     2.3732   2.3732   2.4727   2.4727   2.4727   2.4727   2.6981   2.6981
     4.3338   4.3338   4.3338   4.3338   4.8947   4.8947   4.8947   4.8947

          k = 0.4714-0.2357 0.7071 ( 12905 PWs)   bands (ev):

    -5.1462  -4.1334  -4.1334  -3.7430  -3.0337  -3.0337  -2.5200  -1.9500
    -1.0381  -0.4259  -0.3264  -0.3264   0.9487   0.9487   1.0304   1.9755
     2.4569   2.6362   2.6362   3.0757   3.3849   3.4507   3.4897   3.7872
     3.7872   3.8124   4.2519   4.2519   4.5904   4.9134   4.9134   5.5151

          k = 0.3536-0.1179 0.5893 ( 12886 PWs)   bands (ev):

    -4.7093  -4.7093  -4.0211  -4.0211  -2.8317  -2.8317  -2.4761  -2.4761
    -0.5903  -0.5903  -0.1966  -0.1966   1.2468   1.2468   1.9880   1.9880
     2.2497   2.2497   2.3084   2.3084   3.3572   3.3572   3.5929   3.5929
     3.8019   3.8019   4.0575   4.0575   4.3080   4.3080   5.2404   5.2404

          k =-0.2357-0.7071 0.0000 ( 12912 PWs)   bands (ev):

    -4.5543  -4.5543  -4.2276  -4.2276  -3.0141  -3.0141  -2.2283  -2.2283
    -0.7026  -0.7026   0.0001   0.0001   1.5294   1.5294   2.0170   2.0170
     2.0748   2.0748   2.2963   2.2963   3.1265   3.1265   3.1465   3.1465
     3.8948   3.8948   4.1469   4.1469   4.5962   4.5962   4.9500   4.9500

     highest occupied level (ev):     6.2210

!    total energy              =    -126.09951706 Ry
     estimated scf accuracy    <          2.3E-09 Ry

     convergence has been achieved in   8 iterations

     Using ACE for calculation of exact exchange

     EXX grid:   103379 G-vectors     FFT dimensions: (  72,  72,  72)
     ACE projected onto    32 (nbndproj) and applied to    32 (nbnd) bands

     EXX: now go back to refine exchange calculation

     total cpu time spent up to now is     1414.6 secs

     per-process dynamical memory:  1829.8 Mb

     Self-consistent Calculation

     iteration #  1     ecut=    50.00 Ry     beta= 0.70
     Davidson diagonalization with overlap
     ethr =  2.44E-11,  avg # of iterations = 12.8

     total cpu time spent up to now is     1415.8 secs

     total energy              =    -126.14721936 Ry
     estimated scf accuracy    <       0.00044967 Ry

     iteration #  2     ecut=    50.00 Ry     beta= 0.70
     Davidson diagonalization with overlap
     ethr =  7.03E-07,  avg # of iterations =  1.0

     total cpu time spent up to now is     1416.1 secs

     total energy              =    -126.14723370 Ry
     estimated scf accuracy    <       0.00003257 Ry

     iteration #  3     ecut=    50.00 Ry     beta= 0.70
     Davidson diagonalization with overlap
     ethr =  5.09E-08,  avg # of iterations =  1.9

     total cpu time spent up to now is     1416.4 secs

     total energy              =    -126.14723643 Ry
     estimated scf accuracy    <       0.00000019 Ry

     iteration #  4     ecut=    50.00 Ry     beta= 0.70
     Davidson diagonalization with overlap
     ethr =  2.89E-10,  avg # of iterations =  3.1

     total cpu time spent up to now is     1416.8 secs

     total energy              =    -126.14723659 Ry
     estimated scf accuracy    <       0.00000004 Ry

     iteration #  5     ecut=    50.00 Ry     beta= 0.70
     Davidson diagonalization with overlap
     ethr =  6.29E-11,  avg # of iterations =  2.0

     total cpu time spent up to now is     1417.1 secs

     End of self-consistent calculation

          k = 0.0000 0.0000 0.0000 ( 12939 PWs)   bands (ev):

    -7.4302  -4.8333  -4.8333  -4.8333  -4.8333  -2.8101  -2.8101  -2.8101
    -2.8101  -2.8101  -2.8101  -1.8649  -1.8649  -1.8649  -1.8649   2.7309
     2.7309   2.7309   2.7309   2.7309   2.7309   4.5637   4.5637   4.5637
     4.5637   4.5637   4.5637   4.5637   4.5637   5.8864   5.8864   5.8864

          k =-0.1179 0.1179-0.1179 ( 12939 PWs)   bands (ev):

    -7.3292  -5.2077  -4.7918  -4.7918  -4.7918  -3.4785  -3.4785  -3.4785
    -2.0619  -2.0619  -2.0619  -1.7477  -1.7477  -1.7477  -1.2944   2.3934
     2.3934   2.3934   2.8165   2.8165   2.8165   3.9543   3.9543   3.9543
     4.3723   4.3723   4.3723   4.6212   4.6212   4.9804   5.7368   5.7368

          k =-0.2357 0.2357-0.2357 ( 12885 PWs)   bands (ev):

    -7.0296  -5.9003  -4.6565  -4.6565  -4.6565  -4.0137  -4.0137  -4.0137
    -1.4520  -1.4520  -1.4520  -1.4044  -1.4044  -1.4044  -0.0198   1.9028
     1.9028   1.9028   2.8652   2.8652   2.8652   3.0664   3.0664   3.0664
     3.3031   3.9343   3.9343   3.9343   4.7909   4.7909   5.4071   5.4071

          k = 0.3536-0.3536 0.3536 ( 12938 PWs)   bands (ev):

    -6.5426  -6.5425  -4.4039  -4.4039  -4.4039  -4.4038  -4.4038  -4.4038
    -1.1995  -1.1995  -1.1995  -1.1994  -1.1994  -1.1994   1.5667   1.5667
     2.0180   2.0180   2.0180   2.0180   2.0180   2.0180   3.4578   3.4578
     3.4578   3.4578   3.4578   3.4578   5.0636   5.0636   5.0636   5.0636

          k = 0.0000 0.2357 0.0000 ( 12951 PWs)   bands (ev):

    -7.2954  -4.9274  -4.9274  -4.9274  -4.9274  -4.1652  -2.7668  -2.7668
    -2.7668  -2.7668  -1.5472  -1.5472  -1.5472  -1.5472  -1.2893   2.4112
     2.4112   2.4112   2.4112   2.8552   2.8552   3.8490   3.8490   3.8490
     3.8490   4.5287   4.5287   4.5287   4.5287   5.1558   5.4370   5.4370

          k =-0.1179 0.3536-0.1179 ( 12894 PWs)   bands (ev):

    -7.0614  -5.5778  -4.9429  -4.9429  -4.7173  -4.5283  -3.3733  -3.3733
    -2.0514  -2.0514  -1.6323  -1.1762  -1.1762  -0.5406  -0.4504   1.7678
     1.7678   2.6215   2.6215   2.6254   2.6984   3.0611   3.1004   3.1004
     3.8051   3.8823   4.1367   4.1837   4.1837   4.7944   5.0404   5.2528

          k = 0.4714-0.2357 0.4714 ( 12908 PWs)   bands (ev):

    -6.6351  -6.2551  -5.1018  -4.8143  -4.8143  -4.0403  -3.8668  -3.8668
    -1.6664  -1.5970  -1.5970  -0.7978  -0.7978  -0.1572   1.0316   1.5523
     1.5523   1.6105   2.1258   2.3656   2.3656   2.6268   3.0119   3.0119
     3.4171   3.5607   3.5607   3.6576   4.0646   4.6897   4.9052   5.1389

          k = 0.3536-0.1179 0.3536 ( 12892 PWs)   bands (ev):

    -6.7985  -6.0389  -5.3093  -4.5270  -4.5270  -4.2576  -4.2576  -3.4873
    -1.9564  -1.5937  -1.5937  -0.7933  -0.7933  -0.3990   0.5083   1.2574
     2.0905   2.0905   2.1330   2.1330   2.6716   3.0025   3.0025   3.2381
     3.2514   3.5393   3.5393   3.8785   4.4063   4.4497   4.5150   5.5012

          k = 0.2357-0.0000 0.2357 ( 12901 PWs)   bands (ev):

    -7.1618  -5.3412  -5.3412  -4.5637  -4.5637  -4.0780  -4.0780  -2.9663
    -2.5155  -1.7382  -1.7382  -1.3296  -1.3296  -0.8792  -0.8792   1.6629
     2.4552   2.4552   2.6671   2.6671   2.9478   3.0610   3.0610   4.0803
     4.0803   4.1774   4.1836   4.1836   4.3432   4.3432   4.9794   5.7561

          k = 0.0000 0.4714 0.0000 ( 12907 PWs)   bands (ev):

    -6.8933  -5.3139  -5.0870  -5.0870  -5.0870  -5.0870  -2.6736  -2.6736
    -2.6736  -2.6736  -0.7768  -0.7768  -0.7768  -0.7768   0.3446   1.8879
     1.8879   1.8879   1.8879   2.5628   2.5628   2.5628   2.5628   3.2229
     3.2229   3.6834   4.4630   4.4630   4.4630   4.4630   4.6012   4.6012

          k = 0.5893-0.1179 0.5893 ( 12907 PWs)   bands (ev):

    -6.5299  -5.7840  -5.7432  -5.0700  -5.0700  -4.4612  -3.2506  -3.2506
    -2.0596  -2.0596  -1.1103  -0.3951  -0.3951   0.5149   1.0013   1.4002
     1.4002   1.4767   2.0423   2.0423   2.2688   2.2688   2.4650   2.7275
     3.3156   3.5402   3.9966   4.0832   4.0832   4.2259   4.2285   4.8699

          k = 0.4714-0.0000 0.4714 ( 12878 PWs)   bands (ev):

    -6.3761  -5.9869  -5.9869  -4.8831  -4.8831  -3.7917  -3.7805  -3.7805
    -1.7170  -1.7170  -1.6349  -0.3681  -0.3681   0.9920   0.9920   1.0306
     1.4839   1.4839   1.7989   1.9779   1.9779   2.8696   2.8696   3.2786
     3.3854   3.3854   3.5605   3.7390   3.7390   3.9769   3.9769   5.2693

          k = 0.0000-0.7071 0.0000 ( 12896 PWs)   bands (ev):

    -6.2291  -6.2291  -5.1567  -5.1567  -5.1567  -5.1567  -2.6236  -2.6236
    -2.6236  -2.6236  -0.1847  -0.1847  -0.1847  -0.1847   1.6592   1.6592
     1.6592   1.6592   1.7755   1.7755   1.7755   1.7755   2.0265   2.0265
     3.8193   3.8193   3.8193   3.8193   4.4315   4.4315   4.4315   4.4315

          k = 0.4714-0.2357 0.7071 ( 12905 PWs)   bands (ev):

    -6.7631  -5.6374  -5.6374  -5.2035  -4.4096  -4.4096  -3.8376  -3.1980
    -2.1791  -1.4909  -1.3828  -1.3828   0.0524   0.0524   0.1467   1.2130
     1.7525   1.9580   1.9580   2.4385   2.7781   2.8423   2.9102   3.2411
     3.2429   3.2429   3.7314   3.7314   4.1341   4.4605   4.4605   5.1279

          k = 0.3536-0.1179 0.5893 ( 12886 PWs)   bands (ev):

    -6.2781  -6.2781  -5.5128  -5.5128  -4.1851  -4.1850  -3.7862  -3.7861
    -1.6771  -1.6771  -1.2340  -1.2340   0.3895   0.3895   1.2281   1.2281
     1.5180   1.5180   1.5887   1.5887   2.7616   2.7616   3.0135   3.0136
     3.2337   3.2337   3.5447   3.5447   3.7970   3.7970   4.8246   4.8246

          k =-0.2357-0.7071 0.0000 ( 12912 PWs)   bands (ev):

    -6.1060  -6.1060  -5.7424  -5.7424  -4.3884  -4.3884  -3.5097  -3.5097
    -1.8016  -1.8016  -1.0130  -1.0130   0.7068   0.7068   1.2604   1.2604
     1.3266   1.3266   1.5712   1.5712   2.5094   2.5094   2.5200   2.5200
     3.3539   3.3539   3.6176   3.6176   4.1161   4.1161   4.5045   4.5045

     highest occupied level (ev):     5.8864

!    total energy              =    -126.14723661 Ry
     estimated scf accuracy    <          1.5E-09 Ry

     convergence has been achieved in   5 iterations

     Using ACE for calculation of exact exchange
     ACE projected onto    32 (nbndproj) and applied to    32 (nbnd) bands

     total energy              =    -126.14903995 Ry
     Harris-Foulkes estimate   =    -126.14903995 Ry
     est. exchange err (dexx)  =       0.00180334 Ry
     - averaged Fock potential =      13.34097689 Ry
     + Fock energy (ACE)       =      -6.68183157 Ry

     EXX: now go back to refine exchange calculation

     total cpu time spent up to now is     3106.2 secs

     per-process dynamical memory:  1829.1 Mb

     Self-consistent Calculation

     iteration #  1     ecut=    50.00 Ry     beta= 0.70
     Davidson diagonalization with overlap
     ethr =  6.29E-11,  avg # of iterations =  9.4

     total cpu time spent up to now is     3107.6 secs

     total energy              =    -126.14943756 Ry
     estimated scf accuracy    <       0.00005142 Ry

     iteration #  2     ecut=    50.00 Ry     beta= 0.70
     Davidson diagonalization with overlap
     ethr =  8.03E-08,  avg # of iterations =  1.0

     total cpu time spent up to now is     3108.0 secs

     total energy              =    -126.14944030 Ry
     estimated scf accuracy    <       0.00000162 Ry

     iteration #  3     ecut=    50.00 Ry     beta= 0.70
     Davidson diagonalization with overlap
     ethr =  2.53E-09,  avg # of iterations =  2.0

     total cpu time spent up to now is     3108.5 secs

     total energy              =    -126.14944061 Ry
     estimated scf accuracy    <       0.00000003 Ry

     iteration #  4     ecut=    50.00 Ry     beta= 0.70
     Davidson diagonalization with overlap
     ethr =  4.42E-11,  avg # of iterations =  2.9

     total cpu time spent up to now is     3109.0 secs

     End of self-consistent calculation

          k = 0.0000 0.0000 0.0000 ( 12939 PWs)   bands (ev):

    -7.4232  -4.8273  -4.8273  -4.8273  -4.8273  -2.8048  -2.8048  -2.8048
    -2.8048  -2.8048  -2.8048  -1.8592  -1.8592  -1.8592  -1.8592   2.7248
     2.7248   2.7248   2.7248   2.7248   2.7248   4.5525   4.5525   4.5525
     4.5525   4.5525   4.5525   4.5525   4.5525   5.8693   5.8693   5.8693

          k =-0.1179 0.1179-0.1179 ( 12939 PWs)   bands (ev):

    -7.3222  -5.2015  -4.7859  -4.7859  -4.7859  -3.4728  -3.4728  -3.4728
    -2.0570  -2.0570  -2.0570  -1.7422  -1.7422  -1.7422  -1.2892   2.3899
     2.3899   2.3899   2.8104   2.8104   2.8104   3.9476   3.9476   3.9476
     4.3621   4.3621   4.3621   4.6099   4.6099   4.9706   5.7209   5.7209

          k =-0.2357 0.2357-0.2357 ( 12885 PWs)   bands (ev):

    -7.0227  -5.8937  -4.6505  -4.6505  -4.6505  -4.0079  -4.0079  -4.0079
    -1.4471  -1.4471  -1.4471  -1.4002  -1.4002  -1.4002  -0.0160   1.9025
     1.9025   1.9025   2.8635   2.8635   2.8635   3.0599   3.0599   3.0599
     3.3003   3.9258   3.9258   3.9258   4.7794   4.7794   5.3933   5.3933

          k = 0.3536-0.3536 0.3536 ( 12938 PWs)   bands (ev):

    -6.5358  -6.5357  -4.3980  -4.3979  -4.3979  -4.3979  -4.3979  -4.3979
    -1.1952  -1.1952  -1.1952  -1.1952  -1.1952  -1.1951   1.5682   1.5682
     2.0187   2.0187   2.0187   2.0187   2.0187   2.0187   3.4506   3.4506
     3.4506   3.4506   3.4506   3.4506   5.0513   5.0513   5.0513   5.0513

          k = 0.0000 0.2357 0.0000 ( 12951 PWs)   bands (ev):

    -7.2884  -4.9212  -4.9212  -4.9212  -4.9212  -4.1591  -2.7615  -2.7615
    -2.7615  -2.7615  -1.5419  -1.5419  -1.5419  -1.5419  -1.2849   2.4076
     2.4076   2.4076   2.4076   2.8490   2.8490   3.8428   3.8428   3.8428
     3.8428   4.5179   4.5179   4.5179   4.5179   5.1449   5.4234   5.4234

          k =-0.1179 0.3536-0.1179 ( 12894 PWs)   bands (ev):

    -7.0545  -5.5713  -4.9367  -4.9367  -4.7111  -4.5223  -3.3678  -3.3678
    -2.0467  -2.0467  -1.6272  -1.1714  -1.1714  -0.5369  -0.4462   1.7677
     1.7677   2.6176   2.6176   2.6243   2.6946   3.0548   3.0976   3.0976
     3.8005   3.8763   4.1274   4.1751   4.1751   4.7828   5.0290   5.2408

          k = 0.4714-0.2357 0.4714 ( 12908 PWs)   bands (ev):

    -6.6283  -6.2485  -5.0955  -4.8082  -4.8082  -4.0346  -3.8612  -3.8612
    -1.6616  -1.5926  -1.5926  -0.7938  -0.7938  -0.1540   1.0338   1.5539
     1.5539   1.6123   2.1260   2.3653   2.3653   2.6253   3.0072   3.0072
     3.4102   3.5545   3.5545   3.6498   4.0584   4.6796   4.8952   5.1260

          k = 0.3536-0.1179 0.3536 ( 12892 PWs)   bands (ev):

    -6.7917  -6.0323  -5.3029  -4.5210  -4.5210  -4.2518  -4.2518  -3.4818
    -1.9517  -1.5889  -1.5889  -0.7896  -0.7896  -0.3952   0.5113   1.2596
     2.0911   2.0911   2.1324   2.1324   2.6703   2.9979   2.9979   3.2312
     3.2487   3.5330   3.5330   3.8704   4.3992   4.4401   4.5066   5.4866

          k = 0.2357-0.0000 0.2357 ( 12901 PWs)   bands (ev):

    -7.1549  -5.3349  -5.3349  -4.5578  -4.5578  -4.0721  -4.0721  -2.9611
    -2.5103  -1.7329  -1.7329  -1.3254  -1.3254  -0.8746  -0.8746   1.6629
     2.4520   2.4520   2.6629   2.6629   2.9414   3.0583   3.0583   4.0719
     4.0719   4.1713   4.1764   4.1764   4.3334   4.3334   4.9695   5.7400

          k = 0.0000 0.4714 0.0000 ( 12907 PWs)   bands (ev):

    -6.8864  -5.3074  -5.0808  -5.0808  -5.0808  -5.0808  -2.6686  -2.6686
    -2.6686  -2.6686  -0.7726  -0.7726  -0.7726  -0.7726   0.3475   1.8875
     1.8875   1.8875   1.8875   2.5621   2.5621   2.5621   2.5621   3.2166
     3.2166   3.6794   4.4527   4.4527   4.4527   4.4527   4.5918   4.5918

          k = 0.5893-0.1179 0.5893 ( 12907 PWs)   bands (ev):

    -6.5231  -5.7774  -5.7367  -5.0637  -5.0637  -4.4553  -3.2453  -3.2453
    -2.0550  -2.0550  -1.1061  -0.3917  -0.3917   0.5173   1.0032   1.4019
     1.4019   1.4791   2.0431   2.0431   2.2674   2.2674   2.4642   2.7267
     3.3109   3.5333   3.9879   4.0754   4.0754   4.2176   4.2215   4.8581

          k = 0.4714-0.0000 0.4714 ( 12878 PWs)   bands (ev):

    -6.3694  -5.9803  -5.9803  -4.8769  -4.8769  -3.7862  -3.7750  -3.7750
    -1.7124  -1.7124  -1.6305  -0.3650  -0.3650   0.9938   0.9938   1.0338
     1.4858   1.4858   1.7990   1.9784   1.9784   2.8662   2.8662   3.2764
     3.3805   3.3805   3.5530   3.7345   3.7345   3.9690   3.9690   5.2558

          k = 0.0000-0.7071 0.0000 ( 12896 PWs)   bands (ev):

    -6.2224  -6.2224  -5.1504  -5.1504  -5.1504  -5.1504  -2.6187  -2.6187
    -2.6187  -2.6187  -0.1817  -0.1817  -0.1817  -0.1817   1.6600   1.6600
     1.6600   1.6600   1.7775   1.7775   1.7775   1.7775   2.0270   2.0270
     3.8121   3.8121   3.8121   3.8121   4.4215   4.4215   4.4215   4.4215

          k = 0.4714-0.2357 0.7071 ( 12905 PWs)   bands (ev):

    -6.7563  -5.6309  -5.6309  -5.1972  -4.4038  -4.4038  -3.8318  -3.1928
    -2.1742  -1.4867  -1.3782  -1.3782   0.0557   0.0557   0.1495   1.2152
     1.7528   1.9589   1.9589   2.4364   2.7748   2.8379   2.9081   3.2358
     3.2398   3.2398   3.7246   3.7246   4.1281   4.4513   4.4513   5.1161

          k = 0.3536-0.1179 0.5893 ( 12886 PWs)   bands (ev):

    -6.2714  -6.2714  -5.5064  -5.5064  -4.1792  -4.1792  -3.7807  -3.7806
    -1.6726  -1.6726  -1.2299  -1.2299   0.3919   0.3920   1.2307   1.2307
     1.5189   1.5190   1.5903   1.5903   2.7599   2.7599   3.0097   3.0098
     3.2285   3.2285   3.5408   3.5409   3.7904   3.7904   4.8141   4.8142

          k =-0.2357-0.7071 0.0000 ( 12912 PWs)   bands (ev):

    -6.0994  -6.0994  -5.7359  -5.7359  -4.3825  -4.3825  -3.5042  -3.5042
    -1.7972  -1.7972  -1.0092  -1.0092   0.7087   0.7087   1.2627   1.2627
     1.3292   1.3292   1.5720   1.5720   2.5092   2.5092   2.5179   2.5179
     3.3500   3.3500   3.6114   3.6114   4.1086   4.1086   4.4952   4.4952

     highest occupied level (ev):     5.8693

!    total energy              =    -126.14944061 Ry
     estimated scf accuracy    <          6.1E-09 Ry

     convergence has been achieved in   4 iterations

     Using ACE for calculation of exact exchange
     ACE projected onto    32 (nbndproj) and applied to    32 (nbnd) bands

     total energy              =    -126.14953919 Ry
     Harris-Foulkes estimate   =    -126.14953920 Ry
     est. exchange err (dexx)  =       0.00009858 Ry
     - averaged Fock potential =      13.37040476 Ry
     + Fock energy (ACE)       =      -6.68867176 Ry

     EXX: now go back to refine exchange calculation

     total cpu time spent up to now is     5299.8 secs

     per-process dynamical memory:  1829.1 Mb

     Self-consistent Calculation

     iteration #  1     ecut=    50.00 Ry     beta= 0.70
     Davidson diagonalization with overlap
     ethr =  4.42E-11,  avg # of iterations =  7.6

     total cpu time spent up to now is     5301.2 secs

     total energy              =    -126.14956387 Ry
     estimated scf accuracy    <       0.00000432 Ry

     iteration #  2     ecut=    50.00 Ry     beta= 0.70
     Davidson diagonalization with overlap
     ethr =  6.74E-09,  avg # of iterations =  1.8

     total cpu time spent up to now is     5301.7 secs

     total energy              =    -126.14956416 Ry
     estimated scf accuracy    <       0.00000012 Ry

     iteration #  3     ecut=    50.00 Ry     beta= 0.70
     Davidson diagonalization with overlap
     ethr =  1.92E-10,  avg # of iterations =  2.1

     total cpu time spent up to now is     5302.2 secs

     total energy              =    -126.14956419 Ry
     estimated scf accuracy    <       0.00000003 Ry

     iteration #  4     ecut=    50.00 Ry     beta= 0.70
     Davidson diagonalization with overlap
     ethr =  4.32E-11,  avg # of iterations =  2.0

     total cpu time spent up to now is     5302.7 secs

     End of self-consistent calculation

          k = 0.0000 0.0000 0.0000 ( 12939 PWs)   bands (ev):

    -7.4215  -4.8259  -4.8259  -4.8259  -4.8259  -2.8035  -2.8035  -2.8035
    -2.8035  -2.8035  -2.8035  -1.8576  -1.8576  -1.8576  -1.8576   2.7236
     2.7236   2.7236   2.7236   2.7236   2.7236   4.5499   4.5499   4.5499
     4.5499   4.5499   4.5499   4.5499   4.5499   5.8651   5.8651   5.8651

          k =-0.1179 0.1179-0.1179 ( 12939 PWs)   bands (ev):

    -7.3205  -5.2000  -4.7845  -4.7845  -4.7845  -3.4715  -3.4715  -3.4715
    -2.0559  -2.0559  -2.0559  -1.7408  -1.7408  -1.7408  -1.2879   2.3894
     2.3894   2.3894   2.8091   2.8091   2.8091   3.9462   3.9462   3.9462
     4.3597   4.3597   4.3597   4.6072   4.6072   4.9683   5.7170   5.7170

          k =-0.2357 0.2357-0.2357 ( 12885 PWs)   bands (ev):

    -7.0210  -5.8921  -4.6491  -4.6491  -4.6491  -4.0065  -4.0065  -4.0065
    -1.4458  -1.4458  -1.4458  -1.3993  -1.3993  -1.3993  -0.0150   1.9028
     1.9028   1.9028   2.8634   2.8634   2.8634   3.0586   3.0586   3.0586
     3.2998   3.9238   3.9238   3.9238   4.7767   4.7767   5.3900   5.3900

          k = 0.3536-0.3536 0.3536 ( 12938 PWs)   bands (ev):

    -6.5342  -6.5341  -4.3966  -4.3966  -4.3966  -4.3965  -4.3965  -4.3965
    -1.1942  -1.1942  -1.1942  -1.1942  -1.1942  -1.1941   1.5686   1.5687
     2.0192   2.0192   2.0192   2.0192   2.0192   2.0192   3.4490   3.4490
     3.4490   3.4490   3.4490   3.4490   5.0484   5.0484   5.0484   5.0484

          k = 0.0000 0.2357 0.0000 ( 12951 PWs)   bands (ev):

    -7.2867  -4.9198  -4.9198  -4.9198  -4.9198  -4.1577  -2.7603  -2.7603
    -2.7603  -2.7603  -1.5405  -1.5405  -1.5405  -1.5405  -1.2839   2.4071
     2.4071   2.4071   2.4071   2.8478   2.8478   3.8415   3.8415   3.8415
     3.8415   4.5153   4.5153   4.5153   4.5153   5.1423   5.4202   5.4202

          k =-0.1179 0.3536-0.1179 ( 12894 PWs)   bands (ev):

    -7.0528  -5.5698  -4.9353  -4.9353  -4.7097  -4.5210  -3.3666  -3.3666
    -2.0457  -2.0457  -1.6258  -1.1702  -1.1702  -0.5362  -0.4451   1.7680
     1.7680   2.6169   2.6169   2.6243   2.6940   3.0534   3.0972   3.0972
     3.7994   3.8751   4.1252   4.1732   4.1732   4.7800   5.0264   5.2381

          k = 0.4714-0.2357 0.4714 ( 12908 PWs)   bands (ev):

    -6.6267  -6.2469  -5.0940  -4.8067  -4.8067  -4.0333  -3.8599  -3.8599
    -1.6605  -1.5916  -1.5916  -0.7929  -0.7929  -0.1533   1.0344   1.5546
     1.5546   1.6130   2.1261   2.3655   2.3655   2.6253   3.0063   3.0063
     3.4087   3.5532   3.5532   3.6480   4.0571   4.6773   4.8929   5.1229

          k = 0.3536-0.1179 0.3536 ( 12892 PWs)   bands (ev):

    -6.7900  -6.0307  -5.3014  -4.5196  -4.5196  -4.2505  -4.2505  -3.4806
    -1.9506  -1.5877  -1.5877  -0.7888  -0.7888  -0.3943   0.5121   1.2605
     2.0915   2.0915   2.1326   2.1326   2.6701   2.9970   2.9970   3.2297
     3.2483   3.5317   3.5317   3.8686   4.3977   4.4379   4.5048   5.4830

          k = 0.2357-0.0000 0.2357 ( 12901 PWs)   bands (ev):

    -7.1532  -5.3334  -5.3334  -4.5565  -4.5565  -4.0707  -4.0707  -2.9599
    -2.5091  -1.7315  -1.7315  -1.3244  -1.3244  -0.8734  -0.8734   1.6633
     2.4515   2.4515   2.6622   2.6622   2.9400   3.0579   3.0579   4.0700
     4.0700   4.1699   4.1748   4.1748   4.3312   4.3312   4.9673   5.7360

          k = 0.0000 0.4714 0.0000 ( 12907 PWs)   bands (ev):

    -6.8847  -5.3059  -5.0794  -5.0794  -5.0794  -5.0794  -2.6675  -2.6675
    -2.6675  -2.6675  -0.7715  -0.7715  -0.7715  -0.7715   0.3480   1.8877
     1.8877   1.8877   1.8877   2.5622   2.5622   2.5622   2.5622   3.2152
     3.2152   3.6784   4.4503   4.4503   4.4503   4.4503   4.5897   4.5897

          k = 0.5893-0.1179 0.5893 ( 12907 PWs)   bands (ev):

    -6.5215  -5.7759  -5.7351  -5.0623  -5.0623  -4.4540  -3.2442  -3.2442
    -2.0540  -2.0540  -1.1052  -0.3909  -0.3909   0.5180   1.0036   1.4026
     1.4026   1.4800   2.0437   2.0437   2.2674   2.2674   2.4640   2.7268
     3.3101   3.5319   3.9859   4.0736   4.0736   4.2158   4.2200   4.8552

          k = 0.4714-0.0000 0.4714 ( 12878 PWs)   bands (ev):

    -6.3678  -5.9787  -5.9787  -4.8755  -4.8755  -3.7849  -3.7738  -3.7738
    -1.7113  -1.7113  -1.6295  -0.3643  -0.3643   0.9942   0.9942   1.0349
     1.4866   1.4866   1.7990   1.9789   1.9789   2.8656   2.8656   3.2762
     3.3795   3.3795   3.5513   3.7336   3.7336   3.9672   3.9672   5.2524

          k = 0.0000-0.7071 0.0000 ( 12896 PWs)   bands (ev):

    -6.2208  -6.2208  -5.1489  -5.1489  -5.1489  -5.1489  -2.6176  -2.6176
    -2.6176  -2.6176  -0.1810  -0.1810  -0.1810  -0.1810   1.6606   1.6606
     1.6606   1.6606   1.7783   1.7783   1.7783   1.7783   2.0270   2.0270
     3.8105   3.8105   3.8105   3.8105   4.4191   4.4191   4.4191   4.4191

          k = 0.4714-0.2357 0.7071 ( 12905 PWs)   bands (ev):

    -6.7546  -5.6294  -5.6294  -5.1957  -4.4024  -4.4024  -3.8305  -3.1917
    -2.1732  -1.4858  -1.3771  -1.3771   0.0565   0.0565   0.1501   1.2161
     1.7532   1.9594   1.9594   2.4362   2.7743   2.8371   2.9076   3.2348
     3.2394   3.2394   3.7231   3.7231   4.1270   4.4491   4.4491   5.1133

          k = 0.3536-0.1179 0.5893 ( 12886 PWs)   bands (ev):

    -6.2698  -6.2698  -5.5049  -5.5048  -4.1779  -4.1778  -3.7794  -3.7794
    -1.6715  -1.6715  -1.2290  -1.2290   0.3925   0.3925   1.2317   1.2317
     1.5192   1.5192   1.5910   1.5910   2.7598   2.7598   3.0091   3.0091
     3.2274   3.2274   3.5402   3.5402   3.7890   3.7890   4.8117   4.8117

          k =-0.2357-0.7071 0.0000 ( 12912 PWs)   bands (ev):

    -6.0978  -6.0978  -5.7343  -5.7343  -4.3811  -4.3811  -3.5030  -3.5030
    -1.7962  -1.7962  -1.0084  -1.0084   0.7091   0.7091   1.2636   1.2636
     1.3302   1.3302   1.5721   1.5721   2.5095   2.5095   2.5176   2.5176
     3.3493   3.3493   3.6100   3.6100   4.1069   4.1069   4.4930   4.4930

     highest occupied level (ev):     5.8651

!    total energy              =    -126.14956419 Ry
     estimated scf accuracy    <          4.2E-09 Ry

     convergence has been achieved in   4 iterations

     Using ACE for calculation of exact exchange
     ACE projected onto    32 (nbndproj) and applied to    32 (nbnd) bands

     total energy              =    -126.14957065 Ry
     Harris-Foulkes estimate   =    -126.14957065 Ry
     est. exchange err (dexx)  =       0.00000645 Ry
     - averaged Fock potential =      13.37917315 Ry
     + Fock energy (ACE)       =      -6.69050784 Ry

     EXX: now go back to refine exchange calculation

     total cpu time spent up to now is     7548.7 secs

     per-process dynamical memory:  1829.1 Mb

     Self-consistent Calculation

     iteration #  1     ecut=    50.00 Ry     beta= 0.70
     Davidson diagonalization with overlap
     ethr =  4.32E-11,  avg # of iterations =  5.7

     total cpu time spent up to now is     7549.8 secs

     total energy              =    -126.14957230 Ry
     estimated scf accuracy    <       0.00000033 Ry

     iteration #  2     ecut=    50.00 Ry     beta= 0.70
     Davidson diagonalization with overlap
     ethr =  5.08E-10,  avg # of iterations =  2.0

     total cpu time spent up to now is     7550.4 secs

     total energy              =    -126.14957232 Ry
     estimated scf accuracy    <       0.00000003 Ry

     iteration #  3     ecut=    50.00 Ry     beta= 0.70
     Davidson diagonalization with overlap
     ethr =  4.63E-11,  avg # of iterations =  2.1

     total cpu time spent up to now is     7551.0 secs

     total energy              =    -126.14957233 Ry
     estimated scf accuracy    <       0.00000002 Ry

     iteration #  4     ecut=    50.00 Ry     beta= 0.70
     Davidson diagonalization with overlap
     ethr =  3.46E-11,  avg # of iterations =  2.0

     total cpu time spent up to now is     7551.6 secs

     End of self-consistent calculation

          k = 0.0000 0.0000 0.0000 ( 12939 PWs)   bands (ev):

    -7.4210  -4.8256  -4.8256  -4.8256  -4.8256  -2.8033  -2.8033  -2.8033
    -2.8033  -2.8033  -2.8033  -1.8572  -1.8572  -1.8572  -1.8572   2.7233
     2.7233   2.7233   2.7233   2.7233   2.7233   4.5492   4.5492   4.5492
     4.5492   4.5492   4.5492   4.5492   4.5492   5.8640   5.8640   5.8640

          k =-0.1179 0.1179-0.1179 ( 12939 PWs)   bands (ev):

    -7.3201  -5.1996  -4.7842  -4.7842  -4.7842  -3.4712  -3.4712  -3.4712
    -2.0557  -2.0557  -2.0557  -1.7404  -1.7404  -1.7404  -1.2875   2.3893
     2.3893   2.3893   2.8088   2.8088   2.8088   3.9459   3.9459   3.9459
     4.3591   4.3591   4.3591   4.6066   4.6066   4.9678   5.7160   5.7160

          k =-0.2357 0.2357-0.2357 ( 12885 PWs)   bands (ev):

    -7.0206  -5.8918  -4.6488  -4.6488  -4.6488  -4.0062  -4.0062  -4.0062
    -1.4455  -1.4455  -1.4455  -1.3991  -1.3991  -1.3991  -0.0147   1.9029
     1.9029   1.9029   2.8633   2.8633   2.8633   3.0582   3.0582   3.0582
     3.2996   3.9234   3.9234   3.9234   4.7760   4.7760   5.3891   5.3891

          k = 0.3536-0.3536 0.3536 ( 12938 PWs)   bands (ev):

    -6.5337  -6.5337  -4.3962  -4.3962  -4.3962  -4.3962  -4.3962  -4.3962
    -1.1939  -1.1939  -1.1939  -1.1939  -1.1939  -1.1939   1.5688   1.5688
     2.0193   2.0193   2.0193   2.0193   2.0193   2.0193   3.4486   3.4486
     3.4486   3.4486   3.4486   3.4486   5.0476   5.0476   5.0476   5.0476

          k = 0.0000 0.2357 0.0000 ( 12951 PWs)   bands (ev):

    -7.2863  -4.9195  -4.9195  -4.9195  -4.9195  -4.1574  -2.7601  -2.7601
    -2.7601  -2.7601  -1.5401  -1.5401  -1.5401  -1.5401  -1.2837   2.4070
     2.4070   2.4070   2.4070   2.8475   2.8475   3.8412   3.8412   3.8412
     3.8412   4.5147   4.5147   4.5147   4.5147   5.1416   5.4194   5.4194

          k =-0.1179 0.3536-0.1179 ( 12894 PWs)   bands (ev):

    -7.0524  -5.5694  -4.9350  -4.9350  -4.7093  -4.5206  -3.3663  -3.3663
    -2.0455  -2.0455  -1.6255  -1.1699  -1.1699  -0.5360  -0.4448   1.7681
     1.7681   2.6168   2.6168   2.6243   2.6939   3.0531   3.0971   3.0971
     3.7992   3.8748   4.1247   4.1727   4.1727   4.7793   5.0258   5.2374

          k = 0.4714-0.2357 0.4714 ( 12908 PWs)   bands (ev):

    -6.6263  -6.2465  -5.0936  -4.8064  -4.8064  -4.0330  -3.8596  -3.8596
    -1.6602  -1.5914  -1.5914  -0.7927  -0.7927  -0.1531   1.0345   1.5548
     1.5548   1.6133   2.1261   2.3656   2.3656   2.6253   3.0061   3.0061
     3.4083   3.5529   3.5529   3.6476   4.0568   4.6767   4.8924   5.1221

          k = 0.3536-0.1179 0.3536 ( 12892 PWs)   bands (ev):

    -6.7896  -6.0303  -5.3011  -4.5192  -4.5192  -4.2502  -4.2502  -3.4803
    -1.9504  -1.5874  -1.5874  -0.7886  -0.7886  -0.3940   0.5123   1.2608
     2.0916   2.0916   2.1327   2.1327   2.6700   2.9969   2.9969   3.2294
     3.2482   3.5314   3.5314   3.8681   4.3974   4.4374   4.5044   5.4821

          k = 0.2357-0.0000 0.2357 ( 12901 PWs)   bands (ev):

    -7.1528  -5.3330  -5.3330  -4.5562  -4.5562  -4.0704  -4.0704  -2.9596
    -2.5088  -1.7311  -1.7311  -1.3243  -1.3243  -0.8730  -0.8730   1.6634
     2.4514   2.4514   2.6620   2.6620   2.9397   3.0579   3.0579   4.0695
     4.0695   4.1695   4.1744   4.1744   4.3306   4.3306   4.9668   5.7350

          k = 0.0000 0.4714 0.0000 ( 12907 PWs)   bands (ev):

    -6.8843  -5.3056  -5.0790  -5.0790  -5.0790  -5.0790  -2.6673  -2.6673
    -2.6673  -2.6673  -0.7713  -0.7713  -0.7713  -0.7713   0.3481   1.8878
     1.8878   1.8878   1.8878   2.5622   2.5622   2.5622   2.5622   3.2149
     3.2149   3.6781   4.4497   4.4497   4.4497   4.4497   4.5892   4.5892

          k = 0.5893-0.1179 0.5893 ( 12907 PWs)   bands (ev):

    -6.5211  -5.7755  -5.7348  -5.0619  -5.0619  -4.4536  -3.2439  -3.2439
    -2.0537  -2.0537  -1.1049  -0.3907  -0.3907   0.5181   1.0036   1.4029
     1.4029   1.4803   2.0439   2.0439   2.2674   2.2674   2.4639   2.7269
     3.3099   3.5315   3.9854   4.0732   4.0732   4.2154   4.2197   4.8545

          k = 0.4714-0.0000 0.4714 ( 12878 PWs)   bands (ev):

    -6.3674  -5.9784  -5.9784  -4.8751  -4.8751  -3.7846  -3.7735  -3.7735
    -1.7111  -1.7111  -1.6293  -0.3642  -0.3642   0.9943   0.9943   1.0352
     1.4868   1.4868   1.7990   1.9791   1.9791   2.8655   2.8655   3.2762
     3.3792   3.3792   3.5509   3.7334   3.7334   3.9668   3.9668   5.2516

          k = 0.0000-0.7071 0.0000 ( 12896 PWs)   bands (ev):

    -6.2204  -6.2204  -5.1486  -5.1486  -5.1486  -5.1486  -2.6174  -2.6174
    -2.6174  -2.6174  -0.1809  -0.1809  -0.1809  -0.1809   1.6608   1.6608
     1.6608   1.6608   1.7786   1.7786   1.7786   1.7786   2.0270   2.0270
     3.8102   3.8102   3.8102   3.8102   4.4185   4.4185   4.4185   4.4185

          k = 0.4714-0.2357 0.7071 ( 12905 PWs)   bands (ev):

    -6.7542  -5.6290  -5.6290  -5.1953  -4.4021  -4.4021  -3.8302  -3.1914
    -2.1729  -1.4856  -1.3768  -1.3768   0.0568   0.0568   0.1502   1.2164
     1.7534   1.9595   1.9595   2.4362   2.7743   2.8370   2.9075   3.2346
     3.2393   3.2393   3.7228   3.7228   4.1267   4.4486   4.4486   5.1126

          k = 0.3536-0.1179 0.5893 ( 12886 PWs)   bands (ev):

    -6.2694  -6.2694  -5.5045  -5.5045  -4.1775  -4.1775  -3.7791  -3.7791
    -1.6713  -1.6713  -1.2288  -1.2288   0.3926   0.3926   1.2320   1.2320
     1.5192   1.5192   1.5912   1.5912   2.7599   2.7599   3.0089   3.0089
     3.2272   3.2272   3.5401   3.5401   3.7886   3.7886   4.8111   4.8111

          k =-0.2357-0.7071 0.0000 ( 12912 PWs)   bands (ev):

    -6.0974  -6.0974  -5.7340  -5.7340  -4.3808  -4.3808  -3.5027  -3.5027
    -1.7960  -1.7960  -1.0082  -1.0082   0.7092   0.7092   1.2639   1.2639
     1.3305   1.3305   1.5721   1.5721   2.5097   2.5097   2.5176   2.5176
     3.3492   3.3492   3.6097   3.6097   4.1065   4.1065   4.4925   4.4925

     highest occupied level (ev):     5.8640

!    total energy              =    -126.14957233 Ry
     estimated scf accuracy    <          5.8E-11 Ry

     convergence has been achieved in   4 iterations

     Using ACE for calculation of exact exchange
     ACE projected onto    32 (nbndproj) and applied to    32 (nbnd) bands

     total energy              =    -126.14957277 Ry
     Harris-Foulkes estimate   =    -126.14957277 Ry
     est. exchange err (dexx)  =       0.00000044 Ry
     - averaged Fock potential =      13.38149407 Ry
     + Fock energy (ACE)       =      -6.69098667 Ry

     EXX: now go back to refine exchange calculation

     total cpu time spent up to now is     9091.1 secs

     per-process dynamical memory:  1829.1 Mb

     Self-consistent Calculation

     iteration #  1     ecut=    50.00 Ry     beta= 0.70
     Davidson diagonalization with overlap
     ethr =  3.46E-11,  avg # of iterations =  4.2

     total cpu time spent up to now is     9091.6 secs

     total energy              =    -126.14957289 Ry
     estimated scf accuracy    <       0.00000002 Ry

     iteration #  2     ecut=    50.00 Ry     beta= 0.70
     Davidson diagonalization with overlap
     ethr =  3.24E-11,  avg # of iterations =  1.5

     total cpu time spent up to now is     9091.9 secs

     End of self-consistent calculation

          k = 0.0000 0.0000 0.0000 ( 12939 PWs)   bands (ev):

    -7.4209  -4.8256  -4.8256  -4.8256  -4.8256  -2.8032  -2.8032  -2.8032
    -2.8032  -2.8032  -2.8032  -1.8571  -1.8571  -1.8571  -1.8571   2.7232
     2.7232   2.7232   2.7232   2.7232   2.7232   4.5490   4.5490   4.5490
     4.5490   4.5490   4.5490   4.5490   4.5490   5.8637   5.8637   5.8637

          k =-0.1179 0.1179-0.1179 ( 12939 PWs)   bands (ev):

    -7.3200  -5.1996  -4.7841  -4.7841  -4.7841  -3.4712  -3.4712  -3.4712
    -2.0556  -2.0556  -2.0556  -1.7403  -1.7403  -1.7403  -1.2874   2.3893
     2.3893   2.3893   2.8087   2.8087   2.8087   3.9458   3.9458   3.9458
     4.3590   4.3590   4.3590   4.6064   4.6064   4.9676   5.7158   5.7158

          k =-0.2357 0.2357-0.2357 ( 12885 PWs)   bands (ev):

    -7.0205  -5.8917  -4.6488  -4.6488  -4.6488  -4.0062  -4.0062  -4.0062
    -1.4454  -1.4454  -1.4454  -1.3990  -1.3990  -1.3990  -0.0147   1.9030
     1.9030   1.9030   2.8633   2.8633   2.8633   3.0582   3.0582   3.0582
     3.2996   3.9232   3.9232   3.9232   4.7758   4.7758   5.3889   5.3889

          k = 0.3536-0.3536 0.3536 ( 12938 PWs)   bands (ev):

    -6.5336  -6.5336  -4.3961  -4.3961  -4.3961  -4.3961  -4.3961  -4.3961
    -1.1939  -1.1939  -1.1939  -1.1939  -1.1939  -1.1939   1.5688   1.5688
     2.0194   2.0194   2.0194   2.0194   2.0194   2.0194   3.4485   3.4485
     3.4485   3.4485   3.4485   3.4485   5.0474   5.0474   5.0474   5.0474

          k = 0.0000 0.2357 0.0000 ( 12951 PWs)   bands (ev):

    -7.2862  -4.9194  -4.9194  -4.9194  -4.9194  -4.1573  -2.7600  -2.7600
    -2.7600  -2.7600  -1.5400  -1.5400  -1.5400  -1.5400  -1.2837   2.4070
     2.4070   2.4070   2.4070   2.8474   2.8474   3.8411   3.8411   3.8411
     3.8411   4.5145   4.5145   4.5145   4.5145   5.1414   5.4192   5.4192

          k =-0.1179 0.3536-0.1179 ( 12894 PWs)   bands (ev):

    -7.0523  -5.5693  -4.9349  -4.9349  -4.7092  -4.5206  -3.3662  -3.3662
    -2.0454  -2.0454  -1.6254  -1.1699  -1.1699  -0.5360  -0.4448   1.7681
     1.7681   2.6168   2.6168   2.6243   2.6939   3.0530   3.0971   3.0971
     3.7991   3.8748   4.1245   4.1726   4.1726   4.7791   5.0256   5.2372

          k = 0.4714-0.2357 0.4714 ( 12908 PWs)   bands (ev):

    -6.6262  -6.2464  -5.0936  -4.8063  -4.8063  -4.0330  -3.8595  -3.8595
    -1.6601  -1.5913  -1.5913  -0.7926  -0.7926  -0.1531   1.0345   1.5549
     1.5549   1.6133   2.1261   2.3656   2.3656   2.6253   3.0060   3.0060
     3.4082   3.5528   3.5528   3.6475   4.0568   4.6766   4.8922   5.1219

          k = 0.3536-0.1179 0.3536 ( 12892 PWs)   bands (ev):

    -6.7895  -6.0302  -5.3010  -4.5192  -4.5192  -4.2501  -4.2501  -3.4803
    -1.9503  -1.5873  -1.5873  -0.7886  -0.7886  -0.3940   0.5123   1.2608
     2.0916   2.0916   2.1327   2.1327   2.6700   2.9968   2.9968   3.2293
     3.2481   3.5313   3.5313   3.8680   4.3973   4.4372   4.5042   5.4818

          k = 0.2357-0.0000 0.2357 ( 12901 PWs)   bands (ev):

    -7.1527  -5.3329  -5.3329  -4.5561  -4.5561  -4.0703  -4.0703  -2.9596
    -2.5088  -1.7310  -1.7310  -1.3242  -1.3242  -0.8730  -0.8730   1.6635
     2.4514   2.4514   2.6620   2.6620   2.9397   3.0578   3.0578   4.0694
     4.0694   4.1694   4.1743   4.1743   4.3305   4.3305   4.9667   5.7347

          k = 0.0000 0.4714 0.0000 ( 12907 PWs)   bands (ev):

    -6.8842  -5.3055  -5.0789  -5.0789  -5.0789  -5.0789  -2.6672  -2.6672
    -2.6672  -2.6672  -0.7712  -0.7712  -0.7712  -0.7712   0.3481   1.8878
     1.8878   1.8878   1.8878   2.5623   2.5623   2.5623   2.5623   3.2148
     3.2148   3.6780   4.4495   4.4495   4.4495   4.4495   4.5891   4.5891

          k = 0.5893-0.1179 0.5893 ( 12907 PWs)   bands (ev):

    -6.5210  -5.7754  -5.7347  -5.0619  -5.0619  -4.4536  -3.2438  -3.2438
    -2.0537  -2.0537  -1.1049  -0.3907  -0.3907   0.5181   1.0036   1.4029
     1.4029   1.4803   2.0439   2.0439   2.2674   2.2674   2.4639   2.7269
     3.3098   3.5314   3.9853   4.0731   4.0731   4.2152   4.2196   4.8543

          k = 0.4714-0.0000 0.4714 ( 12878 PWs)   bands (ev):

    -6.3673  -5.9783  -5.9783  -4.8751  -4.8751  -3.7846  -3.7735  -3.7735
    -1.7110  -1.7110  -1.6293  -0.3642  -0.3642   0.9943   0.9943   1.0353
     1.4869   1.4869   1.7990   1.9791   1.9791   2.8655   2.8655   3.2762
     3.3792   3.3792   3.5507   3.7334   3.7334   3.9667   3.9667   5.2513

          k = 0.0000-0.7071 0.0000 ( 12896 PWs)   bands (ev):

    -6.2203  -6.2203  -5.1485  -5.1485  -5.1485  -5.1485  -2.6173  -2.6173
    -2.6173  -2.6173  -0.1808  -0.1808  -0.1808  -0.1808   1.6608   1.6608
     1.6608   1.6608   1.7787   1.7787   1.7787   1.7787   2.0269   2.0269
     3.8101   3.8101   3.8101   3.8101   4.4183   4.4183   4.4183   4.4183

          k = 0.4714-0.2357 0.7071 ( 12905 PWs)   bands (ev):

    -6.7541  -5.6289  -5.6289  -5.1952  -4.4020  -4.4020  -3.8301  -3.1914
    -2.1729  -1.4855  -1.3768  -1.3768   0.0568   0.0568   0.1502   1.2164
     1.7534   1.9596   1.9596   2.4362   2.7742   2.8369   2.9074   3.2345
     3.2393   3.2393   3.7227   3.7227   4.1266   4.4485   4.4485   5.1125

          k = 0.3536-0.1179 0.5893 ( 12886 PWs)   bands (ev):

    -6.2693  -6.2693  -5.5044  -5.5044  -4.1775  -4.1775  -3.7791  -3.7791
    -1.6713  -1.6713  -1.2288  -1.2288   0.3926   0.3926   1.2320   1.2320
     1.5192   1.5192   1.5913   1.5913   2.7599   2.7599   3.0089   3.0089
     3.2271   3.2271   3.5401   3.5401   3.7885   3.7885   4.8109   4.8109

          k =-0.2357-0.7071 0.0000 ( 12912 PWs)   bands (ev):

    -6.0973  -6.0973  -5.7339  -5.7339  -4.3807  -4.3807  -3.5027  -3.5027
    -1.7960  -1.7960  -1.0082  -1.0082   0.7092   0.7092   1.2640   1.2640
     1.3306   1.3306   1.5721   1.5721   2.5097   2.5097   2.5176   2.5176
     3.3492   3.3492   3.6096   3.6096   4.1064   4.1064   4.4923   4.4923

     highest occupied level (ev):     5.8637

!    total energy              =    -126.14957289 Ry
     estimated scf accuracy    <          4.6E-10 Ry

     convergence has been achieved in   2 iterations

     Using ACE for calculation of exact exchange
     ACE projected onto    32 (nbndproj) and applied to    32 (nbnd) bands

     total energy              =    -126.14957292 Ry
     Harris-Foulkes estimate   =    -126.14957292 Ry
     est. exchange err (dexx)  =       0.00000003 Ry
     - averaged Fock potential =      13.38210175 Ry
     + Fock energy (ACE)       =      -6.69111511 Ry

     EXX: now go back to refine exchange calculation

     total cpu time spent up to now is    10601.0 secs

     per-process dynamical memory:  1829.1 Mb

     Self-consistent Calculation

     iteration #  1     ecut=    50.00 Ry     beta= 0.70
     Davidson diagonalization with overlap
     ethr =  3.24E-11,  avg # of iterations =  2.6

     Threshold (ethr) on eigenvalues was too large:
     Diagonalizing with lowered threshold

     Davidson diagonalization with overlap
     ethr =  1.52E-12,  avg # of iterations =  2.1

     total cpu time spent up to now is    10601.8 secs

     End of self-consistent calculation

          k = 0.0000 0.0000 0.0000 ( 12939 PWs)   bands (ev):

    -7.4209  -4.8255  -4.8255  -4.8255  -4.8255  -2.8032  -2.8032  -2.8032
    -2.8032  -2.8032  -2.8032  -1.8571  -1.8571  -1.8571  -1.8571   2.7232
     2.7232   2.7232   2.7232   2.7232   2.7232   4.5490   4.5490   4.5490
     4.5490   4.5490   4.5490   4.5490   4.5490   5.8636   5.8636   5.8636

          k =-0.1179 0.1179-0.1179 ( 12939 PWs)   bands (ev):

    -7.3200  -5.1996  -4.7841  -4.7841  -4.7841  -3.4711  -3.4711  -3.4711
    -2.0556  -2.0556  -2.0556  -1.7403  -1.7403  -1.7403  -1.2874   2.3893
     2.3893   2.3893   2.8087   2.8087   2.8087   3.9458   3.9458   3.9458
     4.3589   4.3589   4.3589   4.6063   4.6063   4.9676   5.7157   5.7157

          k =-0.2357 0.2357-0.2357 ( 12885 PWs)   bands (ev):

    -7.0205  -5.8917  -4.6488  -4.6488  -4.6488  -4.0062  -4.0062  -4.0062
    -1.4454  -1.4454  -1.4454  -1.3990  -1.3990  -1.3990  -0.0147   1.9030
     1.9030   1.9030   2.8633   2.8633   2.8633   3.0581   3.0581   3.0581
     3.2995   3.9232   3.9232   3.9232   4.7758   4.7758   5.3889   5.3889

          k = 0.3536-0.3536 0.3536 ( 12938 PWs)   bands (ev):

    -6.5336  -6.5336  -4.3961  -4.3961  -4.3961  -4.3961  -4.3961  -4.3961
    -1.1939  -1.1939  -1.1939  -1.1939  -1.1939  -1.1939   1.5688   1.5688
     2.0194   2.0194   2.0194   2.0194   2.0194   2.0194   3.4485   3.4485
     3.4485   3.4485   3.4485   3.4485   5.0474   5.0474   5.0474   5.0474

          k = 0.0000 0.2357 0.0000 ( 12951 PWs)   bands (ev):

    -7.2862  -4.9194  -4.9194  -4.9194  -4.9194  -4.1573  -2.7600  -2.7600
    -2.7600  -2.7600  -1.5400  -1.5400  -1.5400  -1.5400  -1.2837   2.4069
     2.4069   2.4069   2.4069   2.8474   2.8474   3.8411   3.8411   3.8411
     3.8411   4.5145   4.5145   4.5145   4.5145   5.1414   5.4192   5.4192

          k =-0.1179 0.3536-0.1179 ( 12894 PWs)   bands (ev):

    -7.0523  -5.5693  -4.9349  -4.9349  -4.7092  -4.5206  -3.3662  -3.3662
    -2.0454  -2.0454  -1.6254  -1.1699  -1.1699  -0.5360  -0.4448   1.7681
     1.7681   2.6167   2.6167   2.6243   2.6939   3.0530   3.0971   3.0971
     3.7990   3.8747   4.1245   4.1725   4.1725   4.7791   5.0255   5.2371

          k = 0.4714-0.2357 0.4714 ( 12908 PWs)   bands (ev):

    -6.6262  -6.2464  -5.0935  -4.8063  -4.8063  -4.0330  -3.8595  -3.8595
    -1.6601  -1.5913  -1.5913  -0.7926  -0.7926  -0.1531   1.0345   1.5549
     1.5549   1.6133   2.1261   2.3656   2.3656   2.6253   3.0060   3.0060
     3.4082   3.5528   3.5528   3.6474   4.0567   4.6765   4.8922   5.1218

          k = 0.3536-0.1179 0.3536 ( 12892 PWs)   bands (ev):

    -6.7895  -6.0302  -5.3010  -4.5192  -4.5192  -4.2501  -4.2501  -3.4803
    -1.9504  -1.5873  -1.5873  -0.7886  -0.7886  -0.3940   0.5123   1.2608
     2.0916   2.0916   2.1327   2.1327   2.6700   2.9968   2.9968   3.2293
     3.2481   3.5313   3.5313   3.8680   4.3973   4.4372   4.5042   5.4818

          k = 0.2357-0.0000 0.2357 ( 12901 PWs)   bands (ev):

    -7.1527  -5.3329  -5.3329  -4.5561  -4.5561  -4.0703  -4.0703  -2.9596
    -2.5088  -1.7310  -1.7310  -1.3242  -1.3242  -0.8730  -0.8730   1.6635
     2.4514   2.4514   2.6620   2.6620   2.9396   3.0578   3.0578   4.0693
     4.0693   4.1693   4.1743   4.1743   4.3304   4.3304   4.9666   5.7346

          k = 0.0000 0.4714 0.0000 ( 12907 PWs)   bands (ev):

    -6.8842  -5.3055  -5.0789  -5.0789  -5.0789  -5.0789  -2.6672  -2.6672
    -2.6672  -2.6672  -0.7712  -0.7712  -0.7712  -0.7712   0.3481   1.8878
     1.8878   1.8878   1.8878   2.5622   2.5622   2.5622   2.5622   3.2148
     3.2148   3.6779   4.4494   4.4494   4.4494   4.4494   4.5890   4.5890

          k = 0.5893-0.1179 0.5893 ( 12907 PWs)   bands (ev):

    -6.5209  -5.7754  -5.7347  -5.0618  -5.0618  -4.4536  -3.2438  -3.2438
    -2.0537  -2.0537  -1.1049  -0.3907  -0.3907   0.5181   1.0036   1.4030
     1.4030   1.4804   2.0439   2.0439   2.2674   2.2674   2.4638   2.7269
     3.3098   3.5314   3.9852   4.0731   4.0731   4.2152   4.2196   4.8543

          k = 0.4714-0.0000 0.4714 ( 12878 PWs)   bands (ev):

    -6.3673  -5.9783  -5.9783  -4.8750  -4.8750  -3.7846  -3.7735  -3.7735
    -1.7110  -1.7110  -1.6293  -0.3642  -0.3642   0.9943   0.9943   1.0353
     1.4869   1.4869   1.7989   1.9791   1.9791   2.8654   2.8654   3.2762
     3.3792   3.3792   3.5507   3.7334   3.7334   3.9667   3.9667   5.2513

          k = 0.0000-0.7071 0.0000 ( 12896 PWs)   bands (ev):

    -6.2203  -6.2203  -5.1485  -5.1485  -5.1485  -5.1485  -2.6173  -2.6173
    -2.6173  -2.6173  -0.1808  -0.1808  -0.1808  -0.1808   1.6608   1.6608
     1.6608   1.6608   1.7787   1.7787   1.7787   1.7787   2.0269   2.0269
     3.8100   3.8100   3.8100   3.8100   4.4183   4.4183   4.4183   4.4183

          k = 0.4714-0.2357 0.7071 ( 12905 PWs)   bands (ev):

    -6.7541  -5.6289  -5.6289  -5.1952  -4.4020  -4.4020  -3.8301  -3.1914
    -2.1729  -1.4856  -1.3767  -1.3767   0.0568   0.0568   0.1502   1.2164
     1.7534   1.9596   1.9596   2.4362   2.7742   2.8369   2.9074   3.2345
     3.2392   3.2392   3.7226   3.7226   4.1266   4.4484   4.4484   5.1124

          k = 0.3536-0.1179 0.5893 ( 12886 PWs)   bands (ev):

    -6.2693  -6.2693  -5.5044  -5.5044  -4.1775  -4.1775  -3.7791  -3.7791
    -1.6713  -1.6713  -1.2288  -1.2288   0.3926   0.3926   1.2320   1.2320
     1.5192   1.5192   1.5913   1.5913   2.7599   2.7599   3.0089   3.0089
     3.2271   3.2271   3.5401   3.5401   3.7885   3.7885   4.8109   4.8109

          k =-0.2357-0.7071 0.0000 ( 12912 PWs)   bands (ev):

    -6.0973  -6.0973  -5.7339  -5.7339  -4.3807  -4.3807  -3.5027  -3.5027
    -1.7960  -1.7960  -1.0082  -1.0082   0.7092   0.7092   1.2640   1.2640
     1.3306   1.3306   1.5721   1.5721   2.5097   2.5097   2.5176   2.5176
     3.3492   3.3492   3.6096   3.6096   4.1063   4.1063   4.4923   4.4923

     highest occupied level (ev):     5.8636

!    total energy              =    -126.14957293 Ry
     estimated scf accuracy    <          1.1E-09 Ry

     convergence has been achieved in   1 iterations

     Using ACE for calculation of exact exchange
     ACE projected onto    32 (nbndproj) and applied to    32 (nbnd) bands

!!   total energy              =    -126.14957293 Ry
     Harris-Foulkes estimate   =    -126.14957293 Ry
     est. exchange err (dexx)  =          2.1E-09 Ry
     - averaged Fock potential =      13.38226348 Ry
     + Fock energy (ACE)       =      -6.69114838 Ry

     EXX self-consistency reached

     Forces acting on atoms (cartesian axes, Ry/au):

     atom    1 type  1   force =     0.00000000   -0.00000000   -0.00000000
     atom    2 type  1   force =    -0.00000000    0.00000000    0.00000000
     atom    3 type  1   force =    -0.00000000    0.00000001   -0.00000000
     atom    4 type  1   force =     0.00000000    0.00000000   -0.00000000
     atom    5 type  1   force =    -0.00000001    0.00000000    0.00000000
     atom    6 type  1   force =    -0.00000000   -0.00000000   -0.00000000
     atom    7 type  1   force =     0.00000000    0.00000000    0.00000001
     atom    8 type  1   force =     0.00000000   -0.00000000    0.00000000
     atom    9 type  1   force =     0.00000000    0.00000000   -0.00000001
     atom   10 type  1   force =    -0.00000001    0.00000001   -0.00000001
     atom   11 type  1   force =     0.00000001    0.00000000    0.00000000
     atom   12 type  1   force =     0.00000001    0.00000001    0.00000001
     atom   13 type  1   force =     0.00000000   -0.00000001    0.00000000
     atom   14 type  1   force =    -0.00000001   -0.00000001    0.00000001
     atom   15 type  1   force =     0.00000000   -0.00000000    0.00000000
     atom   16 type  1   force =     0.00000001   -0.00000001   -0.00000001

     Total force =     0.000000     Total SCF correction =     0.000001
     SCF correction compared to forces is large: reduce conv_thr to get better values

     Writing all to output data dir ./tmp/si_sup.save/ :
     XML data file, charge density, pseudopotentials, collected wavefunctions
 
     init_run     :      1.18s CPU      1.28s WALL (       1 calls)
     electrons    :     16.16s CPU     17.22s WALL (       7 calls)
     forces       :      0.05s CPU      0.05s WALL (       1 calls)

     Called by init_run:
     aceinit0     :      0.00s CPU      0.00s WALL (       1 calls)
     wfcinit      :      1.11s CPU      1.19s WALL (       1 calls)
     potinit      :      0.02s CPU      0.02s WALL (       1 calls)
     hinit0       :      0.00s CPU      0.01s WALL (       1 calls)

     Called by electrons:
     c_bands      :     14.07s CPU     14.94s WALL (      30 calls)
     sum_band     :      1.62s CPU      1.75s WALL (      30 calls)
     v_of_rho     :      0.40s CPU      0.42s WALL (      30 calls)
     mix_rho      :      0.03s CPU      0.03s WALL (      30 calls)

     Called by c_bands:
     init_us_2    :      0.52s CPU      0.53s WALL (     496 calls)
     cegterg      :     12.50s CPU     13.31s WALL (     240 calls)

     Called by *egterg:
     cdiaghg      :      1.25s CPU      1.27s WALL (     953 calls)
     h_psi        :     10.46s CPU     11.31s WALL (    1025 calls)
     g_psi        :      0.03s CPU      0.03s WALL (     777 calls)

     Called by h_psi:
     h_psi:calbec :      1.07s CPU      1.11s WALL (    1025 calls)
     vloc_psi     :      7.94s CPU      8.73s WALL (    1025 calls)
     add_vuspsi   :      0.79s CPU      0.80s WALL (    1025 calls)

     General routines
     calbec       :      1.61s CPU      1.66s WALL (    2062 calls)
     fft          :      0.10s CPU      0.12s WALL (     295 calls)
     ffts         :      0.01s CPU      0.01s WALL (      30 calls)
     fftw         :      7.90s CPU      8.70s WALL (   63462 calls)
     fftc         :   5930.04s CPU   6383.67s WALL (24772608 calls)
     fftcw        :      1.21s CPU      1.73s WALL (    5376 calls)
 
     Parallel routines

     EXX routines
     exx_grid     :      0.02s CPU      0.02s WALL (       1 calls)
     exxinit      :    106.09s CPU    108.68s WALL (       7 calls)
     vexx         :  11226.20s CPU  11785.08s WALL (      56 calls)
     matcalc      :      0.53s CPU      0.54s WALL (    1005 calls)
     aceupdate    :      0.01s CPU      0.01s WALL (      56 calls)
     vexxace      :      0.66s CPU      0.66s WALL (     845 calls)
     aceinit      :  11226.33s CPU  11785.22s WALL (      56 calls)
 
     PWSCF        :      3h10m CPU      3h19m WALL

 
   This run was terminated on:  22:14:28  10Jun2026            

=------------------------------------------------------------------------------=
   JOB DONE.
=------------------------------------------------------------------------------=
