
     Program PWSCF v.7.4 starts on 12May2026 at 23:35:23 

     This program is part of the open-source Quantum ESPRESSO suite
     for quantum simulation of materials; please cite
         "P. Giannozzi et al., J. Phys.:Condens. Matter 21 395502 (2009);
         "P. Giannozzi et al., J. Phys.:Condens. Matter 29 465901 (2017);
         "P. Giannozzi et al., J. Chem. Phys. 152 154105 (2020);
          URL http://www.quantum-espresso.org", 
     in publications or presentations arising from this work. More details at
     http://www.quantum-espresso.org/quote

     Parallel version (MPI), running on    12 processors

     MPI processes distributed on     1 nodes
     136603 MiB available memory on the printing compute node when the environment starts
 
     Reading input from ./scratch_runs/atom01_y_plus/atom01_y_plus.in

     Current dimensions of program PWSCF are:
     Max number of different atomic species (ntypx) = 10
     Max number of k-points (npk) =  40000
     Max angular momentum in pseudopotentials (lmaxx) =  4
read_pp_mesh; mismatch in mesh size, discarding the one in header
     Message from routine setup:
     using ibrav=0 with symmetry is DISCOURAGED, use correct ibrav instead
 
     R & G space division:  proc/nbgrp/npool/nimage =      12
     Subspace diagonalization in iterative solution of the eigenvalue problem:
     a serial algorithm will be used

 
     Parallelization info
     --------------------
     sticks:   dense  smooth     PW     G-vecs:    dense   smooth      PW
     Min         797     797    207               113899   113899   15105
     Max         798     798    208               113908   113908   15112
     Sum        9565    9565   2491              1366799  1366799  181303
 
     Using Slab Decomposition
 


     bravais-lattice index     =            0
     lattice parameter (alat)  =      18.6352  a.u.
     unit-cell volume          =   10116.1574 (a.u.)^3
     number of atoms/cell      =           32
     number of atomic types    =            1
     number of electrons       =       128.00
     number of Kohn-Sham states=           77
     kinetic-energy cutoff     =     100.0000  Ry
     charge density cutoff     =     400.0000  Ry
     scf convergence threshold =      1.0E-16
     mixing beta               =       0.7000
     number of iterations used =            8  plain     mixing
     Exchange-correlation= SLA PW NOGX NOGC
                           (   1   4   0   0   0   0   0)

     celldm(1)=  18.635156  celldm(2)=   0.000000  celldm(3)=   0.000000
     celldm(4)=   0.000000  celldm(5)=   0.000000  celldm(6)=   0.000000

     crystal axes: (cart. coord. in units of alat)
               a(1) = (   1.000000   0.000000   0.000000 )  
               a(2) = (  -0.500000   0.866025   0.000000 )  
               a(3) = (   0.000000   0.000000   1.805036 )  

     reciprocal axes: (cart. coord. in units 2 pi/alat)
               b(1) = (  1.000000  0.577350  0.000000 )  
               b(2) = (  0.000000  1.154701  0.000000 )  
               b(3) = (  0.000000  0.000000  0.554006 )  


     PseudoPot. # 1 for C  read from file:
     ./C.upf
     MD5 check sum: 1b594deb0bcc8b4bffb8cfaf75c62b92
     Pseudo is Projector augmented-wave + core cor, Zval =  4.0
     Generated using ATOMPAW code
     Shape of augmentation charge: SINC**2
     Using radial grid of 2342 points,  4 beta functions with: 
                l(1) =   0
                l(2) =   0
                l(3) =   1
                l(4) =   1
     Q(r) pseudized with 0 coefficients 


     atomic species   valence    mass     pseudopotential
     C                 4.00    12.01070     C ( 1.00)

      4 Sym. Ops. (no inversion) found



   Cartesian axes

     site n.     atom                  positions (alat units)
         1        C      tau(   1) = (   0.0000000   0.0010141   0.9025179  )
         2        C      tau(   2) = (  -0.0000005   0.1443379   0.9025179  )
         3        C      tau(   3) = (   0.2500000   0.0000000   0.9025179  )
         4        C      tau(   4) = (   0.2499995   0.1443379   0.9025179  )
         5        C      tau(   5) = (   0.5000000   0.0000000   0.9025179  )
         6        C      tau(   6) = (   0.4999995   0.1443379   0.9025179  )
         7        C      tau(   7) = (   0.7500000   0.0000000   0.9025179  )
         8        C      tau(   8) = (   0.7499995   0.1443379   0.9025179  )
         9        C      tau(   9) = (  -0.1249999   0.2165063   0.9025179  )
        10        C      tau(  10) = (  -0.1250005   0.3608442   0.9025179  )
        11        C      tau(  11) = (   0.1249999   0.2165063   0.9025179  )
        12        C      tau(  12) = (   0.1249995   0.3608442   0.9025179  )
        13        C      tau(  13) = (   0.3749999   0.2165063   0.9025179  )
        14        C      tau(  14) = (   0.3749995   0.3608442   0.9025179  )
        15        C      tau(  15) = (   0.6249999   0.2165063   0.9025179  )
        16        C      tau(  16) = (   0.6249995   0.3608442   0.9025179  )
        17        C      tau(  17) = (  -0.2500000   0.4330127   0.9025179  )
        18        C      tau(  18) = (  -0.2500005   0.5773506   0.9025179  )
        19        C      tau(  19) = (   0.0000000   0.4330127   0.9025179  )
        20        C      tau(  20) = (  -0.0000005   0.5773506   0.9025179  )
        21        C      tau(  21) = (   0.2500000   0.4330127   0.9025179  )
        22        C      tau(  22) = (   0.2499995   0.5773506   0.9025179  )
        23        C      tau(  23) = (   0.5000000   0.4330127   0.9025179  )
        24        C      tau(  24) = (   0.4999995   0.5773506   0.9025179  )
        25        C      tau(  25) = (  -0.3749999   0.6495190   0.9025179  )
        26        C      tau(  26) = (  -0.3750005   0.7938569   0.9025179  )
        27        C      tau(  27) = (  -0.1249999   0.6495190   0.9025179  )
        28        C      tau(  28) = (  -0.1250005   0.7938569   0.9025179  )
        29        C      tau(  29) = (   0.1249999   0.6495190   0.9025179  )
        30        C      tau(  30) = (   0.1249995   0.7938569   0.9025179  )
        31        C      tau(  31) = (   0.3749999   0.6495190   0.9025179  )
        32        C      tau(  32) = (   0.3749995   0.7938569   0.9025179  )

     number of k points=    16  Marzari-Vanderbilt smearing, width (Ry)=  0.0200
                       cart. coord. in units 2pi/alat
        k(    1) = (   0.0000000   0.0000000   0.0000000), wk =   0.0408163
        k(    2) = (   0.0000000   0.1649572   0.0000000), wk =   0.0816327
        k(    3) = (   0.0000000   0.3299144   0.0000000), wk =   0.0816327
        k(    4) = (   0.0000000   0.4948717   0.0000000), wk =   0.0816327
        k(    5) = (   0.1428571   0.2474358   0.0000000), wk =   0.1632653
        k(    6) = (   0.1428571   0.4123930   0.0000000), wk =   0.1632653
        k(    7) = (   0.1428571   0.5773503   0.0000000), wk =   0.0816327
        k(    8) = (   0.2857143   0.4948717   0.0000000), wk =   0.1632653
        k(    9) = (  -0.1428571   0.0824786   0.0000000), wk =   0.1632653
        k(   10) = (  -0.2857143   0.1649572   0.0000000), wk =   0.1632653
        k(   11) = (  -0.4285714   0.2474358   0.0000000), wk =   0.1632653
        k(   12) = (   0.2857143   0.0000000   0.0000000), wk =   0.0816327
        k(   13) = (  -0.2857143   0.3299144   0.0000000), wk =   0.1632653
        k(   14) = (   0.4285714   0.0824786   0.0000000), wk =   0.1632653
        k(   15) = (  -0.4285714   0.4123930   0.0000000), wk =   0.1632653
        k(   16) = (   0.5714286   0.0000000   0.0000000), wk =   0.0816327

     Dense  grid:  1366799 G-vectors     FFT dimensions: ( 120, 120, 216)

     Estimated max dynamical RAM per process >     644.54 MB

     Estimated total dynamical RAM >       7.55 GB
 ----2D----2D----2D----2D----2D----2D----2D----2D----2D----2D----2D----2D
  The code is running with the 2D cutoff
  Please refer to:
  Sohier, T., Calandra, M., & Mauri, F. (2017), 
  Density functional perturbation theory for gated two-dimensional heterostructu
 res:
  Theoretical developments and application to flexural phonons in graphene.
  Physical Review B, 96(7), 75448. https://doi.org/10.1103/PhysRevB.96.075448
 ----2D----2D----2D----2D----2D----2D----2D----2D----2D----2D----2D----2D

     Check: negative core charge=   -0.000011

     Initial potential from superposition of free atoms

     starting charge     127.9988, renormalised to     128.0000

     negative rho (up, down):  7.346E-05 0.000E+00
     Starting wfcs are  256 randomized atomic wfcs
     Checking if some PAW data can be deallocated... 

     total cpu time spent up to now is       20.9 secs

     per-process dynamical memory:   459.3 Mb

     Self-consistent Calculation

     iteration #  1     ecut=   100.00 Ry     beta= 0.70
     Davidson diagonalization with overlap
     ethr =  1.00E-02,  avg # of iterations =  2.0

     negative rho (up, down):  4.049E-04 0.000E+00

     total cpu time spent up to now is       42.7 secs

     total energy              =    -569.79347094 Ry
     estimated scf accuracy    <       3.13468189 Ry

     iteration #  2     ecut=   100.00 Ry     beta= 0.70
     Davidson diagonalization with overlap
     ethr =  2.45E-03,  avg # of iterations =  2.0

     negative rho (up, down):  5.728E-04 0.000E+00

     total cpu time spent up to now is       62.2 secs

     total energy              =    -570.24395004 Ry
     estimated scf accuracy    <       0.03986960 Ry

     iteration #  3     ecut=   100.00 Ry     beta= 0.70
     Davidson diagonalization with overlap
     c_bands:  1 eigenvalues not converged
     c_bands:  2 eigenvalues not converged
     c_bands:  1 eigenvalues not converged
     c_bands:  3 eigenvalues not converged
     c_bands:  1 eigenvalues not converged
     c_bands:  3 eigenvalues not converged
     c_bands:  1 eigenvalues not converged
     c_bands:  2 eigenvalues not converged
     c_bands:  1 eigenvalues not converged
     c_bands:  2 eigenvalues not converged
     c_bands:  1 eigenvalues not converged
     c_bands:  3 eigenvalues not converged
     ethr =  3.11E-05,  avg # of iterations = 15.8

     negative rho (up, down):  6.826E-04 0.000E+00

     total cpu time spent up to now is       93.1 secs

     total energy              =    -570.24892978 Ry
     estimated scf accuracy    <       0.00431925 Ry

     iteration #  4     ecut=   100.00 Ry     beta= 0.70
     Davidson diagonalization with overlap
     c_bands:  1 eigenvalues not converged
     c_bands:  2 eigenvalues not converged
     c_bands:  1 eigenvalues not converged
     ethr =  3.37E-06,  avg # of iterations = 15.9

     negative rho (up, down):  7.096E-04 0.000E+00

     total cpu time spent up to now is      127.2 secs

     total energy              =    -570.24886567 Ry
     estimated scf accuracy    <       0.01129460 Ry

     iteration #  5     ecut=   100.00 Ry     beta= 0.70
     Davidson diagonalization with overlap
     ethr =  3.37E-06,  avg # of iterations =  5.5

     negative rho (up, down):  7.174E-04 0.000E+00

     total cpu time spent up to now is      148.6 secs

     total energy              =    -570.25079231 Ry
     estimated scf accuracy    <       0.00005391 Ry

     iteration #  6     ecut=   100.00 Ry     beta= 0.70
     Davidson diagonalization with overlap
     ethr =  4.21E-08,  avg # of iterations =  5.0

     negative rho (up, down):  7.256E-04 0.000E+00

     total cpu time spent up to now is      173.9 secs

     total energy              =    -570.25082853 Ry
     estimated scf accuracy    <       0.00001802 Ry

     iteration #  7     ecut=   100.00 Ry     beta= 0.70
     Davidson diagonalization with overlap
     ethr =  1.41E-08,  avg # of iterations =  2.0

     negative rho (up, down):  7.273E-04 0.000E+00

     total cpu time spent up to now is      192.4 secs

     total energy              =    -570.25083087 Ry
     estimated scf accuracy    <       0.00000225 Ry

     iteration #  8     ecut=   100.00 Ry     beta= 0.70
     Davidson diagonalization with overlap
     ethr =  1.76E-09,  avg # of iterations =  2.9

     negative rho (up, down):  7.275E-04 0.000E+00

     total cpu time spent up to now is      211.6 secs

     total energy              =    -570.25083120 Ry
     estimated scf accuracy    <       0.00000024 Ry

     iteration #  9     ecut=   100.00 Ry     beta= 0.70
     Davidson diagonalization with overlap
     ethr =  1.86E-10,  avg # of iterations =  3.4

     negative rho (up, down):  7.276E-04 0.000E+00

     total cpu time spent up to now is      233.4 secs

     total energy              =    -570.25083127 Ry
     estimated scf accuracy    <       0.00000009 Ry

     iteration # 10     ecut=   100.00 Ry     beta= 0.70
     Davidson diagonalization with overlap
     ethr =  7.03E-11,  avg # of iterations =  2.1

     negative rho (up, down):  7.277E-04 0.000E+00

     total cpu time spent up to now is      251.6 secs

     total energy              =    -570.25083128 Ry
     estimated scf accuracy    <       0.00000002 Ry

     iteration # 11     ecut=   100.00 Ry     beta= 0.70
     Davidson diagonalization with overlap
     ethr =  1.41E-11,  avg # of iterations =  2.0

     negative rho (up, down):  7.278E-04 0.000E+00

     total cpu time spent up to now is      269.0 secs

     total energy              =    -570.25083128 Ry
     estimated scf accuracy    <          3.2E-09 Ry

     iteration # 12     ecut=   100.00 Ry     beta= 0.70
     Davidson diagonalization with overlap
     ethr =  2.51E-12,  avg # of iterations =  2.1

     negative rho (up, down):  7.278E-04 0.000E+00

     total cpu time spent up to now is      286.9 secs

     total energy              =    -570.25083129 Ry
     estimated scf accuracy    <          4.9E-10 Ry

     iteration # 13     ecut=   100.00 Ry     beta= 0.70
     Davidson diagonalization with overlap
     ethr =  3.83E-13,  avg # of iterations =  3.6

     negative rho (up, down):  7.278E-04 0.000E+00

     total cpu time spent up to now is      307.2 secs

     total energy              =    -570.25083129 Ry
     estimated scf accuracy    <          2.2E-11 Ry

     iteration # 14     ecut=   100.00 Ry     beta= 0.70
     Davidson diagonalization with overlap
     ethr =  1.00E-13,  avg # of iterations =  2.1

     negative rho (up, down):  7.278E-04 0.000E+00

     total cpu time spent up to now is      325.3 secs

     total energy              =    -570.25083129 Ry
     estimated scf accuracy    <          3.6E-11 Ry

     iteration # 15     ecut=   100.00 Ry     beta= 0.70
     Davidson diagonalization with overlap
     ethr =  1.00E-13,  avg # of iterations =  1.0

     negative rho (up, down):  7.278E-04 0.000E+00

     total cpu time spent up to now is      340.5 secs

     total energy              =    -570.25083129 Ry
     estimated scf accuracy    <          4.6E-12 Ry

     iteration # 16     ecut=   100.00 Ry     beta= 0.70
     Davidson diagonalization with overlap
     ethr =  1.00E-13,  avg # of iterations =  1.0

     negative rho (up, down):  7.278E-04 0.000E+00

     total cpu time spent up to now is      355.8 secs

     total energy              =    -570.25083129 Ry
     estimated scf accuracy    <          6.6E-13 Ry

     iteration # 17     ecut=   100.00 Ry     beta= 0.70
     Davidson diagonalization with overlap
     ethr =  1.00E-13,  avg # of iterations =  1.0

     negative rho (up, down):  7.278E-04 0.000E+00

     total cpu time spent up to now is      371.0 secs

     total energy              =    -570.25083129 Ry
     estimated scf accuracy    <          8.3E-14 Ry

     iteration # 18     ecut=   100.00 Ry     beta= 0.70
     Davidson diagonalization with overlap
     ethr =  1.00E-13,  avg # of iterations =  1.0

     negative rho (up, down):  7.278E-04 0.000E+00

     total cpu time spent up to now is      386.2 secs

     total energy              =    -570.25083129 Ry
     estimated scf accuracy    <          7.8E-14 Ry

     iteration # 19     ecut=   100.00 Ry     beta= 0.70
     Davidson diagonalization with overlap
     ethr =  1.00E-13,  avg # of iterations =  1.0

     negative rho (up, down):  7.278E-04 0.000E+00

     total cpu time spent up to now is      401.5 secs

     total energy              =    -570.25083129 Ry
     estimated scf accuracy    <          1.9E-14 Ry

     iteration # 20     ecut=   100.00 Ry     beta= 0.70
     Davidson diagonalization with overlap
     ethr =  1.00E-13,  avg # of iterations =  1.0

     negative rho (up, down):  7.278E-04 0.000E+00

     total cpu time spent up to now is      416.7 secs

     total energy              =    -570.25083129 Ry
     estimated scf accuracy    <          5.7E-15 Ry

     iteration # 21     ecut=   100.00 Ry     beta= 0.70
     Davidson diagonalization with overlap
     ethr =  1.00E-13,  avg # of iterations =  1.0

     negative rho (up, down):  7.278E-04 0.000E+00

     total cpu time spent up to now is      431.9 secs

     total energy              =    -570.25083129 Ry
     estimated scf accuracy    <          3.3E-16 Ry

     iteration # 22     ecut=   100.00 Ry     beta= 0.70
     Davidson diagonalization with overlap
     ethr =  1.00E-13,  avg # of iterations =  1.0

     negative rho (up, down):  7.278E-04 0.000E+00

     total cpu time spent up to now is      447.1 secs

     End of self-consistent calculation

          k = 0.0000 0.0000 0.0000 (170861 PWs)   bands (ev):

   -23.8599 -22.4137 -22.4030 -22.4027 -22.4022 -22.4013 -22.3929 -19.6115
   -19.5985 -19.5974 -19.5972 -19.5933 -19.5869 -18.6006 -18.5903 -18.5901
   -17.7098 -17.7047 -17.6987 -14.9380 -14.9237 -14.9229 -14.9226 -14.9180
   -14.9126 -13.5147 -13.5125 -13.5068 -13.5068 -13.5007 -13.4995 -12.1913
   -11.9191 -11.9058 -11.9029 -11.9024 -11.8984 -11.8870 -10.9725 -10.9669
   -10.9611 -10.4693 -10.4604 -10.4601 -10.4597 -10.4590 -10.4521  -9.6219
    -9.6063  -9.6034  -9.6030  -9.6010  -9.5842  -7.6070  -7.5884  -7.3104
    -7.2978  -7.2976  -7.2975  -7.2956  -7.2870  -6.9128  -6.9060  -6.9020
    -2.9319  -2.9240  -2.9175  -1.7640  -1.7498  -1.7494  -1.7494  -1.7467
    -1.7374  -1.2542  -0.4981   0.4161   0.7434

          k = 0.0000 0.1650 0.0000 (170869 PWs)   bands (ev):

   -23.8299 -22.7868 -22.5800 -22.5792 -22.1677 -22.1669 -21.9621 -20.1546
   -20.1531 -19.5714 -19.5681 -19.0249 -18.9999 -18.9994 -18.7198 -18.7127
   -17.5326 -17.5290 -17.2330 -15.4982 -15.4890 -15.1631 -15.1619 -14.4643
   -14.4556 -13.9122 -13.9113 -13.2638 -13.2594 -12.9279 -12.9267 -12.8397
   -12.3681 -12.3606 -12.1552 -11.4481 -11.4396 -11.0650 -11.0574 -10.9924
   -10.9327 -10.9107 -10.6681 -10.6667 -10.1867 -10.1855  -9.9489  -9.9382
    -9.8786  -9.8684  -9.5213  -9.5105  -9.2289  -7.8996  -7.8995  -7.7283
    -7.6543  -7.2854  -7.2801  -7.0948  -6.9352  -6.9288  -6.6765  -6.6744
    -2.8677  -2.8616  -2.6929  -2.4449  -2.4386  -1.8106  -1.8053  -1.2134
    -1.0574  -1.0534  -0.4566   0.2145   0.4588

          k = 0.0000 0.3299 0.0000 (170839 PWs)   bands (ev):

   -23.7400 -23.1132 -22.6983 -22.6975 -21.8750 -21.8741 -21.4666 -20.6634
   -20.6621 -19.6792 -19.4891 -19.4858 -18.9484 -18.9429 -18.3770 -18.3760
   -17.1549 -17.1532 -16.4466 -16.1414 -16.1325 -15.6496 -15.6487 -14.1512
   -14.1502 -14.0590 -14.0508 -13.7735 -12.8217 -12.8142 -12.7623 -12.7578
   -12.2494 -12.2462 -12.0471 -11.3277 -11.3210 -11.2975 -11.0351 -11.0265
   -10.8434 -10.8067 -10.8053 -10.3146 -10.3059 -10.2387 -10.1199  -9.8471
    -9.8460  -9.5784  -9.5676  -9.3858  -8.8466  -8.4650  -8.4645  -8.0786
    -7.8417  -7.5674  -7.2376  -7.2323  -6.9964  -6.9903  -6.0820  -6.0781
    -3.0886  -3.0796  -2.7097  -2.7038  -2.0811  -1.9816  -1.9761  -1.0909
    -0.3732  -0.3700  -0.3320  -0.2338   0.3375

          k = 0.0000 0.4949 0.0000 (170854 PWs)   bands (ev):

   -23.5904 -23.3812 -22.7575 -22.7568 -21.5260 -21.5248 -21.1214 -21.1202
   -20.9177 -20.3195 -19.3543 -19.3505 -19.1704 -19.1661 -17.7966 -17.7955
   -16.7465 -16.7351 -16.6898 -16.6889 -16.1783 -16.1780 -15.5897 -14.6942
   -14.2590 -14.2584 -13.6639 -13.6565 -13.2537 -13.2463 -12.2246 -12.2193
   -11.8674 -11.7291 -11.7230 -11.6171 -11.5482 -11.5432 -10.8860 -10.8795
   -10.8762 -10.8748 -10.7497 -10.7418 -10.6950 -10.4931  -9.6908  -9.6797
    -9.4446  -9.4435  -9.3179  -8.9823  -8.9815  -8.7823  -8.6231  -8.4701
    -8.1612  -8.1243  -7.1655  -7.1597  -7.0793  -7.0737  -5.6429  -5.6362
    -3.5539  -3.5420  -2.4803  -2.4748  -2.2214  -2.2157  -1.2607  -0.8868
    -0.6010  -0.3338  -0.1244   0.1659   0.2563

          k = 0.1429 0.2474 0.0000 (170841 PWs)   bands (ev):

   -23.7699 -22.9364 -22.9335 -22.3168 -22.3121 -21.7007 -21.6978 -20.6915
   -20.0996 -20.0946 -19.3319 -19.3267 -18.9511 -18.9459 -18.5189 -18.3980
   -17.6239 -16.8360 -16.8292 -15.9095 -15.9027 -15.8839 -14.8497 -14.8455
   -14.4280 -13.8368 -13.4745 -13.4677 -13.3015 -13.2932 -12.5499 -12.5439
   -12.4531 -12.0831 -11.9128 -11.9073 -11.3543 -11.0873 -11.0849 -11.0019
   -10.9945 -10.5665 -10.5543 -10.3580 -10.3541 -10.1982 -10.1889  -9.9621
    -9.9542  -9.6494  -9.6469  -9.1359  -9.1229  -8.4923  -7.9549  -7.8561
    -7.8511  -7.7902  -7.2865  -7.2803  -6.7995  -6.6732  -6.6671  -6.0592
    -3.0685  -2.9454  -2.5304  -2.5215  -2.4275  -2.4180  -1.1967  -1.1899
    -1.1317  -0.3735  -0.2934   0.0107   0.0112

          k = 0.1429 0.4124 0.0000 (170817 PWs)   bands (ev):

   -23.6502 -23.2322 -23.0239 -22.4028 -21.9918 -21.3799 -21.1825 -21.1734
   -20.5767 -19.9873 -19.9801 -19.5971 -18.8486 -18.5620 -18.3182 -17.7901
   -17.3793 -16.6203 -16.4258 -16.3817 -16.3720 -16.0077 -15.3558 -14.7287
   -14.5101 -14.2250 -13.7323 -13.5886 -13.3060 -12.8985 -12.3730 -12.0629
   -11.9392 -11.8503 -11.8369 -11.7869 -11.5253 -11.4392 -11.2343 -11.1918
   -10.8763 -10.6197 -10.5303 -10.4700 -10.4586 -10.2073 -10.1323  -9.9792
    -9.7366  -9.2849  -9.1642  -9.0634  -9.0416  -8.7351  -8.3927  -8.3822
    -8.0350  -7.8310  -7.7626  -7.4683  -6.7145  -6.6661  -6.1492  -5.4799
    -3.6517  -3.1124  -2.9221  -2.6643  -2.0999  -1.6964  -1.4433  -0.9684
    -0.5914  -0.3969  -0.2074  -0.1111   0.1354

          k = 0.1429 0.5774 0.0000 (170864 PWs)   bands (ev):

   -23.4736 -23.4680 -23.0537 -22.4323 -21.6176 -21.6081 -21.0099 -21.0002
   -20.6081 -20.5985 -19.8200 -19.8140 -18.7122 -18.7062 -17.9082 -17.3789
   -17.0592 -16.9429 -16.9341 -16.7607 -15.8820 -15.8712 -15.1349 -15.1285
   -14.8220 -14.1443 -14.1328 -13.6278 -12.8374 -12.8258 -12.3206 -12.3136
   -11.7265 -11.7219 -11.6082 -11.5998 -11.3525 -11.2270 -11.1917 -11.1814
   -11.1777 -11.1752 -10.7061 -10.6943 -10.4928 -10.2372 -10.0560  -9.5440
    -9.5362  -9.2107  -9.0071  -8.9920  -8.8652  -8.8575  -8.4513  -8.4418
    -8.3716  -8.3526  -7.6336  -7.6290  -6.6773  -6.6718  -5.9205  -5.1659
    -3.9667  -3.3627  -2.8185  -2.8114  -1.7652  -1.7577  -0.8234  -0.8105
    -0.7239  -0.7231  -0.1516  -0.0055   0.0020

          k = 0.2857 0.4949 0.0000 (170884 PWs)   bands (ev):

   -23.5007 -23.2932 -23.2904 -22.0529 -22.0482 -21.6420 -20.8339 -20.8309
   -20.4363 -20.4314 -20.2378 -20.2329 -18.2916 -18.2559 -18.2504 -17.3963
   -17.2343 -17.0979 -17.0905 -16.7064 -15.5306 -15.5235 -15.0778 -15.0207
   -15.0175 -14.6453 -14.6379 -12.9669 -12.9607 -12.6382 -12.3487 -12.0566
   -12.0478 -11.7600 -11.5115 -11.5092 -11.4246 -11.4187 -11.3389 -11.0861
   -11.0784 -10.8801 -10.8719 -10.7509 -10.7406 -10.0481 -10.0441  -9.5720
    -9.4849  -9.4699  -8.8657  -8.7526  -8.7371  -8.6833  -8.6805  -8.3522
    -8.2496  -8.2448  -8.0635  -8.0587  -6.4711  -6.2828  -6.2753  -4.8967
    -4.2151  -3.1185  -3.1083  -3.0550  -1.2988  -1.2907  -0.9155  -0.9089
    -0.7642  -0.4786  -0.4782  -0.3884  -0.3824

          k =-0.1429 0.0825 0.0000 (170869 PWs)   bands (ev):

   -23.8299 -22.7867 -22.5833 -22.5761 -22.1710 -22.1638 -21.9619 -20.1575
   -20.1500 -19.5736 -19.5663 -19.0253 -19.0036 -18.9964 -18.7184 -18.7119
   -17.5382 -17.5298 -17.2279 -15.4932 -15.4858 -15.1721 -15.1622 -14.4625
   -14.4541 -13.9188 -13.9138 -13.2591 -13.2532 -12.9337 -12.9246 -12.8339
   -12.3709 -12.3628 -12.1552 -11.4527 -11.4443 -11.0616 -11.0545 -10.9852
   -10.9385 -10.9112 -10.6699 -10.6640 -10.1888 -10.1829  -9.9499  -9.9463
    -9.8750  -9.8650  -9.5156  -9.5056  -9.2380  -7.9033  -7.8973  -7.7160
    -7.6666  -7.2843  -7.2761  -7.1004  -6.9325  -6.9250  -6.6808  -6.6745
    -2.8755  -2.8644  -2.6830  -2.4413  -2.4345  -1.8188  -1.8081  -1.2134
    -1.0572  -1.0498  -0.4566   0.2148   0.4596

          k =-0.2857 0.1650 0.0000 (170839 PWs)   bands (ev):

   -23.7400 -23.1131 -22.7016 -22.6944 -21.8782 -21.8710 -21.4663 -20.6664
   -20.6590 -19.6792 -19.4912 -19.4840 -18.9487 -18.9416 -18.3811 -18.3732
   -17.1610 -17.1523 -16.4422 -16.1355 -16.1287 -15.6571 -15.6477 -14.1568
   -14.1541 -14.0587 -14.0505 -13.7683 -12.8236 -12.8156 -12.7598 -12.7529
   -12.2530 -12.2434 -12.0471 -11.3250 -11.3176 -11.2978 -11.0412 -11.0332
   -10.8499 -10.8086 -10.8026 -10.3128 -10.3030 -10.2458 -10.1109  -9.8493
    -9.8434  -9.5701  -9.5612  -9.3872  -8.8565  -8.4681  -8.4622  -8.0662
    -7.8545  -7.5716  -7.2363  -7.2284  -6.9941  -6.9864  -6.0871  -6.0802
    -3.0818  -3.0752  -2.7175  -2.7065  -2.0730  -1.9896  -1.9788  -1.0909
    -0.3742  -0.3664  -0.3320  -0.2339   0.3378

          k =-0.4286 0.2474 0.0000 (170854 PWs)   bands (ev):

   -23.5903 -23.3812 -22.7608 -22.7537 -21.5290 -21.5216 -21.1244 -21.1170
   -20.9175 -20.3193 -19.3561 -19.3488 -19.1717 -19.1645 -17.8033 -17.7943
   -16.7370 -16.7303 -16.6963 -16.6875 -16.1853 -16.1763 -15.5854 -14.6897
   -14.2639 -14.2629 -13.6647 -13.6567 -13.2553 -13.2474 -12.2223 -12.2149
   -11.8675 -11.7267 -11.7191 -11.6173 -11.5499 -11.5401 -10.8864 -10.8781
   -10.8763 -10.8721 -10.7573 -10.7511 -10.7026 -10.5003  -9.6782  -9.6717
    -9.4469  -9.4410  -9.3079  -8.9849  -8.9790  -8.7844  -8.6121  -8.4805
    -8.1642  -8.1364  -7.1638  -7.1560  -7.0775  -7.0695  -5.6494  -5.6414
    -3.5437  -3.5365  -2.4884  -2.4772  -2.2292  -2.2184  -1.2540  -0.8868
    -0.6011  -0.3282  -0.1244   0.1659   0.2563

          k = 0.2857 0.0000 0.0000 (170841 PWs)   bands (ev):

   -23.7699 -22.9377 -22.9321 -22.3193 -22.3099 -21.7020 -21.6962 -20.6913
   -20.1022 -20.0923 -19.3346 -19.3243 -18.9540 -18.9435 -18.5153 -18.3984
   -17.6315 -16.8353 -16.8254 -15.9078 -15.9024 -15.8783 -14.8560 -14.8488
   -14.4335 -13.8296 -13.4746 -13.4697 -13.3008 -13.2877 -12.5462 -12.5361
   -12.4611 -12.0832 -11.9219 -11.9117 -11.3485 -11.0885 -11.0839 -11.0050
   -10.9974 -10.5654 -10.5502 -10.3594 -10.3514 -10.2033 -10.1922  -9.9582
    -9.9420  -9.6511  -9.6467  -9.1398  -9.1251  -8.4939  -7.9412  -7.8564
    -7.8470  -7.8041  -7.2892  -7.2822  -6.7930  -6.6748  -6.6658  -6.0630
    -3.0626  -2.9559  -2.5291  -2.5220  -2.4222  -2.4154  -1.2036  -1.1924
    -1.1317  -0.3735  -0.2883   0.0105   0.0113

          k =-0.2857 0.3299 0.0000 (170817 PWs)   bands (ev):

   -23.6501 -23.2322 -23.0241 -22.4029 -21.9917 -21.3801 -21.1814 -21.1742
   -20.5765 -19.9855 -19.9819 -19.5971 -18.8480 -18.5621 -18.3195 -17.7908
   -17.3792 -16.6142 -16.4316 -16.3811 -16.3738 -16.0035 -15.3568 -14.7309
   -14.5083 -14.2203 -13.7372 -13.5941 -13.3081 -12.8927 -12.3695 -12.0617
   -11.9392 -11.8484 -11.8386 -11.7870 -11.5305 -11.4395 -11.2280 -11.1914
   -10.8827 -10.6129 -10.5348 -10.4764 -10.4581 -10.2189 -10.1260  -9.9798
    -9.7257  -9.2837  -9.1521  -9.0646  -9.0417  -8.7471  -8.3871  -8.3833
    -8.0408  -7.8346  -7.7615  -7.4639  -6.7142  -6.6610  -6.1551  -5.4819
    -3.6491  -3.1035  -2.9224  -2.6733  -2.1084  -1.6888  -1.4459  -0.9684
    -0.5881  -0.3970  -0.2074  -0.1111   0.1401

          k = 0.4286 0.0825 0.0000 (170817 PWs)   bands (ev):

   -23.6501 -23.2322 -23.0240 -22.4030 -21.9919 -21.3797 -21.1791 -21.1762
   -20.5768 -19.9885 -19.9790 -19.5971 -18.8487 -18.5596 -18.3194 -17.7917
   -17.3857 -16.6150 -16.4267 -16.3743 -16.3730 -16.0035 -15.3609 -14.7339
   -14.5141 -14.2199 -13.7314 -13.5933 -13.3000 -12.8975 -12.3775 -12.0565
   -11.9393 -11.8569 -11.8319 -11.7812 -11.5350 -11.4394 -11.2339 -11.1915
   -10.8826 -10.6206 -10.5251 -10.4770 -10.4579 -10.2139 -10.1209  -9.9788
    -9.7287  -9.2853  -9.1580  -9.0645  -9.0435  -8.7436  -8.3810  -8.3783
    -8.0499  -7.8346  -7.7593  -7.4678  -6.7081  -6.6648  -6.1536  -5.4855
    -3.6444  -3.1058  -2.9323  -2.6668  -2.1010  -1.6893  -1.4506  -0.9684
    -0.5946  -0.3969  -0.2074  -0.1111   0.1410

          k =-0.4286 0.4124 0.0000 (170864 PWs)   bands (ev):

   -23.4722 -23.4694 -23.0538 -22.4325 -21.6152 -21.6104 -21.0075 -21.0026
   -20.6055 -20.6007 -19.8186 -19.8156 -18.7103 -18.7071 -17.9123 -17.3834
   -17.0507 -16.9448 -16.9379 -16.7526 -15.8825 -15.8757 -15.1290 -15.1257
   -14.8258 -14.1442 -14.1361 -13.6328 -12.8361 -12.8261 -12.3173 -12.3109
   -11.7255 -11.7232 -11.6041 -11.5971 -11.3620 -11.2267 -11.1905 -11.1821
   -11.1803 -11.1697 -10.7097 -10.7040 -10.4922 -10.2271 -10.0666  -9.5424
    -9.5382  -9.1990  -8.9945  -8.9848  -8.8632  -8.8589  -8.4514  -8.4466
    -8.3779  -8.3675  -7.6309  -7.6271  -6.6741  -6.6682  -5.9269  -5.1722
    -3.9591  -3.3537  -2.8250  -2.8158  -1.7698  -1.7626  -0.8140  -0.8076
    -0.7237  -0.7233  -0.1514  -0.0059   0.0013

          k = 0.5714 0.0000 0.0000 (170884 PWs)   bands (ev):

   -23.5006 -23.2946 -23.2890 -22.0554 -22.0459 -21.6418 -20.8351 -20.8292
   -20.4390 -20.4293 -20.2402 -20.2304 -18.2877 -18.2598 -18.2492 -17.4043
   -17.2369 -17.0935 -17.0885 -16.7015 -15.5305 -15.5197 -15.0799 -15.0270
   -15.0205 -14.6448 -14.6330 -12.9692 -12.9632 -12.6301 -12.3433 -12.0634
   -12.0527 -11.7601 -11.5126 -11.5080 -11.4209 -11.4100 -11.3479 -11.0892
   -11.0808 -10.8844 -10.8751 -10.7466 -10.7322 -10.0495 -10.0417  -9.5731
    -9.4878  -9.4719  -8.8535  -8.7509  -8.7334  -8.6854  -8.6810  -8.3650
    -8.2497  -8.2402  -8.0658  -8.0584  -6.4646  -6.2855  -6.2779  -4.9022
    -4.2090  -3.1127  -3.1062  -3.0650  -1.2959  -1.2889  -0.9241  -0.9117
    -0.7643  -0.4788  -0.4780  -0.3853  -0.3778

     the Fermi energy is    -4.6898 ev

!    total energy              =    -570.25083129 Ry
     total all-electron energy =      -570.250831 Ry
     estimated scf accuracy    <          2.5E-17 Ry
     smearing contrib. (-TS)   =       0.00085121 Ry
     internal energy E=F+TS    =    -570.25168249 Ry

     The total energy is F=E-TS. E is the sum of the following terms:
     one-electron contribution =   -5008.31176189 Ry
     hartree contribution      =    2517.70117241 Ry
     xc contribution           =    -142.34065256 Ry
     ewald contribution        =    2245.92879722 Ry
     one-center paw contrib.   =    -183.22923767 Ry

     convergence has been achieved in  22 iterations

     negative rho (up, down):  7.278E-04 0.000E+00

     Forces acting on atoms (cartesian axes, Ry/au):

     atom    1 type  1   force =     0.00000000   -0.02404712    0.00000000
     atom    2 type  1   force =     0.00000000    0.00994966    0.00000000
     atom    3 type  1   force =    -0.00014005   -0.00101317    0.00000000
     atom    4 type  1   force =    -0.00049274    0.00047183    0.00000000
     atom    5 type  1   force =     0.00000000   -0.00013441    0.00000000
     atom    6 type  1   force =     0.00000000    0.00006242    0.00000000
     atom    7 type  1   force =     0.00014005   -0.00101317    0.00000000
     atom    8 type  1   force =     0.00049274    0.00047183    0.00000000
     atom    9 type  1   force =    -0.00136822    0.00111279   -0.00000000
     atom   10 type  1   force =    -0.00011288   -0.00030558    0.00000000
     atom   11 type  1   force =     0.00136822    0.00111279    0.00000000
     atom   12 type  1   force =     0.00011288   -0.00030558    0.00000000
     atom   13 type  1   force =     0.00008218    0.00011800    0.00000000
     atom   14 type  1   force =    -0.00009258   -0.00009641    0.00000000
     atom   15 type  1   force =    -0.00008218    0.00011800    0.00000000
     atom   16 type  1   force =     0.00009258   -0.00009641   -0.00000000
     atom   17 type  1   force =    -0.00009992    0.00003685    0.00000000
     atom   18 type  1   force =     0.00015896    0.00016294    0.00000000
     atom   19 type  1   force =     0.00000000    0.00026205    0.00000000
     atom   20 type  1   force =     0.00000000   -0.00026319    0.00000000
     atom   21 type  1   force =     0.00009992    0.00003685    0.00000000
     atom   22 type  1   force =    -0.00015896    0.00016294    0.00000000
     atom   23 type  1   force =     0.00000000    0.00026132    0.00000000
     atom   24 type  1   force =     0.00000000   -0.00038399    0.00000000
     atom   25 type  1   force =    -0.00107619    0.00109263    0.00000000
     atom   26 type  1   force =    -0.00227952    0.00548032    0.00000000
     atom   27 type  1   force =    -0.00008436    0.00011722    0.00000000
     atom   28 type  1   force =     0.00026959   -0.00003081    0.00000000
     atom   29 type  1   force =     0.00008436    0.00011722    0.00000000
     atom   30 type  1   force =    -0.00026959   -0.00003081    0.00000000
     atom   31 type  1   force =     0.00107619    0.00109263    0.00000000
     atom   32 type  1   force =     0.00227952    0.00548032   -0.00000000

     Total force =     0.027616     Total SCF correction =     0.000000

     Writing all to output data dir ./scratch_runs/atom01_y_plus/c_sup.save/ :
     XML data file, charge density, pseudopotentials, collected wavefunctions
 
     init_run     :     19.67s CPU     20.78s WALL (       1 calls)
     electrons    :    403.88s CPU    426.25s WALL (       1 calls)
     forces       :      3.02s CPU      3.16s WALL (       1 calls)

     Called by init_run:
     wfcinit      :     19.16s CPU     20.19s WALL (       1 calls)
     potinit      :      0.05s CPU      0.05s WALL (       1 calls)
     hinit0       :      0.04s CPU      0.05s WALL (       1 calls)

     Called by electrons:
     c_bands      :    339.92s CPU    359.29s WALL (      22 calls)
     sum_band     :     61.13s CPU     62.93s WALL (      22 calls)
     v_of_rho     :      0.37s CPU      0.38s WALL (      23 calls)
     newd         :      1.19s CPU      2.39s WALL (      23 calls)
     PAW_pot      :      0.56s CPU      0.56s WALL (      23 calls)
     mix_rho      :      0.71s CPU      0.74s WALL (      22 calls)

     Called by c_bands:
     init_us_2    :     16.38s CPU     16.41s WALL (     736 calls)
     cegterg      :    318.11s CPU    337.39s WALL (     352 calls)

     Called by *egterg:
     cdiaghg      :      6.17s CPU      6.18s WALL (    1540 calls)
     h_psi        :    225.19s CPU    232.00s WALL (    1556 calls)
     s_psi        :     29.34s CPU     29.41s WALL (    1556 calls)
     g_psi        :      1.40s CPU      1.40s WALL (    1188 calls)

     Called by h_psi:
     h_psi:calbec :     26.63s CPU     26.68s WALL (    1556 calls)
     vloc_psi     :    167.50s CPU    169.82s WALL (    1556 calls)
     add_vuspsi   :     29.21s CPU     29.22s WALL (    1556 calls)

     General routines
     calbec       :     37.52s CPU     37.57s WALL (    1972 calls)
     fft          :      0.29s CPU      0.33s WALL (      96 calls)
     ffts         :      0.06s CPU      0.06s WALL (      22 calls)
     fftw         :    150.52s CPU    152.81s WALL (  166740 calls)
 
     Parallel routines
 
     PWSCF        :   7m 7.63s CPU   7m32.49s WALL

 
   This run was terminated on:  23:42:56  12May2026            

=------------------------------------------------------------------------------=
   JOB DONE.
=------------------------------------------------------------------------------=

===== TIMING =====
Job:           atom01_y_plus
Start:         2026-05-12T23:35:21+02:00
End:           2026-05-12T23:42:56+02:00
Duration (s):  455
Duration (H:M:S): 00:07:35
==================
