
     Program PWSCF v.7.4 starts on 12May2026 at 23:50: 1 

     This program is part of the open-source Quantum ESPRESSO suite
     for quantum simulation of materials; please cite
         "P. Giannozzi et al., J. Phys.:Condens. Matter 21 395502 (2009);
         "P. Giannozzi et al., J. Phys.:Condens. Matter 29 465901 (2017);
         "P. Giannozzi et al., J. Chem. Phys. 152 154105 (2020);
          URL http://www.quantum-espresso.org", 
     in publications or presentations arising from this work. More details at
     http://www.quantum-espresso.org/quote

     Parallel version (MPI), running on    12 processors

     MPI processes distributed on     1 nodes
     124778 MiB available memory on the printing compute node when the environment starts
 
     Reading input from ./scratch_runs/atom02_x_minus/atom02_x_minus.in

     Current dimensions of program PWSCF are:
     Max number of different atomic species (ntypx) = 10
     Max number of k-points (npk) =  40000
     Max angular momentum in pseudopotentials (lmaxx) =  4
read_pp_mesh; mismatch in mesh size, discarding the one in header
     Message from routine setup:
     using ibrav=0 with symmetry is DISCOURAGED, use correct ibrav instead
 
     R & G space division:  proc/nbgrp/npool/nimage =      12
     Subspace diagonalization in iterative solution of the eigenvalue problem:
     a serial algorithm will be used

 
     Parallelization info
     --------------------
     sticks:   dense  smooth     PW     G-vecs:    dense   smooth      PW
     Min         797     797    207               113899   113899   15105
     Max         798     798    208               113908   113908   15112
     Sum        9565    9565   2491              1366799  1366799  181303
 
     Using Slab Decomposition
 


     bravais-lattice index     =            0
     lattice parameter (alat)  =      18.6352  a.u.
     unit-cell volume          =   10116.1574 (a.u.)^3
     number of atoms/cell      =           32
     number of atomic types    =            1
     number of electrons       =       128.00
     number of Kohn-Sham states=           77
     kinetic-energy cutoff     =     100.0000  Ry
     charge density cutoff     =     400.0000  Ry
     scf convergence threshold =      1.0E-16
     mixing beta               =       0.7000
     number of iterations used =            8  plain     mixing
     Exchange-correlation= SLA PW NOGX NOGC
                           (   1   4   0   0   0   0   0)

     celldm(1)=  18.635156  celldm(2)=   0.000000  celldm(3)=   0.000000
     celldm(4)=   0.000000  celldm(5)=   0.000000  celldm(6)=   0.000000

     crystal axes: (cart. coord. in units of alat)
               a(1) = (   1.000000   0.000000   0.000000 )  
               a(2) = (  -0.500000   0.866025   0.000000 )  
               a(3) = (   0.000000   0.000000   1.805036 )  

     reciprocal axes: (cart. coord. in units 2 pi/alat)
               b(1) = (  1.000000  0.577350  0.000000 )  
               b(2) = (  0.000000  1.154701  0.000000 )  
               b(3) = (  0.000000  0.000000  0.554006 )  


     PseudoPot. # 1 for C  read from file:
     ./C.upf
     MD5 check sum: 1b594deb0bcc8b4bffb8cfaf75c62b92
     Pseudo is Projector augmented-wave + core cor, Zval =  4.0
     Generated using ATOMPAW code
     Shape of augmentation charge: SINC**2
     Using radial grid of 2342 points,  4 beta functions with: 
                l(1) =   0
                l(2) =   0
                l(3) =   1
                l(4) =   1
     Q(r) pseudized with 0 coefficients 


     atomic species   valence    mass     pseudopotential
     C                 4.00    12.01070     C ( 1.00)

      2 Sym. Ops. (no inversion) found



   Cartesian axes

     site n.     atom                  positions (alat units)
         1        C      tau(   1) = (   0.0000000   0.0000000   0.9025179  )
         2        C      tau(   2) = (  -0.0010146   0.1443379   0.9025179  )
         3        C      tau(   3) = (   0.2500000   0.0000000   0.9025179  )
         4        C      tau(   4) = (   0.2499995   0.1443379   0.9025179  )
         5        C      tau(   5) = (   0.5000000   0.0000000   0.9025179  )
         6        C      tau(   6) = (   0.4999995   0.1443379   0.9025179  )
         7        C      tau(   7) = (   0.7500000   0.0000000   0.9025179  )
         8        C      tau(   8) = (   0.7499995   0.1443379   0.9025179  )
         9        C      tau(   9) = (  -0.1249999   0.2165063   0.9025179  )
        10        C      tau(  10) = (  -0.1250005   0.3608442   0.9025179  )
        11        C      tau(  11) = (   0.1249999   0.2165063   0.9025179  )
        12        C      tau(  12) = (   0.1249995   0.3608442   0.9025179  )
        13        C      tau(  13) = (   0.3749999   0.2165063   0.9025179  )
        14        C      tau(  14) = (   0.3749995   0.3608442   0.9025179  )
        15        C      tau(  15) = (   0.6249999   0.2165063   0.9025179  )
        16        C      tau(  16) = (   0.6249995   0.3608442   0.9025179  )
        17        C      tau(  17) = (  -0.2500000   0.4330127   0.9025179  )
        18        C      tau(  18) = (  -0.2500005   0.5773506   0.9025179  )
        19        C      tau(  19) = (   0.0000000   0.4330127   0.9025179  )
        20        C      tau(  20) = (  -0.0000005   0.5773506   0.9025179  )
        21        C      tau(  21) = (   0.2500000   0.4330127   0.9025179  )
        22        C      tau(  22) = (   0.2499995   0.5773506   0.9025179  )
        23        C      tau(  23) = (   0.5000000   0.4330127   0.9025179  )
        24        C      tau(  24) = (   0.4999995   0.5773506   0.9025179  )
        25        C      tau(  25) = (  -0.3749999   0.6495190   0.9025179  )
        26        C      tau(  26) = (  -0.3750005   0.7938569   0.9025179  )
        27        C      tau(  27) = (  -0.1249999   0.6495190   0.9025179  )
        28        C      tau(  28) = (  -0.1250005   0.7938569   0.9025179  )
        29        C      tau(  29) = (   0.1249999   0.6495190   0.9025179  )
        30        C      tau(  30) = (   0.1249995   0.7938569   0.9025179  )
        31        C      tau(  31) = (   0.3749999   0.6495190   0.9025179  )
        32        C      tau(  32) = (   0.3749995   0.7938569   0.9025179  )

     number of k points=    25  Marzari-Vanderbilt smearing, width (Ry)=  0.0200
                       cart. coord. in units 2pi/alat
        k(    1) = (   0.0000000   0.0000000   0.0000000), wk =   0.0408163
        k(    2) = (   0.0000000   0.1649572   0.0000000), wk =   0.0816327
        k(    3) = (   0.0000000   0.3299144   0.0000000), wk =   0.0816327
        k(    4) = (   0.0000000   0.4948717   0.0000000), wk =   0.0816327
        k(    5) = (   0.1428571   0.2474358   0.0000000), wk =   0.0816327
        k(    6) = (   0.1428571   0.4123930   0.0000000), wk =   0.0816327
        k(    7) = (   0.1428571   0.5773503   0.0000000), wk =   0.0816327
        k(    8) = (   0.2857143   0.4948717   0.0000000), wk =   0.0816327
        k(    9) = (  -0.1428571   0.0824786   0.0000000), wk =   0.0816327
        k(   10) = (   0.1428571   0.0824786   0.0000000), wk =   0.0816327
        k(   11) = (  -0.2857143   0.1649572   0.0000000), wk =   0.0816327
        k(   12) = (   0.2857143   0.1649572   0.0000000), wk =   0.0816327
        k(   13) = (  -0.4285714   0.2474358   0.0000000), wk =   0.0816327
        k(   14) = (   0.4285714   0.2474358   0.0000000), wk =   0.0816327
        k(   15) = (  -0.1428571   0.2474358   0.0000000), wk =   0.0816327
        k(   16) = (   0.2857143   0.0000000   0.0000000), wk =   0.0816327
        k(   17) = (  -0.1428571   0.4123930   0.0000000), wk =   0.0816327
        k(   18) = (  -0.2857143   0.3299144   0.0000000), wk =   0.0816327
        k(   19) = (   0.4285714   0.0824786   0.0000000), wk =   0.0816327
        k(   20) = (  -0.2857143  -0.3299144   0.0000000), wk =   0.0816327
        k(   21) = (   0.4285714  -0.0824786   0.0000000), wk =   0.0816327
        k(   22) = (  -0.4285714   0.4123930   0.0000000), wk =   0.0816327
        k(   23) = (   0.5714286   0.1649572   0.0000000), wk =   0.0816327
        k(   24) = (  -0.2857143   0.4948717   0.0000000), wk =   0.0816327
        k(   25) = (   0.5714286   0.0000000   0.0000000), wk =   0.0816327

     Dense  grid:  1366799 G-vectors     FFT dimensions: ( 120, 120, 216)

     Estimated max dynamical RAM per process >     795.07 MB

     Estimated total dynamical RAM >       9.32 GB
 ----2D----2D----2D----2D----2D----2D----2D----2D----2D----2D----2D----2D
  The code is running with the 2D cutoff
  Please refer to:
  Sohier, T., Calandra, M., & Mauri, F. (2017), 
  Density functional perturbation theory for gated two-dimensional heterostructu
 res:
  Theoretical developments and application to flexural phonons in graphene.
  Physical Review B, 96(7), 75448. https://doi.org/10.1103/PhysRevB.96.075448
 ----2D----2D----2D----2D----2D----2D----2D----2D----2D----2D----2D----2D

     Check: negative core charge=   -0.000011

     Initial potential from superposition of free atoms

     starting charge     127.9988, renormalised to     128.0000

     negative rho (up, down):  7.346E-05 0.000E+00
     Starting wfcs are  256 randomized atomic wfcs
     Checking if some PAW data can be deallocated... 

     total cpu time spent up to now is       32.3 secs

     per-process dynamical memory:   616.1 Mb

     Self-consistent Calculation

     iteration #  1     ecut=   100.00 Ry     beta= 0.70
     Davidson diagonalization with overlap
     ethr =  1.00E-02,  avg # of iterations =  2.0

     negative rho (up, down):  4.051E-04 0.000E+00

     total cpu time spent up to now is       66.1 secs

     total energy              =    -569.78295927 Ry
     estimated scf accuracy    <       3.13565674 Ry

     iteration #  2     ecut=   100.00 Ry     beta= 0.70
     Davidson diagonalization with overlap
     ethr =  2.45E-03,  avg # of iterations =  2.0

     negative rho (up, down):  5.725E-04 0.000E+00

     total cpu time spent up to now is       96.7 secs

     total energy              =    -570.24275112 Ry
     estimated scf accuracy    <       0.04067828 Ry

     iteration #  3     ecut=   100.00 Ry     beta= 0.70
     Davidson diagonalization with overlap
     c_bands:  1 eigenvalues not converged
     c_bands:  1 eigenvalues not converged
     c_bands:  1 eigenvalues not converged
     c_bands:  3 eigenvalues not converged
     c_bands:  2 eigenvalues not converged
     c_bands:  3 eigenvalues not converged
     c_bands:  1 eigenvalues not converged
     c_bands:  1 eigenvalues not converged
     c_bands:  1 eigenvalues not converged
     c_bands:  2 eigenvalues not converged
     c_bands:  2 eigenvalues not converged
     c_bands:  1 eigenvalues not converged
     c_bands:  1 eigenvalues not converged
     c_bands:  2 eigenvalues not converged
     c_bands:  3 eigenvalues not converged
     c_bands:  3 eigenvalues not converged
     c_bands:  3 eigenvalues not converged
     ethr =  3.18E-05,  avg # of iterations = 15.9

     negative rho (up, down):  6.755E-04 0.000E+00

     total cpu time spent up to now is      145.2 secs

     total energy              =    -570.24848050 Ry
     estimated scf accuracy    <       0.00505383 Ry

     iteration #  4     ecut=   100.00 Ry     beta= 0.70
     Davidson diagonalization with overlap
     c_bands:  1 eigenvalues not converged
     c_bands:  1 eigenvalues not converged
     c_bands:  1 eigenvalues not converged
     c_bands:  2 eigenvalues not converged
     c_bands:  1 eigenvalues not converged
     c_bands:  2 eigenvalues not converged
     c_bands:  1 eigenvalues not converged
     c_bands:  1 eigenvalues not converged
     ethr =  3.95E-06,  avg # of iterations = 15.5

     negative rho (up, down):  7.082E-04 0.000E+00

     total cpu time spent up to now is      197.3 secs

     total energy              =    -570.24857368 Ry
     estimated scf accuracy    <       0.01233145 Ry

     iteration #  5     ecut=   100.00 Ry     beta= 0.70
     Davidson diagonalization with overlap
     ethr =  3.95E-06,  avg # of iterations =  4.8

     negative rho (up, down):  7.171E-04 0.000E+00

     total cpu time spent up to now is      230.2 secs

     total energy              =    -570.25077949 Ry
     estimated scf accuracy    <       0.00011773 Ry

     iteration #  6     ecut=   100.00 Ry     beta= 0.70
     Davidson diagonalization with overlap
     ethr =  9.20E-08,  avg # of iterations =  4.0

     negative rho (up, down):  7.248E-04 0.000E+00

     total cpu time spent up to now is      265.6 secs

     total energy              =    -570.25082969 Ry
     estimated scf accuracy    <       0.00002032 Ry

     iteration #  7     ecut=   100.00 Ry     beta= 0.70
     Davidson diagonalization with overlap
     ethr =  1.59E-08,  avg # of iterations =  2.0

     negative rho (up, down):  7.273E-04 0.000E+00

     total cpu time spent up to now is      295.0 secs

     total energy              =    -570.25083299 Ry
     estimated scf accuracy    <       0.00000229 Ry

     iteration #  8     ecut=   100.00 Ry     beta= 0.70
     Davidson diagonalization with overlap
     ethr =  1.79E-09,  avg # of iterations =  2.5

     negative rho (up, down):  7.276E-04 0.000E+00

     total cpu time spent up to now is      326.3 secs

     total energy              =    -570.25083349 Ry
     estimated scf accuracy    <       0.00000020 Ry

     iteration #  9     ecut=   100.00 Ry     beta= 0.70
     Davidson diagonalization with overlap
     ethr =  1.57E-10,  avg # of iterations =  3.8

     negative rho (up, down):  7.276E-04 0.000E+00

     total cpu time spent up to now is      361.1 secs

     total energy              =    -570.25083354 Ry
     estimated scf accuracy    <       0.00000012 Ry

     iteration # 10     ecut=   100.00 Ry     beta= 0.70
     Davidson diagonalization with overlap
     ethr =  9.67E-11,  avg # of iterations =  2.0

     negative rho (up, down):  7.277E-04 0.000E+00

     total cpu time spent up to now is      388.4 secs

     total energy              =    -570.25083356 Ry
     estimated scf accuracy    <          8.2E-09 Ry

     iteration # 11     ecut=   100.00 Ry     beta= 0.70
     Davidson diagonalization with overlap
     ethr =  6.38E-12,  avg # of iterations =  3.4

     negative rho (up, down):  7.278E-04 0.000E+00

     total cpu time spent up to now is      421.8 secs

     total energy              =    -570.25083356 Ry
     estimated scf accuracy    <          1.1E-09 Ry

     iteration # 12     ecut=   100.00 Ry     beta= 0.70
     Davidson diagonalization with overlap
     ethr =  8.65E-13,  avg # of iterations =  2.9

     negative rho (up, down):  7.278E-04 0.000E+00

     total cpu time spent up to now is      452.2 secs

     total energy              =    -570.25083356 Ry
     estimated scf accuracy    <          1.2E-10 Ry

     iteration # 13     ecut=   100.00 Ry     beta= 0.70
     Davidson diagonalization with overlap
     ethr =  1.00E-13,  avg # of iterations =  3.7

     negative rho (up, down):  7.278E-04 0.000E+00

     total cpu time spent up to now is      486.2 secs

     total energy              =    -570.25083356 Ry
     estimated scf accuracy    <          2.4E-11 Ry

     iteration # 14     ecut=   100.00 Ry     beta= 0.70
     Davidson diagonalization with overlap
     ethr =  1.00E-13,  avg # of iterations =  1.0

     negative rho (up, down):  7.278E-04 0.000E+00

     total cpu time spent up to now is      510.3 secs

     total energy              =    -570.25083356 Ry
     estimated scf accuracy    <          9.4E-12 Ry

     iteration # 15     ecut=   100.00 Ry     beta= 0.70
     Davidson diagonalization with overlap
     ethr =  1.00E-13,  avg # of iterations =  1.0

     negative rho (up, down):  7.278E-04 0.000E+00

     total cpu time spent up to now is      534.2 secs

     total energy              =    -570.25083356 Ry
     estimated scf accuracy    <          1.8E-12 Ry

     iteration # 16     ecut=   100.00 Ry     beta= 0.70
     Davidson diagonalization with overlap
     ethr =  1.00E-13,  avg # of iterations =  1.0

     negative rho (up, down):  7.278E-04 0.000E+00

     total cpu time spent up to now is      558.2 secs

     total energy              =    -570.25083356 Ry
     estimated scf accuracy    <          1.2E-13 Ry

     iteration # 17     ecut=   100.00 Ry     beta= 0.70
     Davidson diagonalization with overlap
     ethr =  1.00E-13,  avg # of iterations =  1.0

     negative rho (up, down):  7.278E-04 0.000E+00

     total cpu time spent up to now is      582.2 secs

     total energy              =    -570.25083356 Ry
     estimated scf accuracy    <          9.2E-14 Ry

     iteration # 18     ecut=   100.00 Ry     beta= 0.70
     Davidson diagonalization with overlap
     ethr =  1.00E-13,  avg # of iterations =  1.0

     negative rho (up, down):  7.278E-04 0.000E+00

     total cpu time spent up to now is      606.2 secs

     total energy              =    -570.25083356 Ry
     estimated scf accuracy    <          3.1E-14 Ry

     iteration # 19     ecut=   100.00 Ry     beta= 0.70
     Davidson diagonalization with overlap
     ethr =  1.00E-13,  avg # of iterations =  1.0

     negative rho (up, down):  7.278E-04 0.000E+00

     total cpu time spent up to now is      630.2 secs

     total energy              =    -570.25083356 Ry
     estimated scf accuracy    <          4.1E-15 Ry

     iteration # 20     ecut=   100.00 Ry     beta= 0.70
     Davidson diagonalization with overlap
     ethr =  1.00E-13,  avg # of iterations =  1.0

     negative rho (up, down):  7.278E-04 0.000E+00

     total cpu time spent up to now is      654.2 secs

     total energy              =    -570.25083356 Ry
     estimated scf accuracy    <          8.7E-16 Ry

     iteration # 21     ecut=   100.00 Ry     beta= 0.70
     Davidson diagonalization with overlap
     ethr =  1.00E-13,  avg # of iterations =  1.0

     negative rho (up, down):  7.278E-04 0.000E+00

     total cpu time spent up to now is      678.2 secs

     total energy              =    -570.25083356 Ry
     estimated scf accuracy    <          1.9E-16 Ry

     iteration # 22     ecut=   100.00 Ry     beta= 0.70
     Davidson diagonalization with overlap
     ethr =  1.00E-13,  avg # of iterations =  1.0

     negative rho (up, down):  7.278E-04 0.000E+00

     total cpu time spent up to now is      702.1 secs

     End of self-consistent calculation

          k = 0.0000 0.0000 0.0000 (170861 PWs)   bands (ev):

   -23.8599 -22.4131 -22.4032 -22.4026 -22.4026 -22.4020 -22.3923 -19.6101
   -19.5993 -19.5975 -19.5974 -19.5955 -19.5850 -18.5997 -18.5936 -18.5877
   -17.7100 -17.7044 -17.6988 -14.9364 -14.9243 -14.9235 -14.9223 -14.9215
   -14.9098 -13.5146 -13.5126 -13.5072 -13.5064 -13.5010 -13.4991 -12.1913
   -11.9188 -11.9062 -11.9026 -11.9026 -11.8989 -11.8865 -10.9726 -10.9669
   -10.9610 -10.4687 -10.4604 -10.4600 -10.4600 -10.4597 -10.4516  -9.6221
    -9.6060  -9.6034  -9.6034  -9.6008  -9.5842  -7.6071  -7.5882  -7.3095
    -7.2980  -7.2976  -7.2976  -7.2972  -7.2860  -6.9124  -6.9070  -6.9014
    -2.9318  -2.9244  -2.9173  -1.7628  -1.7499  -1.7497  -1.7493  -1.7491
    -1.7359  -1.2542  -0.4981   0.4162   0.7433

          k = 0.0000 0.1650 0.0000 (170869 PWs)   bands (ev):

   -23.8299 -22.7868 -22.5838 -22.5756 -22.1715 -22.1632 -21.9620 -20.1581
   -20.1495 -19.5739 -19.5658 -19.0248 -19.0045 -18.9958 -18.7186 -18.7124
   -17.5377 -17.5282 -17.2295 -15.4941 -15.4875 -15.1713 -15.1600 -14.4630
   -14.4547 -13.9177 -13.9119 -13.2612 -13.2548 -12.9338 -12.9233 -12.8359
   -12.3701 -12.3618 -12.1552 -11.4512 -11.4428 -11.0628 -11.0553 -10.9878
   -10.9363 -10.9110 -10.6705 -10.6637 -10.1893 -10.1825  -9.9496  -9.9438
    -9.8762  -9.8658  -9.5171  -9.5077  -9.2349  -7.9035  -7.8966  -7.7207
    -7.6619  -7.2855  -7.2766  -7.0986  -6.9336  -6.9259  -6.6806  -6.6734
    -2.8744  -2.8621  -2.6860  -2.4426  -2.4359  -1.8177  -1.8057  -1.2134
    -1.0582  -1.0500  -0.4566   0.2150   0.4610

          k = 0.0000 0.3299 0.0000 (170839 PWs)   bands (ev):

   -23.7400 -23.1132 -22.7021 -22.6939 -21.8788 -21.8704 -21.4664 -20.6670
   -20.6585 -19.6793 -19.4916 -19.4835 -18.9489 -18.9415 -18.3816 -18.3725
   -17.1608 -17.1508 -16.4436 -16.1367 -16.1308 -15.6568 -15.6459 -14.1554
   -14.1523 -14.0589 -14.0505 -13.7700 -12.8230 -12.8148 -12.7616 -12.7538
   -12.2536 -12.2426 -12.0471 -11.3263 -11.3185 -11.2977 -11.0388 -11.0312
   -10.8478 -10.8091 -10.8023 -10.3140 -10.3035 -10.2433 -10.1138  -9.8498
    -9.8430  -9.5721  -9.5641  -9.3867  -8.8532  -8.4684  -8.4616  -8.0704
    -7.8501  -7.5703  -7.2375  -7.2288  -6.9952  -6.9872  -6.0863  -6.0787
    -3.0832  -3.0775  -2.7165  -2.7041  -2.0756  -1.9885  -1.9764  -1.0909
    -0.3751  -0.3663  -0.3319  -0.2339   0.3372

          k = 0.0000 0.4949 0.0000 (170854 PWs)   bands (ev):

   -23.5903 -23.3812 -22.7613 -22.7531 -21.5295 -21.5211 -21.1249 -21.1165
   -20.9176 -20.3194 -19.3564 -19.3484 -19.1720 -19.1642 -17.8031 -17.7928
   -16.7382 -16.7334 -16.6964 -16.6862 -16.1852 -16.1747 -15.5868 -14.6912
   -14.2624 -14.2613 -13.6646 -13.6564 -13.2550 -13.2468 -12.2238 -12.2157
   -11.8675 -11.7280 -11.7199 -11.6172 -11.5508 -11.5398 -10.8873 -10.8786
   -10.8765 -10.8718 -10.7535 -10.7484 -10.7006 -10.4981  -9.6801  -9.6764
    -9.4474  -9.4406  -9.3112  -8.9853  -8.9785  -8.7838  -8.6160  -8.4767
    -8.1632  -8.1324  -7.1651  -7.1565  -7.0786  -7.0703  -5.6477  -5.6394
    -3.5449  -3.5404  -2.4873  -2.4750  -2.2282  -2.2160  -1.2561  -0.8868
    -0.6011  -0.3300  -0.1244   0.1659   0.2567

          k = 0.1429 0.2474 0.0000 (170841 PWs)   bands (ev):

   -23.7699 -22.9374 -22.9325 -22.3186 -22.3105 -21.7016 -21.6966 -20.6913
   -20.1015 -20.0930 -19.3338 -19.3251 -18.9533 -18.9442 -18.5156 -18.3983
   -17.6309 -16.8350 -16.8260 -15.9079 -15.9023 -15.8788 -14.8552 -14.8488
   -14.4331 -13.8302 -13.4748 -13.4693 -13.3003 -13.2886 -12.5461 -12.5372
   -12.4605 -12.0831 -11.9207 -11.9117 -11.3489 -11.0882 -11.0842 -11.0048
   -10.9972 -10.5651 -10.5509 -10.3589 -10.3520 -10.2026 -10.1921  -9.9578
    -9.9437  -9.6508  -9.6469  -9.1393  -9.1251  -8.4938  -7.9425  -7.8559
    -7.8478  -7.8029  -7.2888  -7.2822  -6.7935  -6.6744  -6.6662  -6.0627
    -3.0631  -2.9550  -2.5294  -2.5219  -2.4231  -2.4151  -1.2026  -1.1927
    -1.1317  -0.3735  -0.2887   0.0106   0.0113

          k = 0.1429 0.4124 0.0000 (170817 PWs)   bands (ev):

   -23.6501 -23.2322 -23.0240 -22.4030 -21.9920 -21.3797 -21.1794 -21.1760
   -20.5769 -19.9873 -19.9802 -19.5971 -18.8487 -18.5598 -18.3191 -17.7913
   -17.3852 -16.6169 -16.4256 -16.3762 -16.3710 -16.0050 -15.3603 -14.7329
   -14.5142 -14.2216 -13.7303 -13.5914 -13.2999 -12.8992 -12.3780 -12.0574
   -11.9393 -11.8571 -11.8317 -11.7817 -11.5328 -11.4393 -11.2356 -11.1916
   -10.8804 -10.6222 -10.5248 -10.4745 -10.4581 -10.2107 -10.1231  -9.9787
    -9.7322  -9.2855  -9.1617  -9.0640  -9.0434  -8.7398  -8.3810  -8.3808
    -8.0470  -7.8333  -7.7599  -7.4689  -6.7086  -6.6662  -6.1518  -5.4845
    -3.6457  -3.1086  -2.9313  -2.6644  -2.0987  -1.6918  -1.4493  -0.9684
    -0.5951  -0.3969  -0.2074  -0.1111   0.1393

          k = 0.1429 0.5774 0.0000 (170864 PWs)   bands (ev):

   -23.4708 -23.4707 -23.0537 -22.4324 -21.6130 -21.6126 -21.0052 -21.0048
   -20.6033 -20.6031 -19.8171 -19.8170 -18.7095 -18.7082 -17.9111 -17.3821
   -17.0533 -16.9435 -16.9373 -16.7552 -15.8808 -15.8758 -15.1289 -15.1287
   -14.8245 -14.1429 -14.1362 -13.6311 -12.8360 -12.8264 -12.3183 -12.3120
   -11.7244 -11.7242 -11.6052 -11.5984 -11.3590 -11.2268 -11.1916 -11.1819
   -11.1795 -11.1706 -10.7048 -10.7044 -10.4924 -10.2305 -10.0631  -9.5409
    -9.5395  -9.2026  -8.9962  -8.9900  -8.8623  -8.8600  -8.4484  -8.4481
    -8.3724  -8.3659  -7.6314  -7.6280  -6.6753  -6.6693  -5.9249  -5.1702
    -3.9615  -3.3567  -2.8236  -2.8137  -1.7682  -1.7611  -0.8132  -0.8124
    -0.7235  -0.7234  -0.1516  -0.0056   0.0014

          k = 0.2857 0.4949 0.0000 (170884 PWs)   bands (ev):

   -23.5006 -23.2942 -23.2894 -22.0547 -22.0466 -21.6418 -20.8347 -20.8296
   -20.4383 -20.4299 -20.2396 -20.2310 -18.2880 -18.2591 -18.2497 -17.4036
   -17.2367 -17.0942 -17.0883 -16.7019 -15.5302 -15.5204 -15.0798 -15.0262
   -15.0205 -14.6444 -14.6338 -12.9691 -12.9630 -12.6307 -12.3437 -12.0626
   -12.0525 -11.7601 -11.5123 -11.5083 -11.4206 -11.4112 -11.3472 -11.0890
   -11.0807 -10.8839 -10.8751 -10.7465 -10.7332 -10.0491 -10.0422  -9.5730
    -9.4875  -9.4719  -8.8545  -8.7509  -8.7339  -8.6851  -8.6811  -8.3639
    -8.2492  -8.2410  -8.0654  -8.0587  -6.4652  -6.2852  -6.2777  -4.9018
    -4.2095  -3.1138  -3.1057  -3.0642  -1.2963  -1.2889  -0.9228  -0.9121
    -0.7643  -0.4787  -0.4780  -0.3854  -0.3783

          k =-0.1429 0.0825 0.0000 (170869 PWs)   bands (ev):

   -23.8299 -22.7868 -22.5817 -22.5776 -22.1694 -22.1652 -21.9621 -20.1561
   -20.1516 -19.5722 -19.5673 -19.0247 -19.0022 -18.9975 -18.7196 -18.7127
   -17.5339 -17.5282 -17.2326 -15.4976 -15.4890 -15.1657 -15.1600 -14.4641
   -14.4555 -13.9136 -13.9106 -13.2637 -13.2587 -12.9301 -12.9248 -12.8392
   -12.3684 -12.3607 -12.1552 -11.4485 -11.4400 -11.0647 -11.0571 -10.9919
   -10.9331 -10.9107 -10.6691 -10.6655 -10.1878 -10.1843  -9.9490  -9.9389
    -9.8783  -9.8680  -9.5207  -9.5103  -9.2296  -7.9013  -7.8979  -7.7275
    -7.6551  -7.2857  -7.2794  -7.0952  -6.9351  -6.9284  -6.6777  -6.6737
    -2.8691  -2.8611  -2.6920  -2.4447  -2.4382  -1.8122  -1.8046  -1.2133
    -1.0579  -1.0526  -0.4566   0.2148   0.4592

          k = 0.1429 0.0825 0.0000 (170869 PWs)   bands (ev):

   -23.8299 -22.7867 -22.5819 -22.5777 -22.1695 -22.1653 -21.9618 -20.1559
   -20.1515 -19.5725 -19.5676 -19.0258 -19.0020 -18.9976 -18.7184 -18.7113
   -17.5376 -17.5320 -17.2266 -15.4927 -15.4840 -15.1713 -15.1655 -14.4623
   -14.4536 -13.9189 -13.9160 -13.2572 -13.2523 -12.9323 -12.9269 -12.8323
   -12.3715 -12.3635 -12.1552 -11.4539 -11.4454 -11.0606 -11.0539 -10.9829
   -10.9405 -10.9113 -10.6687 -10.6651 -10.1875 -10.1840  -9.9501  -9.9481
    -9.8741  -9.8644  -9.5147  -9.5035  -9.2404  -7.9022  -7.8987  -7.7117
    -7.6709  -7.2827  -7.2764  -7.1019  -6.9313  -6.9246  -6.6801  -6.6762
    -2.8754  -2.8671  -2.6807  -2.4404  -2.4334  -1.8186  -1.8111  -1.2134
    -1.0558  -1.0502  -0.4566   0.2150   0.4615

          k =-0.2857 0.1650 0.0000 (170839 PWs)   bands (ev):

   -23.7400 -23.1132 -22.7000 -22.6958 -21.8767 -21.8725 -21.4665 -20.6649
   -20.6606 -19.6792 -19.4899 -19.4850 -18.9485 -18.9426 -18.3789 -18.3743
   -17.1568 -17.1517 -16.4462 -16.1407 -16.1324 -15.6521 -15.6467 -14.1519
   -14.1502 -14.0590 -14.0508 -13.7731 -12.8219 -12.8142 -12.7627 -12.7570
   -12.2510 -12.2448 -12.0471 -11.3276 -11.3206 -11.2975 -11.0355 -11.0271
   -10.8439 -10.8078 -10.8042 -10.3147 -10.3055 -10.2392 -10.1192  -9.8483
    -9.8448  -9.5775  -9.5673  -9.3859  -8.8474  -8.4665  -8.4631  -8.0776
    -7.8427  -7.5678  -7.2379  -7.2316  -6.9964  -6.9898  -6.0829  -6.0778
    -3.0877  -3.0795  -2.7112  -2.7032  -2.0804  -1.9831  -1.9754  -1.0909
    -0.3740  -0.3689  -0.3319  -0.2338   0.3376

          k = 0.2857 0.1650 0.0000 (170839 PWs)   bands (ev):

   -23.7400 -23.1131 -22.7002 -22.6960 -21.8767 -21.8725 -21.4662 -20.6648
   -20.6604 -19.6792 -19.4902 -19.4852 -18.9480 -18.9421 -18.3796 -18.3749
   -17.1599 -17.1547 -16.4411 -16.1350 -16.1265 -15.6560 -15.6505 -14.1576
   -14.1559 -14.0585 -14.0506 -13.7670 -12.8240 -12.8164 -12.7579 -12.7523
   -12.2514 -12.2452 -12.0471 -11.3239 -11.3170 -11.2979 -11.0434 -11.0345
   -10.8515 -10.8073 -10.8037 -10.3116 -10.3027 -10.2478 -10.1087  -9.8481
    -9.8445  -9.5691  -9.5583  -9.3876  -8.8592  -8.4669  -8.4635  -8.0627
    -7.8580  -7.5726  -7.2348  -7.2286  -6.9929  -6.9861  -6.0871  -6.0821
    -3.0812  -3.0730  -2.7174  -2.7093  -2.0709  -1.9893  -1.9818  -1.0909
    -0.3727  -0.3674  -0.3319  -0.2339   0.3376

          k =-0.4286 0.2474 0.0000 (170854 PWs)   bands (ev):

   -23.5904 -23.3812 -22.7592 -22.7551 -21.5275 -21.5232 -21.1229 -21.1186
   -20.9177 -20.3195 -19.3549 -19.3499 -19.1709 -19.1655 -17.7989 -17.7937
   -16.7452 -16.7352 -16.6922 -16.6870 -16.1810 -16.1758 -15.5894 -14.6939
   -14.2594 -14.2587 -13.6640 -13.6564 -13.2539 -13.2463 -12.2248 -12.2186
   -11.8674 -11.7291 -11.7225 -11.6171 -11.5492 -11.5422 -10.8865 -10.8788
   -10.8773 -10.8737 -10.7500 -10.7424 -10.6958 -10.4938  -9.6892  -9.6795
    -9.4458  -9.4423  -9.3171  -8.9836  -8.9802  -8.7825  -8.6223  -8.4708
    -8.1614  -8.1253  -7.1657  -7.1591  -7.0793  -7.0731  -5.6436  -5.6365
    -3.5526  -3.5420  -2.4818  -2.4742  -2.2229  -2.2150  -1.2601  -0.8868
    -0.6010  -0.3334  -0.1244   0.1672   0.2562

          k = 0.4286 0.2474 0.0000 (170854 PWs)   bands (ev):

   -23.5903 -23.3812 -22.7594 -22.7552 -21.5275 -21.5232 -21.1229 -21.1185
   -20.9173 -20.3192 -19.3551 -19.3499 -19.1709 -19.1654 -17.8021 -17.7968
   -16.7366 -16.7276 -16.6949 -16.6898 -16.1841 -16.1788 -15.5843 -14.6884
   -14.2651 -14.2644 -13.6648 -13.6570 -13.2554 -13.2479 -12.2207 -12.2146
   -11.8676 -11.7253 -11.7188 -11.6173 -11.5483 -11.5412 -10.8849 -10.8768
   -10.8765 -10.8732 -10.7616 -10.7524 -10.7039 -10.5020  -9.6772  -9.6676
    -9.4457  -9.4422  -9.3051  -8.9837  -8.9803  -8.7849  -8.6088  -8.4837
    -8.1649  -8.1395  -7.1623  -7.1561  -7.0762  -7.0694  -5.6504  -5.6433
    -3.5434  -3.5329  -2.4881  -2.4801  -2.2289  -2.2214  -1.2522  -0.8868
    -0.6011  -0.3267  -0.1244   0.1659   0.2563

          k =-0.1429 0.2474 0.0000 (170841 PWs)   bands (ev):

   -23.7699 -22.9374 -22.9325 -22.3184 -22.3103 -21.7018 -21.6968 -20.6917
   -20.1013 -20.0928 -19.3336 -19.3248 -18.9530 -18.9440 -18.5197 -18.3980
   -17.6219 -16.8376 -16.8287 -15.9099 -15.9030 -15.8852 -14.8495 -14.8432
   -14.4265 -13.8386 -13.4736 -13.4680 -13.3039 -13.2924 -12.5531 -12.5438
   -12.4510 -12.0831 -11.9128 -11.9038 -11.3560 -11.0880 -11.0841 -11.0010
   -10.9936 -10.5683 -10.5539 -10.3596 -10.3528 -10.1979 -10.1870  -9.9670
    -9.9537  -9.6499  -9.6460  -9.1358  -9.1214  -8.4919  -7.9582  -7.8582
    -7.8500  -7.7869  -7.2861  -7.2794  -6.8011  -6.6741  -6.6661  -6.0583
    -3.0700  -2.9428  -2.5299  -2.5219  -2.4277  -2.4202  -1.1971  -1.1871
    -1.1317  -0.3735  -0.2947   0.0106   0.0113

          k = 0.2857 0.0000 0.0000 (170841 PWs)   bands (ev):

   -23.7699 -22.9351 -22.9348 -22.3146 -22.3144 -21.6993 -21.6991 -20.6914
   -20.0974 -20.0970 -19.3296 -19.3292 -18.9486 -18.9485 -18.5179 -18.3980
   -17.6264 -16.8345 -16.8292 -15.9090 -15.9024 -15.8821 -14.8505 -14.8479
   -14.4298 -13.8345 -13.4752 -13.4677 -13.2994 -13.2932 -12.5466 -12.5433
   -12.4558 -12.0831 -11.9136 -11.9109 -11.3523 -11.0864 -11.0859 -11.0030
   -10.9955 -10.5650 -10.5541 -10.3560 -10.3556 -10.1992 -10.1907  -9.9570
    -9.9539  -9.6490  -9.6477  -9.1366  -9.1241  -8.4928  -7.9507  -7.8539
    -7.8521  -7.7945  -7.2871  -7.2812  -6.7974  -6.6727  -6.6677  -6.0604
    -3.0666  -2.9487  -2.5304  -2.5214  -2.4267  -2.4160  -1.1970  -1.1926
    -1.1317  -0.3735  -0.2917   0.0109   0.0110

          k =-0.1429 0.4124 0.0000 (170817 PWs)   bands (ev):

   -23.6502 -23.2322 -23.0240 -22.4029 -21.9917 -21.3800 -21.1797 -21.1761
   -20.5765 -19.9872 -19.9802 -19.5970 -18.8480 -18.5626 -18.3191 -17.7905
   -17.3776 -16.6160 -16.4310 -16.3801 -16.3762 -16.0049 -15.3555 -14.7294
   -14.5074 -14.2219 -13.7370 -13.5925 -13.3094 -12.8934 -12.3686 -12.0636
   -11.9392 -11.8472 -11.8395 -11.7885 -11.5278 -11.4394 -11.2285 -11.1915
   -10.8806 -10.6132 -10.5358 -10.4741 -10.4583 -10.2169 -10.1289  -9.9798
    -9.7284  -9.2837  -9.1546  -9.0637  -9.0418  -8.7439  -8.3910  -8.3835
    -8.0367  -7.8336  -7.7623  -7.4644  -6.7157  -6.6618  -6.1535  -5.4804
    -3.6510  -3.1059  -2.9199  -2.6720  -2.1075  -1.6911  -1.4440  -0.9684
    -0.5876  -0.3969  -0.2074  -0.1111   0.1384

          k =-0.2857 0.3299 0.0000 (170817 PWs)   bands (ev):

   -23.6502 -23.2322 -23.0240 -22.4028 -21.9917 -21.3799 -21.1813 -21.1747
   -20.5766 -19.9883 -19.9790 -19.5971 -18.8484 -18.5625 -18.3182 -17.7900
   -17.3776 -16.6197 -16.4274 -16.3812 -16.3746 -16.0074 -15.3548 -14.7282
   -14.5084 -14.2247 -13.7341 -13.5893 -13.3083 -12.8967 -12.3707 -12.0643
   -11.9392 -11.8478 -11.8389 -11.7884 -11.5247 -11.4393 -11.2322 -11.1917
   -10.8768 -10.6172 -10.5331 -10.4704 -10.4586 -10.2099 -10.1329  -9.9795
    -9.7349  -9.2844  -9.1618  -9.0631  -9.0416  -8.7368  -8.3944  -8.3829
    -8.0333  -7.8315  -7.7629  -7.4670  -6.7160  -6.6648  -6.1500  -5.4792
    -3.6526  -3.1111  -2.9197  -2.6667  -2.1025  -1.6957  -1.4423  -0.9684
    -0.5895  -0.3969  -0.2074  -0.1111   0.1356

          k = 0.4286 0.0825 0.0000 (170817 PWs)   bands (ev):

   -23.6501 -23.2321 -23.0241 -22.4030 -21.9918 -21.3800 -21.1823 -21.1731
   -20.5766 -19.9856 -19.9819 -19.5971 -18.8482 -18.5613 -18.3198 -17.7912
   -17.3814 -16.6129 -16.4311 -16.3811 -16.3718 -16.0023 -15.3584 -14.7325
   -14.5099 -14.2189 -13.7366 -13.5953 -13.3059 -12.8928 -12.3714 -12.0595
   -11.9393 -11.8505 -11.8371 -11.7849 -11.5333 -11.4395 -11.2284 -11.1913
   -10.8845 -10.6139 -10.5323 -10.4786 -10.4579 -10.2196 -10.1232  -9.9796
    -9.7240  -9.2840  -9.1509  -9.0654  -9.0418  -8.7490  -8.3828  -8.3827
    -8.0454  -7.8354  -7.7606  -7.4641  -6.7121  -6.6609  -6.1561  -5.4836
    -3.6469  -3.1019  -2.9259  -2.6734  -2.1080  -1.6870  -1.4482  -0.9684
    -0.5895  -0.3970  -0.2074  -0.1110   0.1416

          k =-0.2857-0.3299 0.0000 (170817 PWs)   bands (ev):

   -23.6501 -23.2322 -23.0240 -22.4031 -21.9919 -21.3798 -21.1809 -21.1743
   -20.5767 -19.9885 -19.9790 -19.5972 -18.8486 -18.5599 -18.3197 -17.7917
   -17.3852 -16.6135 -16.4281 -16.3770 -16.3716 -16.0024 -15.3608 -14.7343
   -14.5133 -14.2188 -13.7331 -13.5948 -13.3012 -12.8956 -12.3762 -12.0565
   -11.9393 -11.8555 -11.8331 -11.7815 -11.5359 -11.4395 -11.2319 -11.1914
   -10.8843 -10.6184 -10.5265 -10.4789 -10.4578 -10.2167 -10.1202  -9.9790
    -9.7258  -9.2849  -9.1545  -9.0652  -9.0430  -8.7469  -8.3814  -8.3776
    -8.0507  -7.8354  -7.7592  -7.4664  -6.7085  -6.6632  -6.1551  -5.4857
    -3.6442  -3.1034  -2.9317  -2.6694  -2.1037  -1.6874  -1.4508  -0.9684
    -0.5933  -0.3969  -0.2074  -0.1110   0.1421

          k = 0.4286-0.0825 0.0000 (170817 PWs)   bands (ev):

   -23.6502 -23.2322 -23.0240 -22.4028 -21.9919 -21.3798 -21.1824 -21.1732
   -20.5768 -19.9855 -19.9819 -19.5971 -18.8486 -18.5612 -18.3183 -17.7904
   -17.3814 -16.6200 -16.4249 -16.3809 -16.3702 -16.0074 -15.3573 -14.7298
   -14.5118 -14.2245 -13.7309 -13.5887 -13.3035 -12.8997 -12.3753 -12.0610
   -11.9392 -11.8532 -11.8347 -11.7851 -11.5271 -11.4392 -11.2358 -11.1918
   -10.8768 -10.6216 -10.5278 -10.4705 -10.4585 -10.2066 -10.1300  -9.9790
    -9.7368  -9.2853  -9.1652  -9.0636  -9.0420  -8.7349  -8.3896  -8.3815
    -8.0382  -7.8312  -7.7619  -7.4692  -6.7125  -6.6669  -6.1492  -5.4812
    -3.6500  -3.1124  -2.9253  -2.6630  -2.0981  -1.6960  -1.4450  -0.9684
    -0.5932  -0.3969  -0.2074  -0.1111   0.1360

          k =-0.4286 0.4124 0.0000 (170864 PWs)   bands (ev):

   -23.4732 -23.4684 -23.0537 -22.4323 -21.6170 -21.6087 -21.0093 -21.0009
   -20.6074 -20.5992 -19.8196 -19.8144 -18.7118 -18.7066 -17.9086 -17.3793
   -17.0584 -16.9428 -16.9346 -16.7600 -15.8817 -15.8720 -15.1342 -15.1286
   -14.8223 -14.1439 -14.1335 -13.6282 -12.8371 -12.8260 -12.3203 -12.3134
   -11.7262 -11.7222 -11.6078 -11.5998 -11.3533 -11.2269 -11.1919 -11.1814
   -11.1781 -11.1742 -10.7059 -10.6956 -10.4927 -10.2365 -10.0568  -9.5435
    -9.5367  -9.2097  -9.0056  -8.9921  -8.8647  -8.8580  -8.4508  -8.4426
    -8.3713  -8.3545  -7.6332  -7.6289  -6.6770  -6.6715  -5.9211  -5.1664
    -3.9660  -3.3620  -2.8193  -2.8115  -1.7655  -1.7581  -0.8220  -0.8109
    -0.7238  -0.7231  -0.1517  -0.0054   0.0019

          k = 0.5714 0.1650 0.0000 (170864 PWs)   bands (ev):

   -23.4732 -23.4683 -23.0538 -22.4325 -21.6169 -21.6086 -21.0092 -21.0009
   -20.6071 -20.5989 -19.8198 -19.8146 -18.7113 -18.7060 -17.9132 -17.3844
   -17.0487 -16.9461 -16.9379 -16.7505 -15.8845 -15.8749 -15.1289 -15.1233
   -14.8270 -14.1458 -14.1353 -13.6342 -12.8365 -12.8254 -12.3167 -12.3099
   -11.7264 -11.7224 -11.6035 -11.5958 -11.3643 -11.2266 -11.1895 -11.1820
   -11.1808 -11.1695 -10.7137 -10.7036 -10.4920 -10.2244 -10.0694  -9.5437
    -9.5370  -9.1962  -8.9942  -8.9795  -8.8644  -8.8577  -8.4537  -8.4455
    -8.3837  -8.3675  -7.6306  -7.6263  -6.6732  -6.6676  -5.9285  -5.1738
    -3.9573  -3.3513  -2.8258  -2.8178  -1.7711  -1.7638  -0.8148  -0.8037
    -0.7238  -0.7231  -0.1517  -0.0061   0.0012

          k =-0.2857 0.4949 0.0000 (170884 PWs)   bands (ev):

   -23.5007 -23.2942 -23.2893 -22.0545 -22.0464 -21.6421 -20.8350 -20.8299
   -20.4379 -20.4297 -20.2396 -20.2310 -18.2924 -18.2573 -18.2485 -17.3944
   -17.2335 -17.0981 -17.0920 -16.7076 -15.5325 -15.5227 -15.0771 -15.0208
   -15.0150 -14.6476 -14.6370 -12.9661 -12.9602 -12.6403 -12.3502 -12.0557
   -12.0457 -11.7600 -11.5123 -11.5084 -11.4283 -11.4184 -11.3365 -11.0854
   -11.0775 -10.8797 -10.8702 -10.7539 -10.7411 -10.0496 -10.0428  -9.5718
    -9.4846  -9.4688  -8.8687  -8.7535  -8.7375  -8.6835  -8.6796  -8.3490
    -8.2519  -8.2437  -8.0642  -8.0575  -6.4727  -6.2822  -6.2747  -4.8953
    -4.2167  -3.1183  -3.1105  -3.0525  -1.2990  -1.2917  -0.9161  -0.9053
    -0.7642  -0.4788  -0.4780  -0.3898  -0.3830

          k = 0.5714 0.0000 0.0000 (170884 PWs)   bands (ev):

   -23.5007 -23.2918 -23.2917 -22.0507 -22.0504 -21.6419 -20.8325 -20.8321
   -20.4340 -20.4338 -20.2355 -20.2351 -18.2905 -18.2550 -18.2521 -17.3988
   -17.2352 -17.0972 -17.0891 -16.7048 -15.5291 -15.5238 -15.0786 -15.0211
   -15.0202 -14.6433 -14.6381 -12.9678 -12.9614 -12.6356 -12.3469 -12.0582
   -12.0499 -11.7601 -11.5105 -11.5102 -11.4202 -11.4190 -11.3418 -11.0871
   -11.0793 -10.8810 -10.8735 -10.7482 -10.7390 -10.0464 -10.0455  -9.5724
    -9.4855  -9.4709  -8.8618  -8.7518  -8.7362  -8.6834  -8.6813  -8.3563
    -8.2469  -8.2460  -8.0633  -8.0596  -6.4691  -6.2837  -6.2761  -4.8985
    -4.2131  -3.1179  -3.1064  -3.0582  -1.2982  -1.2898  -0.9153  -0.9128
    -0.7642  -0.4784  -0.4784  -0.3869  -0.3814

     the Fermi energy is    -4.6898 ev

!    total energy              =    -570.25083356 Ry
     total all-electron energy =      -570.250834 Ry
     estimated scf accuracy    <          6.2E-17 Ry
     smearing contrib. (-TS)   =       0.00085107 Ry
     internal energy E=F+TS    =    -570.25168463 Ry

     The total energy is F=E-TS. E is the sum of the following terms:
     one-electron contribution =   -5008.31175488 Ry
     hartree contribution      =    2517.70116850 Ry
     xc contribution           =    -142.34065159 Ry
     ewald contribution        =    2245.92879084 Ry
     one-center paw contrib.   =    -183.22923749 Ry

     convergence has been achieved in  22 iterations

     negative rho (up, down):  7.278E-04 0.000E+00

     Forces acting on atoms (cartesian axes, Ry/au):

     atom    1 type  1   force =    -0.00415902    0.00002104    0.00000000
     atom    2 type  1   force =     0.02374906   -0.00032092    0.00000000
     atom    3 type  1   force =     0.00008569   -0.00048146    0.00000000
     atom    4 type  1   force =    -0.00176726    0.00012717    0.00000000
     atom    5 type  1   force =     0.00013288    0.00000662    0.00000000
     atom    6 type  1   force =    -0.00007833   -0.00000736    0.00000000
     atom    7 type  1   force =     0.00007594    0.00049725    0.00000000
     atom    8 type  1   force =    -0.00180648   -0.00014396    0.00000000
     atom    9 type  1   force =    -0.00846553    0.00251399    0.00000000
     atom   10 type  1   force =     0.00032171    0.00135389    0.00000000
     atom   11 type  1   force =    -0.00802098   -0.00220409    0.00000000
     atom   12 type  1   force =     0.00032263   -0.00135403    0.00000000
     atom   13 type  1   force =     0.00006642    0.00027408    0.00000000
     atom   14 type  1   force =    -0.00019533   -0.00008771    0.00000000
     atom   15 type  1   force =     0.00006726   -0.00026495    0.00000000
     atom   16 type  1   force =    -0.00019793    0.00007650    0.00000000
     atom   17 type  1   force =     0.00026271   -0.00015237    0.00000000
     atom   18 type  1   force =     0.00009491    0.00009342    0.00000000
     atom   19 type  1   force =    -0.00076686    0.00000320    0.00000000
     atom   20 type  1   force =    -0.00005285   -0.00000440    0.00000000
     atom   21 type  1   force =     0.00025899    0.00016211    0.00000000
     atom   22 type  1   force =     0.00009286   -0.00010466    0.00000000
     atom   23 type  1   force =     0.00024535    0.00000410    0.00000000
     atom   24 type  1   force =    -0.00005273   -0.00000386    0.00000000
     atom   25 type  1   force =    -0.00020809    0.00011645    0.00000000
     atom   26 type  1   force =     0.00031680    0.00107577    0.00000000
     atom   27 type  1   force =    -0.00002732   -0.00008654    0.00000000
     atom   28 type  1   force =    -0.00019662    0.00007755    0.00000000
     atom   29 type  1   force =    -0.00002539    0.00009686    0.00000000
     atom   30 type  1   force =    -0.00019562   -0.00008643    0.00000000
     atom   31 type  1   force =    -0.00020487   -0.00010823    0.00000000
     atom   32 type  1   force =     0.00032800   -0.00108900    0.00000000

     Total force =     0.027264     Total SCF correction =     0.000000

     Writing all to output data dir ./scratch_runs/atom02_x_minus/c_sup.save/ :
     XML data file, charge density, pseudopotentials, collected wavefunctions
 
     init_run     :     30.45s CPU     32.19s WALL (       1 calls)
     electrons    :    637.74s CPU    669.86s WALL (       1 calls)
     forces       :      4.63s CPU      4.77s WALL (       1 calls)

     Called by init_run:
     wfcinit      :     29.90s CPU     31.55s WALL (       1 calls)
     potinit      :      0.05s CPU      0.05s WALL (       1 calls)
     hinit0       :      0.04s CPU      0.06s WALL (       1 calls)

     Called by electrons:
     c_bands      :    538.10s CPU    567.22s WALL (      22 calls)
     sum_band     :     96.73s CPU     98.54s WALL (      22 calls)
     v_of_rho     :      0.38s CPU      0.38s WALL (      23 calls)
     newd         :      1.23s CPU      2.43s WALL (      23 calls)
     PAW_pot      :      0.57s CPU      0.57s WALL (      23 calls)
     mix_rho      :      0.72s CPU      0.74s WALL (      22 calls)

     Called by c_bands:
     init_us_2    :     25.99s CPU     26.04s WALL (    1150 calls)
     cegterg      :    503.42s CPU    532.42s WALL (     550 calls)

     Called by *egterg:
     cdiaghg      :      9.81s CPU      9.82s WALL (    2392 calls)
     h_psi        :    359.31s CPU    368.77s WALL (    2417 calls)
     s_psi        :     46.08s CPU     46.18s WALL (    2417 calls)
     g_psi        :      2.47s CPU      2.47s WALL (    1842 calls)

     Called by h_psi:
     h_psi:calbec :     42.08s CPU     42.14s WALL (    2417 calls)
     vloc_psi     :    268.04s CPU    270.48s WALL (    2417 calls)
     add_vuspsi   :     45.96s CPU     45.98s WALL (    2417 calls)

     General routines
     calbec       :     59.17s CPU     59.23s WALL (    3067 calls)
     fft          :      0.31s CPU      0.33s WALL (      96 calls)
     ffts         :      0.06s CPU      0.07s WALL (      22 calls)
     fftw         :    238.64s CPU    241.00s WALL (  261650 calls)
 
     Parallel routines
 
     PWSCF        :  11m14.47s CPU  11m50.37s WALL

 
   This run was terminated on:   0: 1:52  13May2026            

=------------------------------------------------------------------------------=
   JOB DONE.
=------------------------------------------------------------------------------=

===== TIMING =====
Job:           atom02_x_minus
Start:         2026-05-12T23:49:59+02:00
End:           2026-05-13T00:01:52+02:00
Duration (s):  713
Duration (H:M:S): 00:11:53
==================
