
     Program PWSCF v.7.4 starts on 12May2026 at 23:27:47 

     This program is part of the open-source Quantum ESPRESSO suite
     for quantum simulation of materials; please cite
         "P. Giannozzi et al., J. Phys.:Condens. Matter 21 395502 (2009);
         "P. Giannozzi et al., J. Phys.:Condens. Matter 29 465901 (2017);
         "P. Giannozzi et al., J. Chem. Phys. 152 154105 (2020);
          URL http://www.quantum-espresso.org", 
     in publications or presentations arising from this work. More details at
     http://www.quantum-espresso.org/quote

     Parallel version (MPI), running on    12 processors

     MPI processes distributed on     1 nodes
     142143 MiB available memory on the printing compute node when the environment starts
 
     Reading input from ./scratch_runs/atom01_y_minus/atom01_y_minus.in

     Current dimensions of program PWSCF are:
     Max number of different atomic species (ntypx) = 10
     Max number of k-points (npk) =  40000
     Max angular momentum in pseudopotentials (lmaxx) =  4
read_pp_mesh; mismatch in mesh size, discarding the one in header
     Message from routine setup:
     using ibrav=0 with symmetry is DISCOURAGED, use correct ibrav instead
 
     R & G space division:  proc/nbgrp/npool/nimage =      12
     Subspace diagonalization in iterative solution of the eigenvalue problem:
     a serial algorithm will be used

 
     Parallelization info
     --------------------
     sticks:   dense  smooth     PW     G-vecs:    dense   smooth      PW
     Min         797     797    207               113899   113899   15105
     Max         798     798    208               113908   113908   15112
     Sum        9565    9565   2491              1366799  1366799  181303
 
     Using Slab Decomposition
 


     bravais-lattice index     =            0
     lattice parameter (alat)  =      18.6352  a.u.
     unit-cell volume          =   10116.1574 (a.u.)^3
     number of atoms/cell      =           32
     number of atomic types    =            1
     number of electrons       =       128.00
     number of Kohn-Sham states=           77
     kinetic-energy cutoff     =     100.0000  Ry
     charge density cutoff     =     400.0000  Ry
     scf convergence threshold =      1.0E-16
     mixing beta               =       0.7000
     number of iterations used =            8  plain     mixing
     Exchange-correlation= SLA PW NOGX NOGC
                           (   1   4   0   0   0   0   0)

     celldm(1)=  18.635156  celldm(2)=   0.000000  celldm(3)=   0.000000
     celldm(4)=   0.000000  celldm(5)=   0.000000  celldm(6)=   0.000000

     crystal axes: (cart. coord. in units of alat)
               a(1) = (   1.000000   0.000000   0.000000 )  
               a(2) = (  -0.500000   0.866025   0.000000 )  
               a(3) = (   0.000000   0.000000   1.805036 )  

     reciprocal axes: (cart. coord. in units 2 pi/alat)
               b(1) = (  1.000000  0.577350  0.000000 )  
               b(2) = (  0.000000  1.154701  0.000000 )  
               b(3) = (  0.000000  0.000000  0.554006 )  


     PseudoPot. # 1 for C  read from file:
     ./C.upf
     MD5 check sum: 1b594deb0bcc8b4bffb8cfaf75c62b92
     Pseudo is Projector augmented-wave + core cor, Zval =  4.0
     Generated using ATOMPAW code
     Shape of augmentation charge: SINC**2
     Using radial grid of 2342 points,  4 beta functions with: 
                l(1) =   0
                l(2) =   0
                l(3) =   1
                l(4) =   1
     Q(r) pseudized with 0 coefficients 


     atomic species   valence    mass     pseudopotential
     C                 4.00    12.01070     C ( 1.00)

      4 Sym. Ops. (no inversion) found



   Cartesian axes

     site n.     atom                  positions (alat units)
         1        C      tau(   1) = (   0.0000000  -0.0010141   0.9025179  )
         2        C      tau(   2) = (  -0.0000005   0.1443379   0.9025179  )
         3        C      tau(   3) = (   0.2500000   0.0000000   0.9025179  )
         4        C      tau(   4) = (   0.2499995   0.1443379   0.9025179  )
         5        C      tau(   5) = (   0.5000000   0.0000000   0.9025179  )
         6        C      tau(   6) = (   0.4999995   0.1443379   0.9025179  )
         7        C      tau(   7) = (   0.7500000   0.0000000   0.9025179  )
         8        C      tau(   8) = (   0.7499995   0.1443379   0.9025179  )
         9        C      tau(   9) = (  -0.1249999   0.2165063   0.9025179  )
        10        C      tau(  10) = (  -0.1250005   0.3608442   0.9025179  )
        11        C      tau(  11) = (   0.1249999   0.2165063   0.9025179  )
        12        C      tau(  12) = (   0.1249995   0.3608442   0.9025179  )
        13        C      tau(  13) = (   0.3749999   0.2165063   0.9025179  )
        14        C      tau(  14) = (   0.3749995   0.3608442   0.9025179  )
        15        C      tau(  15) = (   0.6249999   0.2165063   0.9025179  )
        16        C      tau(  16) = (   0.6249995   0.3608442   0.9025179  )
        17        C      tau(  17) = (  -0.2500000   0.4330127   0.9025179  )
        18        C      tau(  18) = (  -0.2500005   0.5773506   0.9025179  )
        19        C      tau(  19) = (   0.0000000   0.4330127   0.9025179  )
        20        C      tau(  20) = (  -0.0000005   0.5773506   0.9025179  )
        21        C      tau(  21) = (   0.2500000   0.4330127   0.9025179  )
        22        C      tau(  22) = (   0.2499995   0.5773506   0.9025179  )
        23        C      tau(  23) = (   0.5000000   0.4330127   0.9025179  )
        24        C      tau(  24) = (   0.4999995   0.5773506   0.9025179  )
        25        C      tau(  25) = (  -0.3749999   0.6495190   0.9025179  )
        26        C      tau(  26) = (  -0.3750005   0.7938569   0.9025179  )
        27        C      tau(  27) = (  -0.1249999   0.6495190   0.9025179  )
        28        C      tau(  28) = (  -0.1250005   0.7938569   0.9025179  )
        29        C      tau(  29) = (   0.1249999   0.6495190   0.9025179  )
        30        C      tau(  30) = (   0.1249995   0.7938569   0.9025179  )
        31        C      tau(  31) = (   0.3749999   0.6495190   0.9025179  )
        32        C      tau(  32) = (   0.3749995   0.7938569   0.9025179  )

     number of k points=    16  Marzari-Vanderbilt smearing, width (Ry)=  0.0200
                       cart. coord. in units 2pi/alat
        k(    1) = (   0.0000000   0.0000000   0.0000000), wk =   0.0408163
        k(    2) = (   0.0000000   0.1649572   0.0000000), wk =   0.0816327
        k(    3) = (   0.0000000   0.3299144   0.0000000), wk =   0.0816327
        k(    4) = (   0.0000000   0.4948717   0.0000000), wk =   0.0816327
        k(    5) = (   0.1428571   0.2474358   0.0000000), wk =   0.1632653
        k(    6) = (   0.1428571   0.4123930   0.0000000), wk =   0.1632653
        k(    7) = (   0.1428571   0.5773503   0.0000000), wk =   0.0816327
        k(    8) = (   0.2857143   0.4948717   0.0000000), wk =   0.1632653
        k(    9) = (  -0.1428571   0.0824786   0.0000000), wk =   0.1632653
        k(   10) = (  -0.2857143   0.1649572   0.0000000), wk =   0.1632653
        k(   11) = (  -0.4285714   0.2474358   0.0000000), wk =   0.1632653
        k(   12) = (   0.2857143   0.0000000   0.0000000), wk =   0.0816327
        k(   13) = (  -0.2857143   0.3299144   0.0000000), wk =   0.1632653
        k(   14) = (   0.4285714   0.0824786   0.0000000), wk =   0.1632653
        k(   15) = (  -0.4285714   0.4123930   0.0000000), wk =   0.1632653
        k(   16) = (   0.5714286   0.0000000   0.0000000), wk =   0.0816327

     Dense  grid:  1366799 G-vectors     FFT dimensions: ( 120, 120, 216)

     Estimated max dynamical RAM per process >     644.54 MB

     Estimated total dynamical RAM >       7.55 GB
 ----2D----2D----2D----2D----2D----2D----2D----2D----2D----2D----2D----2D
  The code is running with the 2D cutoff
  Please refer to:
  Sohier, T., Calandra, M., & Mauri, F. (2017), 
  Density functional perturbation theory for gated two-dimensional heterostructu
 res:
  Theoretical developments and application to flexural phonons in graphene.
  Physical Review B, 96(7), 75448. https://doi.org/10.1103/PhysRevB.96.075448
 ----2D----2D----2D----2D----2D----2D----2D----2D----2D----2D----2D----2D

     Check: negative core charge=   -0.000011

     Initial potential from superposition of free atoms

     starting charge     127.9988, renormalised to     128.0000

     negative rho (up, down):  7.346E-05 0.000E+00
     Starting wfcs are  256 randomized atomic wfcs
     Checking if some PAW data can be deallocated... 

     total cpu time spent up to now is       21.0 secs

     per-process dynamical memory:   459.3 Mb

     Self-consistent Calculation

     iteration #  1     ecut=   100.00 Ry     beta= 0.70
     Davidson diagonalization with overlap
     ethr =  1.00E-02,  avg # of iterations =  2.0

     negative rho (up, down):  4.049E-04 0.000E+00

     total cpu time spent up to now is       42.9 secs

     total energy              =    -569.79350344 Ry
     estimated scf accuracy    <       3.13463061 Ry

     iteration #  2     ecut=   100.00 Ry     beta= 0.70
     Davidson diagonalization with overlap
     ethr =  2.45E-03,  avg # of iterations =  2.0

     negative rho (up, down):  5.729E-04 0.000E+00

     total cpu time spent up to now is       62.5 secs

     total energy              =    -570.24398583 Ry
     estimated scf accuracy    <       0.03980327 Ry

     iteration #  3     ecut=   100.00 Ry     beta= 0.70
     Davidson diagonalization with overlap
     c_bands:  1 eigenvalues not converged
     c_bands:  2 eigenvalues not converged
     c_bands:  1 eigenvalues not converged
     c_bands:  3 eigenvalues not converged
     c_bands:  2 eigenvalues not converged
     c_bands:  3 eigenvalues not converged
     c_bands:  1 eigenvalues not converged
     c_bands:  2 eigenvalues not converged
     c_bands:  2 eigenvalues not converged
     c_bands:  2 eigenvalues not converged
     c_bands:  1 eigenvalues not converged
     c_bands:  3 eigenvalues not converged
     ethr =  3.11E-05,  avg # of iterations = 15.8

     negative rho (up, down):  6.842E-04 0.000E+00

     total cpu time spent up to now is       93.6 secs

     total energy              =    -570.24904703 Ry
     estimated scf accuracy    <       0.00413422 Ry

     iteration #  4     ecut=   100.00 Ry     beta= 0.70
     Davidson diagonalization with overlap
     c_bands:  1 eigenvalues not converged
     c_bands:  1 eigenvalues not converged
     c_bands:  2 eigenvalues not converged
     c_bands:  1 eigenvalues not converged
     c_bands:  1 eigenvalues not converged
     ethr =  3.23E-06,  avg # of iterations = 16.0

     negative rho (up, down):  7.097E-04 0.000E+00

     total cpu time spent up to now is      127.9 secs

     total energy              =    -570.24898318 Ry
     estimated scf accuracy    <       0.01066020 Ry

     iteration #  5     ecut=   100.00 Ry     beta= 0.70
     Davidson diagonalization with overlap
     ethr =  3.23E-06,  avg # of iterations =  5.6

     negative rho (up, down):  7.177E-04 0.000E+00

     total cpu time spent up to now is      149.4 secs

     total energy              =    -570.25079797 Ry
     estimated scf accuracy    <       0.00004746 Ry

     iteration #  6     ecut=   100.00 Ry     beta= 0.70
     Davidson diagonalization with overlap
     ethr =  3.71E-08,  avg # of iterations =  5.0

     negative rho (up, down):  7.257E-04 0.000E+00

     total cpu time spent up to now is      175.1 secs

     total energy              =    -570.25083229 Ry
     estimated scf accuracy    <       0.00001829 Ry

     iteration #  7     ecut=   100.00 Ry     beta= 0.70
     Davidson diagonalization with overlap
     ethr =  1.43E-08,  avg # of iterations =  2.0

     negative rho (up, down):  7.273E-04 0.000E+00

     total cpu time spent up to now is      193.7 secs

     total energy              =    -570.25083462 Ry
     estimated scf accuracy    <       0.00000246 Ry

     iteration #  8     ecut=   100.00 Ry     beta= 0.70
     Davidson diagonalization with overlap
     ethr =  1.92E-09,  avg # of iterations =  2.5

     negative rho (up, down):  7.275E-04 0.000E+00

     total cpu time spent up to now is      212.6 secs

     total energy              =    -570.25083494 Ry
     estimated scf accuracy    <       0.00000025 Ry

     iteration #  9     ecut=   100.00 Ry     beta= 0.70
     Davidson diagonalization with overlap
     ethr =  1.92E-10,  avg # of iterations =  3.6

     negative rho (up, down):  7.276E-04 0.000E+00

     total cpu time spent up to now is      234.8 secs

     total energy              =    -570.25083501 Ry
     estimated scf accuracy    <       0.00000009 Ry

     iteration # 10     ecut=   100.00 Ry     beta= 0.70
     Davidson diagonalization with overlap
     ethr =  6.70E-11,  avg # of iterations =  2.0

     negative rho (up, down):  7.277E-04 0.000E+00

     total cpu time spent up to now is      253.0 secs

     total energy              =    -570.25083502 Ry
     estimated scf accuracy    <       0.00000002 Ry

     iteration # 11     ecut=   100.00 Ry     beta= 0.70
     Davidson diagonalization with overlap
     ethr =  1.66E-11,  avg # of iterations =  2.0

     negative rho (up, down):  7.278E-04 0.000E+00

     total cpu time spent up to now is      270.1 secs

     total energy              =    -570.25083502 Ry
     estimated scf accuracy    <          3.9E-09 Ry

     iteration # 12     ecut=   100.00 Ry     beta= 0.70
     Davidson diagonalization with overlap
     ethr =  3.03E-12,  avg # of iterations =  2.0

     negative rho (up, down):  7.278E-04 0.000E+00

     total cpu time spent up to now is      288.1 secs

     total energy              =    -570.25083502 Ry
     estimated scf accuracy    <          5.1E-10 Ry

     iteration # 13     ecut=   100.00 Ry     beta= 0.70
     Davidson diagonalization with overlap
     ethr =  3.96E-13,  avg # of iterations =  3.5

     negative rho (up, down):  7.278E-04 0.000E+00

     total cpu time spent up to now is      308.7 secs

     total energy              =    -570.25083503 Ry
     estimated scf accuracy    <          1.8E-11 Ry

     iteration # 14     ecut=   100.00 Ry     beta= 0.70
     Davidson diagonalization with overlap
     ethr =  1.00E-13,  avg # of iterations =  2.0

     negative rho (up, down):  7.278E-04 0.000E+00

     total cpu time spent up to now is      326.3 secs

     total energy              =    -570.25083503 Ry
     estimated scf accuracy    <          2.3E-11 Ry

     iteration # 15     ecut=   100.00 Ry     beta= 0.70
     Davidson diagonalization with overlap
     ethr =  1.00E-13,  avg # of iterations =  1.0

     negative rho (up, down):  7.278E-04 0.000E+00

     total cpu time spent up to now is      341.6 secs

     total energy              =    -570.25083503 Ry
     estimated scf accuracy    <          4.0E-12 Ry

     iteration # 16     ecut=   100.00 Ry     beta= 0.70
     Davidson diagonalization with overlap
     ethr =  1.00E-13,  avg # of iterations =  1.0

     negative rho (up, down):  7.278E-04 0.000E+00

     total cpu time spent up to now is      356.8 secs

     total energy              =    -570.25083503 Ry
     estimated scf accuracy    <          8.7E-13 Ry

     iteration # 17     ecut=   100.00 Ry     beta= 0.70
     Davidson diagonalization with overlap
     ethr =  1.00E-13,  avg # of iterations =  1.0

     negative rho (up, down):  7.278E-04 0.000E+00

     total cpu time spent up to now is      372.0 secs

     total energy              =    -570.25083503 Ry
     estimated scf accuracy    <          8.7E-14 Ry

     iteration # 18     ecut=   100.00 Ry     beta= 0.70
     Davidson diagonalization with overlap
     ethr =  1.00E-13,  avg # of iterations =  1.0

     negative rho (up, down):  7.278E-04 0.000E+00

     total cpu time spent up to now is      387.3 secs

     total energy              =    -570.25083503 Ry
     estimated scf accuracy    <          6.6E-14 Ry

     iteration # 19     ecut=   100.00 Ry     beta= 0.70
     Davidson diagonalization with overlap
     ethr =  1.00E-13,  avg # of iterations =  1.0

     negative rho (up, down):  7.278E-04 0.000E+00

     total cpu time spent up to now is      402.6 secs

     total energy              =    -570.25083503 Ry
     estimated scf accuracy    <          1.4E-14 Ry

     iteration # 20     ecut=   100.00 Ry     beta= 0.70
     Davidson diagonalization with overlap
     ethr =  1.00E-13,  avg # of iterations =  1.0

     negative rho (up, down):  7.278E-04 0.000E+00

     total cpu time spent up to now is      417.8 secs

     total energy              =    -570.25083503 Ry
     estimated scf accuracy    <          5.4E-15 Ry

     iteration # 21     ecut=   100.00 Ry     beta= 0.70
     Davidson diagonalization with overlap
     ethr =  1.00E-13,  avg # of iterations =  1.0

     negative rho (up, down):  7.278E-04 0.000E+00

     total cpu time spent up to now is      433.1 secs

     total energy              =    -570.25083503 Ry
     estimated scf accuracy    <          2.6E-16 Ry

     iteration # 22     ecut=   100.00 Ry     beta= 0.70
     Davidson diagonalization with overlap
     ethr =  1.00E-13,  avg # of iterations =  1.0

     negative rho (up, down):  7.278E-04 0.000E+00

     total cpu time spent up to now is      448.3 secs

     End of self-consistent calculation

          k = 0.0000 0.0000 0.0000 (170861 PWs)   bands (ev):

   -23.8599 -22.4125 -22.4039 -22.4030 -22.4025 -22.4021 -22.3918 -19.6080
   -19.6016 -19.5976 -19.5974 -19.5963 -19.5838 -18.5971 -18.5971 -18.5868
   -17.7101 -17.7042 -17.6989 -14.9336 -14.9277 -14.9232 -14.9229 -14.9222
   -14.9082 -13.5143 -13.5129 -13.5068 -13.5068 -13.5012 -13.4989 -12.1913
   -11.9184 -11.9067 -11.9027 -11.9023 -11.8994 -11.8861 -10.9726 -10.9669
   -10.9610 -10.4681 -10.4611 -10.4604 -10.4600 -10.4597 -10.4511  -9.6222
    -9.6057  -9.6037  -9.6034  -9.6006  -9.5842  -7.6071  -7.5882  -7.3083
    -7.2996  -7.2977  -7.2976  -7.2974  -7.2853  -6.9118  -6.9081  -6.9010
    -2.9315  -2.9249  -2.9171  -1.7611  -1.7523  -1.7496  -1.7496  -1.7492
    -1.7349  -1.2542  -0.4981   0.4162   0.7434

          k = 0.0000 0.1650 0.0000 (170869 PWs)   bands (ev):

   -23.8299 -22.7867 -22.5800 -22.5796 -22.1677 -22.1670 -21.9618 -20.1543
   -20.1530 -19.5717 -19.5685 -19.0259 -19.0010 -18.9986 -18.7185 -18.7110
   -17.5369 -17.5333 -17.2261 -15.4926 -15.4833 -15.1694 -15.1682 -14.4622
   -14.4534 -13.9183 -13.9175 -13.2563 -13.2521 -12.9304 -12.9292 -12.8318
   -12.3717 -12.3639 -12.1552 -11.4543 -11.4457 -11.0603 -11.0537 -10.9820
   -10.9413 -10.9113 -10.6674 -10.6663 -10.1863 -10.1852  -9.9502  -9.9487
    -9.8737  -9.8643  -9.5144  -9.5027  -9.2413  -7.9006  -7.9004  -7.7099
    -7.6727  -7.2818  -7.2768  -7.1024  -6.9309  -6.9245  -6.6791  -6.6776
    -2.8748  -2.8686  -2.6799  -2.4400  -2.4330  -1.8179  -1.8128  -1.2134
    -1.0550  -1.0507  -0.4566   0.2146   0.4575

          k = 0.0000 0.3299 0.0000 (170839 PWs)   bands (ev):

   -23.7400 -23.1131 -22.6983 -22.6978 -21.8750 -21.8742 -21.4662 -20.6632
   -20.6620 -19.6792 -19.4895 -19.4860 -18.9477 -18.9424 -18.3779 -18.3766
   -17.1584 -17.1567 -16.4407 -16.1349 -16.1257 -15.6540 -15.6530 -14.1574
   -14.1570 -14.0584 -14.0506 -13.7665 -12.8241 -12.8168 -12.7572 -12.7522
   -12.2499 -12.2467 -12.0472 -11.3234 -11.3168 -11.2979 -11.0443 -11.0349
   -10.8521 -10.8060 -10.8048 -10.3110 -10.3027 -10.2486 -10.1080  -9.8468
    -9.8458  -9.5688  -9.5572  -9.3877  -8.8602  -8.4654  -8.4650  -8.0614
    -7.8593  -7.5730  -7.2340  -7.2289  -6.9923  -6.9862  -6.0867  -6.0830
    -3.0810  -3.0722  -2.7167  -2.7109  -2.0702  -1.9886  -1.9835  -1.0909
    -0.3716  -0.3683  -0.3320  -0.2339   0.3375

          k = 0.0000 0.4949 0.0000 (170854 PWs)   bands (ev):

   -23.5903 -23.3811 -22.7575 -22.7571 -21.5257 -21.5250 -21.1212 -21.1202
   -20.9173 -20.3191 -19.3544 -19.3507 -19.1703 -19.1660 -17.8001 -17.7992
   -16.7365 -16.7267 -16.6927 -16.6922 -16.1819 -16.1815 -15.5838 -14.6879
   -14.2654 -14.2651 -13.6648 -13.6572 -13.2555 -13.2481 -12.2200 -12.2147
   -11.8676 -11.7247 -11.7188 -11.6173 -11.5473 -11.5421 -10.8841 -10.8768
   -10.8755 -10.8743 -10.7634 -10.7528 -10.7043 -10.5026  -9.6769  -9.6661
    -9.4443  -9.4436  -9.3041  -8.9823  -8.9817  -8.7850  -8.6076  -8.4850
    -8.1651  -8.1406  -7.1616  -7.1563  -7.0756  -7.0696  -5.6507  -5.6441
    -3.5434  -3.5315  -2.4874  -2.4817  -2.2282  -2.2230  -1.2517  -0.8868
    -0.6011  -0.3262  -0.1244   0.1659   0.2563

          k = 0.1429 0.2474 0.0000 (170841 PWs)   bands (ev):

   -23.7699 -22.9363 -22.9335 -22.3168 -22.3122 -21.7006 -21.6977 -20.6913
   -20.0996 -20.0948 -19.3319 -19.3269 -18.9513 -18.9460 -18.5166 -18.3981
   -17.6291 -16.8344 -16.8277 -15.9084 -15.9023 -15.8802 -14.8529 -14.8488
   -14.4318 -13.8320 -13.4752 -13.4684 -13.2995 -13.2910 -12.5459 -12.5401
   -12.4586 -12.0831 -11.9174 -11.9117 -11.3503 -11.0873 -11.0850 -11.0040
   -10.9965 -10.5647 -10.5526 -10.3576 -10.3537 -10.2010 -10.1918  -9.9571
    -9.9483  -9.6499  -9.6474  -9.1380  -9.1249  -8.4934  -7.9460  -7.8547
    -7.8499  -7.7993  -7.2880  -7.2819  -6.7951  -6.6734  -6.6671  -6.0618
    -3.0646  -2.9524  -2.5299  -2.5217  -2.4250  -2.4150  -1.1998  -1.1931
    -1.1317  -0.3735  -0.2900   0.0107   0.0111

          k = 0.1429 0.4124 0.0000 (170817 PWs)   bands (ev):

   -23.6501 -23.2321 -23.0241 -22.4031 -21.9918 -21.3799 -21.1822 -21.1731
   -20.5766 -19.9873 -19.9801 -19.5972 -18.8484 -18.5605 -18.3198 -17.7916
   -17.3837 -16.6127 -16.4297 -16.3796 -16.3710 -16.0020 -15.3599 -14.7338
   -14.5118 -14.2184 -13.7350 -13.5955 -13.3033 -12.8939 -12.3739 -12.0576
   -11.9393 -11.8532 -11.8349 -11.7829 -11.5353 -11.4395 -11.2298 -11.1913
   -10.8850 -10.6160 -10.5291 -10.4795 -10.4578 -10.2187 -10.1211  -9.9793
    -9.7241  -9.2844  -9.1518  -9.0656  -9.0423  -8.7489  -8.3821  -8.3791
    -8.0490  -7.8357  -7.7597  -7.4651  -6.7100  -6.6618  -6.1560  -5.4850
    -3.6451  -3.1019  -2.9293  -2.6718  -2.1063  -1.6865  -1.4500  -0.9684
    -0.5915  -0.3970  -0.2074  -0.1110   0.1423

          k = 0.1429 0.5774 0.0000 (170864 PWs)   bands (ev):

   -23.4735 -23.4680 -23.0538 -22.4326 -21.6175 -21.6080 -21.0099 -21.0003
   -20.6076 -20.5982 -19.8202 -19.8142 -18.7116 -18.7056 -17.9136 -17.3848
   -17.0480 -16.9467 -16.9379 -16.7498 -15.8853 -15.8746 -15.1289 -15.1225
   -14.8274 -14.1464 -14.1350 -13.6347 -12.8367 -12.8252 -12.3165 -12.3095
   -11.7267 -11.7221 -11.6034 -11.5952 -11.3652 -11.2265 -11.1890 -11.1818
   -11.1811 -11.1696 -10.7152 -10.7034 -10.4920 -10.2234 -10.0704  -9.5442
    -9.5365  -9.1952  -8.9942  -8.9775  -8.8648  -8.8572  -8.4545  -8.4451
    -8.3859  -8.3675  -7.6305  -7.6260  -6.6728  -6.6674  -5.9291  -5.1743
    -3.9566  -3.3505  -2.8258  -2.8188  -1.7716  -1.7642  -0.8151  -0.8023
    -0.7239  -0.7231  -0.1517  -0.0062   0.0012

          k = 0.2857 0.4949 0.0000 (170884 PWs)   bands (ev):

   -23.5007 -23.2932 -23.2904 -22.0530 -22.0483 -21.6419 -20.8337 -20.8308
   -20.4364 -20.4316 -20.2378 -20.2328 -18.2891 -18.2571 -18.2511 -17.4016
   -17.2361 -17.0957 -17.0883 -16.7031 -15.5293 -15.5222 -15.0793 -15.0240
   -15.0205 -14.6435 -14.6360 -12.9686 -12.9623 -12.6327 -12.3450 -12.0605
   -12.0517 -11.7601 -11.5114 -11.5092 -11.4201 -11.4147 -11.3450 -11.0882
   -11.0802 -10.8825 -10.8746 -10.7468 -10.7359 -10.0477 -10.0438  -9.5727
    -9.4865  -9.4716  -8.8575  -8.7511  -8.7350  -8.6842  -8.6814  -8.3607
    -8.2480  -8.2433  -8.0642  -8.0594  -6.4668  -6.2845  -6.2771  -4.9004
    -4.2110  -3.1160  -3.1055  -3.0617  -1.2972  -1.2892  -0.9193  -0.9128
    -0.7643  -0.4786  -0.4782  -0.3859  -0.3797

          k =-0.1429 0.0825 0.0000 (170869 PWs)   bands (ev):

   -23.8299 -22.7868 -22.5832 -22.5761 -22.1709 -22.1637 -21.9621 -20.1575
   -20.1501 -19.5733 -19.5663 -19.0245 -19.0040 -18.9961 -18.7191 -18.7126
   -17.5361 -17.5277 -17.2313 -15.4960 -15.4886 -15.1689 -15.1591 -14.4636
   -14.4552 -13.9157 -13.9107 -13.2628 -13.2569 -12.9324 -12.9233 -12.8379
   -12.3692 -12.3611 -12.1552 -11.4496 -11.4412 -11.0640 -11.0563 -10.9903
   -10.9343 -10.9109 -10.6702 -10.6643 -10.1890 -10.1831  -9.9492  -9.9410
    -9.8774  -9.8670  -9.5191  -9.5094  -9.2318  -7.9027  -7.8969  -7.7248
    -7.6577  -7.2859  -7.2779  -7.0966  -6.9346  -6.9272  -6.6794  -6.6731
    -2.8719  -2.8609  -2.6895  -2.4438  -2.4373  -1.8151  -1.8044  -1.2134
    -1.0584  -1.0511  -0.4566   0.2149   0.4597

          k =-0.2857 0.1650 0.0000 (170839 PWs)   bands (ev):

   -23.7400 -23.1132 -22.7015 -22.6944 -21.8782 -21.8710 -21.4665 -20.6664
   -20.6591 -19.6792 -19.4911 -19.4839 -18.9488 -18.9420 -18.3807 -18.3728
   -17.1592 -17.1506 -16.4451 -16.1388 -16.1320 -15.6549 -15.6455 -14.1535
   -14.1509 -14.0590 -14.0507 -13.7718 -12.8223 -12.8143 -12.7627 -12.7554
   -12.2528 -12.2431 -12.0471 -11.3272 -11.3197 -11.2976 -11.0367 -11.0289
   -10.8456 -10.8088 -10.8029 -10.3147 -10.3045 -10.2409 -10.1169  -9.8494
    -9.8435  -9.5750  -9.5663  -9.3862  -8.8498  -8.4678  -8.4619  -8.0747
    -7.8457  -7.5688  -7.2381  -7.2301  -6.9960  -6.9886  -6.0847  -6.0778
    -3.0855  -3.0790  -2.7140  -2.7030  -2.0784  -1.9860  -1.9752  -1.0909
    -0.3750  -0.3673  -0.3320  -0.2339   0.3372

          k =-0.4286 0.2474 0.0000 (170854 PWs)   bands (ev):

   -23.5903 -23.3812 -22.7607 -22.7536 -21.5289 -21.5217 -21.1244 -21.1171
   -20.9177 -20.3195 -19.3559 -19.3488 -19.1717 -19.1646 -17.8015 -17.7926
   -16.7418 -16.7349 -16.6947 -16.6859 -16.1836 -16.1745 -15.5883 -14.6928
   -14.2606 -14.2597 -13.6643 -13.6563 -13.2544 -13.2465 -12.2247 -12.2171
   -11.8675 -11.7289 -11.7212 -11.6172 -11.5504 -11.5407 -10.8873 -10.8783
   -10.8776 -10.8724 -10.7512 -10.7448 -10.6980 -10.4956  -9.6849  -9.6787
    -9.4469  -9.4411  -9.3147  -8.9848  -8.9790  -8.7830  -8.6198  -8.4731
    -8.1622  -8.1282  -7.1657  -7.1578  -7.0792  -7.0717  -5.6454  -5.6376
    -3.5489  -3.5418  -2.4847  -2.4739  -2.2257  -2.2147  -1.2585  -0.8868
    -0.6011  -0.3320  -0.1244   0.1659   0.2561

          k = 0.2857 0.0000 0.0000 (170841 PWs)   bands (ev):

   -23.7699 -22.9378 -22.9322 -22.3190 -22.3097 -21.7022 -21.6964 -20.6917
   -20.1019 -20.0922 -19.3342 -19.3241 -18.9537 -18.9433 -18.5200 -18.3981
   -17.6212 -16.8383 -16.8284 -15.9100 -15.9032 -15.8856 -14.8494 -14.8424
   -14.4260 -13.8392 -13.4731 -13.4683 -13.3049 -13.2921 -12.5543 -12.5438
   -12.4503 -12.0831 -11.9128 -11.9025 -11.3566 -11.0883 -11.0838 -11.0008
   -10.9933 -10.5690 -10.5536 -10.3602 -10.3523 -10.1978 -10.1863  -9.9688
    -9.9534  -9.6501  -9.6457  -9.1357  -9.1208  -8.4918  -7.9593  -7.8589
    -7.8496  -7.7858  -7.2860  -7.2791  -6.8017  -6.6744  -6.6657  -6.0579
    -3.0705  -2.9418  -2.5295  -2.5221  -2.4276  -2.4212  -1.1973  -1.1860
    -1.1317  -0.3735  -0.2951   0.0105   0.0114

          k =-0.2857 0.3299 0.0000 (170817 PWs)   bands (ev):

   -23.6501 -23.2322 -23.0240 -22.4029 -21.9920 -21.3797 -21.1813 -21.1742
   -20.5769 -19.9854 -19.9821 -19.5971 -18.8487 -18.5605 -18.3187 -17.7908
   -17.3835 -16.6188 -16.4249 -16.3789 -16.3698 -16.0064 -15.3589 -14.7313
   -14.5133 -14.2233 -13.7302 -13.5897 -13.3013 -12.9000 -12.3771 -12.0590
   -11.9393 -11.8557 -11.8328 -11.7832 -11.5298 -11.4392 -11.2363 -11.1917
   -10.8782 -10.6225 -10.5258 -10.4721 -10.4583 -10.2079 -10.1266  -9.9788
    -9.7352  -9.2856  -9.1643  -9.0637  -9.0427  -8.7366  -8.3853  -8.3811
    -8.0426  -7.8320  -7.7609  -7.4694  -6.7103  -6.6670  -6.1501  -5.4829
    -3.6478  -3.1111  -2.9287  -2.6631  -2.0977  -1.6943  -1.4472  -0.9684
    -0.5945  -0.3969  -0.2074  -0.1111   0.1374

          k = 0.4286 0.0825 0.0000 (170817 PWs)   bands (ev):

   -23.6502 -23.2322 -23.0240 -22.4028 -21.9917 -21.3800 -21.1795 -21.1765
   -20.5765 -19.9883 -19.9790 -19.5970 -18.8482 -18.5627 -18.3186 -17.7902
   -17.3770 -16.6180 -16.4294 -16.3797 -16.3770 -16.0063 -15.3547 -14.7284
   -14.5075 -14.2235 -13.7359 -13.5907 -13.3095 -12.8948 -12.3690 -12.0646
   -11.9392 -11.8468 -11.8397 -11.7890 -11.5257 -11.4393 -11.2300 -11.1916
   -10.8784 -10.6148 -10.5352 -10.4719 -10.4585 -10.2137 -10.1314  -9.9797
    -9.7317  -9.2839  -9.1582  -9.0631  -9.0418  -8.7402  -8.3937  -8.3834
    -8.0340  -7.8325  -7.7628  -7.4655  -6.7164  -6.6631  -6.1517  -5.4794
    -3.6523  -3.1086  -2.9189  -2.6696  -2.1054  -1.6936  -1.4426  -0.9684
    -0.5881  -0.3969  -0.2074  -0.1111   0.1367

          k =-0.4286 0.4124 0.0000 (170864 PWs)   bands (ev):

   -23.4722 -23.4694 -23.0537 -22.4324 -21.6152 -21.6105 -21.0075 -21.0026
   -20.6056 -20.6009 -19.8185 -19.8155 -18.7106 -18.7075 -17.9096 -17.3805
   -17.0563 -16.9429 -16.9360 -16.7581 -15.8809 -15.8740 -15.1319 -15.1288
   -14.8232 -14.1431 -14.1350 -13.6294 -12.8365 -12.8264 -12.3195 -12.3129
   -11.7254 -11.7231 -11.6066 -11.5994 -11.3557 -11.2269 -11.1920 -11.1816
   -11.1788 -11.1723 -10.7054 -10.6993 -10.4926 -10.2340 -10.0594  -9.5422
    -9.5381  -9.2067  -9.0012  -8.9919  -8.8634  -8.8591  -8.4497  -8.4450
    -8.3711  -8.3597  -7.6324  -7.6286  -6.6763  -6.6705  -5.9226  -5.1680
    -3.9641  -3.3598  -2.8213  -2.8122  -1.7666  -1.7594  -0.8181  -0.8117
    -0.7237  -0.7233  -0.1517  -0.0055   0.0016

          k = 0.5714 0.0000 0.0000 (170884 PWs)   bands (ev):

   -23.5007 -23.2946 -23.2890 -22.0551 -22.0458 -21.6422 -20.8354 -20.8295
   -20.4386 -20.4291 -20.2403 -20.2304 -18.2926 -18.2579 -18.2478 -17.3937
   -17.2332 -17.0980 -17.0927 -16.7080 -15.5332 -15.5224 -15.0769 -15.0209
   -15.0141 -14.6485 -14.6367 -12.9658 -12.9600 -12.6411 -12.3507 -12.0554
   -12.0449 -11.7599 -11.5127 -11.5081 -11.4296 -11.4182 -11.3357 -11.0852
   -11.0771 -10.8796 -10.8695 -10.7551 -10.7412 -10.0502 -10.0424  -9.5717
    -9.4846  -9.4684  -8.8698  -8.7538  -8.7376  -8.6836  -8.6792  -8.3479
    -8.2527  -8.2433  -8.0644  -8.0570  -6.4733  -6.2819  -6.2745  -4.8948
    -4.2172  -3.1179  -3.1116  -3.0516  -1.2990  -1.2921  -0.9164  -0.9040
    -0.7642  -0.4788  -0.4780  -0.3904  -0.3832

     the Fermi energy is    -4.6898 ev

!    total energy              =    -570.25083503 Ry
     total all-electron energy =      -570.250835 Ry
     estimated scf accuracy    <          8.0E-17 Ry
     smearing contrib. (-TS)   =       0.00085121 Ry
     internal energy E=F+TS    =    -570.25168623 Ry

     The total energy is F=E-TS. E is the sum of the following terms:
     one-electron contribution =   -5008.31174309 Ry
     hartree contribution      =    2517.70116139 Ry
     xc contribution           =    -142.34065038 Ry
     ewald contribution        =    2245.92878313 Ry
     one-center paw contrib.   =    -183.22923728 Ry

     convergence has been achieved in  22 iterations

     negative rho (up, down):  7.278E-04 0.000E+00

     Forces acting on atoms (cartesian axes, Ry/au):

     atom    1 type  1   force =     0.00000000    0.02343015    0.00000000
     atom    2 type  1   force =     0.00000000   -0.00924447    0.00000000
     atom    3 type  1   force =     0.00013125    0.00101957    0.00000000
     atom    4 type  1   force =     0.00048635   -0.00047767    0.00000000
     atom    5 type  1   force =     0.00000000    0.00014703    0.00000000
     atom    6 type  1   force =     0.00000000   -0.00007581    0.00000000
     atom    7 type  1   force =    -0.00013125    0.00101957    0.00000000
     atom    8 type  1   force =    -0.00048635   -0.00047767    0.00000000
     atom    9 type  1   force =     0.00133960   -0.00107426    0.00000000
     atom   10 type  1   force =     0.00011182    0.00028678    0.00000000
     atom   11 type  1   force =    -0.00133960   -0.00107426    0.00000000
     atom   12 type  1   force =    -0.00011182    0.00028678    0.00000000
     atom   13 type  1   force =    -0.00008210   -0.00010336    0.00000000
     atom   14 type  1   force =     0.00009086    0.00008238    0.00000000
     atom   15 type  1   force =     0.00008210   -0.00010336    0.00000000
     atom   16 type  1   force =    -0.00009086    0.00008238   -0.00000000
     atom   17 type  1   force =     0.00009815   -0.00002423    0.00000000
     atom   18 type  1   force =    -0.00015554   -0.00017825    0.00000000
     atom   19 type  1   force =     0.00000000   -0.00024356    0.00000000
     atom   20 type  1   force =     0.00000000    0.00024627    0.00000000
     atom   21 type  1   force =    -0.00009815   -0.00002423    0.00000000
     atom   22 type  1   force =     0.00015554   -0.00017825    0.00000000
     atom   23 type  1   force =     0.00000000   -0.00024406    0.00000000
     atom   24 type  1   force =     0.00000000    0.00036116    0.00000000
     atom   25 type  1   force =     0.00108891   -0.00109429   -0.00000000
     atom   26 type  1   force =     0.00243321   -0.00553831    0.00000000
     atom   27 type  1   force =     0.00008017   -0.00010394   -0.00000000
     atom   28 type  1   force =    -0.00026914    0.00001724    0.00000000
     atom   29 type  1   force =    -0.00008017   -0.00010394    0.00000000
     atom   30 type  1   force =     0.00026914    0.00001724   -0.00000000
     atom   31 type  1   force =    -0.00108891   -0.00109429    0.00000000
     atom   32 type  1   force =    -0.00243321   -0.00553831    0.00000000

     Total force =     0.026874     Total SCF correction =     0.000000

     Writing all to output data dir ./scratch_runs/atom01_y_minus/c_sup.save/ :
     XML data file, charge density, pseudopotentials, collected wavefunctions
 
     init_run     :     19.78s CPU     20.90s WALL (       1 calls)
     electrons    :    404.54s CPU    427.39s WALL (       1 calls)
     forces       :      3.04s CPU      3.18s WALL (       1 calls)

     Called by init_run:
     wfcinit      :     19.20s CPU     20.25s WALL (       1 calls)
     potinit      :      0.07s CPU      0.08s WALL (       1 calls)
     hinit0       :      0.05s CPU      0.06s WALL (       1 calls)

     Called by electrons:
     c_bands      :    340.66s CPU    360.43s WALL (      22 calls)
     sum_band     :     61.04s CPU     62.93s WALL (      22 calls)
     v_of_rho     :      0.38s CPU      0.38s WALL (      23 calls)
     newd         :      1.21s CPU      2.39s WALL (      23 calls)
     PAW_pot      :      0.57s CPU      0.57s WALL (      23 calls)
     mix_rho      :      0.72s CPU      0.74s WALL (      22 calls)

     Called by c_bands:
     init_us_2    :     16.37s CPU     16.41s WALL (     736 calls)
     cegterg      :    318.84s CPU    338.52s WALL (     352 calls)

     Called by *egterg:
     cdiaghg      :      6.17s CPU      6.18s WALL (    1536 calls)
     h_psi        :    225.27s CPU    232.58s WALL (    1552 calls)
     s_psi        :     29.52s CPU     29.57s WALL (    1552 calls)
     g_psi        :      1.39s CPU      1.40s WALL (    1184 calls)

     Called by h_psi:
     h_psi:calbec :     26.66s CPU     26.69s WALL (    1552 calls)
     vloc_psi     :    167.47s CPU    170.28s WALL (    1552 calls)
     add_vuspsi   :     29.32s CPU     29.33s WALL (    1552 calls)

     General routines
     calbec       :     37.58s CPU     37.62s WALL (    1968 calls)
     fft          :      0.30s CPU      0.33s WALL (      96 calls)
     ffts         :      0.06s CPU      0.07s WALL (      22 calls)
     fftw         :    150.92s CPU    153.65s WALL (  166708 calls)
 
     Parallel routines
 
     PWSCF        :   7m 8.45s CPU   7m33.77s WALL

 
   This run was terminated on:  23:35:21  12May2026            

=------------------------------------------------------------------------------=
   JOB DONE.
=------------------------------------------------------------------------------=

===== TIMING =====
Job:           atom01_y_minus
Start:         2026-05-12T23:27:45+02:00
End:           2026-05-12T23:35:21+02:00
Duration (s):  456
Duration (H:M:S): 00:07:36
==================
