
     Program PWSCF v.7.4 starts on 10Jun2026 at 18:48:23 

     This program is part of the open-source Quantum ESPRESSO suite
     for quantum simulation of materials; please cite
         "P. Giannozzi et al., J. Phys.:Condens. Matter 21 395502 (2009);
         "P. Giannozzi et al., J. Phys.:Condens. Matter 29 465901 (2017);
         "P. Giannozzi et al., J. Chem. Phys. 152 154105 (2020);
          URL http://www.quantum-espresso.org", 
     in publications or presentations arising from this work. More details at
     http://www.quantum-espresso.org/quote

     Parallel version (MPI), running on    12 processors

     MPI processes distributed on     1 nodes
     138833 MiB available memory on the printing compute node when the environment starts
 
     Reading input from si_sup.scf.in

     Current dimensions of program PWSCF are:
     Max number of different atomic species (ntypx) = 10
     Max number of k-points (npk) =  40000
     Max angular momentum in pseudopotentials (lmaxx) =  4
     file Si_NC_PBE.upf: wavefunction(s)  4f renormalized
     Found identity + (  0.0000  0.0000  0.3333) symmetry
     This is a supercell, fractional translations are disabled
     Message from routine setup:
     using ibrav=0 with symmetry is DISCOURAGED, use correct ibrav instead
 
     R & G space division:  proc/nbgrp/npool/nimage =      12
     Subspace diagonalization in iterative solution of the eigenvalue problem:
     a serial algorithm will be used

 
     Parallelization info
     --------------------
     sticks:   dense  smooth     PW     G-vecs:    dense   smooth      PW
     Min         542     542    144                28999    28999    3984
     Max         543     543    145                29004    29004    3988
     Sum        6505    6505   1735               347997   347997   47831
 
     Using Slab Decomposition
 


     bravais-lattice index     =            0
     lattice parameter (alat)  =      21.7713  a.u.
     unit-cell volume          =    7296.9233 (a.u.)^3
     number of atoms/cell      =           54
     number of atomic types    =            1
     number of electrons       =       216.00
     number of Kohn-Sham states=          108
     kinetic-energy cutoff     =      50.0000  Ry
     charge density cutoff     =     200.0000  Ry
     scf convergence threshold =      1.0E-08
     mixing beta               =       0.7000
     number of iterations used =            8  plain     mixing
     Exchange-correlation= PBE
                           (   1   4   3   4   0   0   0)

     celldm(1)=  21.771328  celldm(2)=   0.000000  celldm(3)=   0.000000
     celldm(4)=   0.000000  celldm(5)=   0.000000  celldm(6)=   0.000000

     crystal axes: (cart. coord. in units of alat)
               a(1) = (  -0.707107   0.000000   0.707107 )  
               a(2) = (   0.000000   0.707107   0.707107 )  
               a(3) = (  -0.707107   0.707107   0.000000 )  

     reciprocal axes: (cart. coord. in units 2 pi/alat)
               b(1) = ( -0.707107 -0.707107  0.707107 )  
               b(2) = (  0.707107  0.707107  0.707107 )  
               b(3) = ( -0.707107  0.707107 -0.707107 )  


     PseudoPot. # 1 for Si read from file:
     ../../../pseudopotentzialak/Si_NC_PBE.upf
     MD5 check sum: 2f548285ada518390005852429903be6
     Pseudo is Norm-conserving, Zval =  4.0
     Generated using FHI98PP, converted with fhi2upf.x v.5.0.2
     Using radial grid of  495 points,  3 beta functions with: 
                l(1) =   0
                l(2) =   1
                l(3) =   3

     atomic species   valence    mass     pseudopotential
     Si                4.00    28.08600     Si( 1.00)

     24 Sym. Ops. (no inversion) found



   Cartesian axes

     site n.     atom                  positions (alat units)
         1        Si     tau(   1) = (   0.0000000   0.0000000   0.0000000  )
         2        Si     tau(   2) = (  -0.1178507   0.1178507   0.1178507  )
         3        Si     tau(   3) = (  -0.2357020   0.2357020   0.0000000  )
         4        Si     tau(   4) = (  -0.3535534   0.3535534   0.1178507  )
         5        Si     tau(   5) = (  -0.4714048   0.4714048   0.0000000  )
         6        Si     tau(   6) = (  -0.5892554   0.5892554   0.1178507  )
         7        Si     tau(   7) = (   0.0000000   0.2357020   0.2357020  )
         8        Si     tau(   8) = (  -0.1178507   0.3535534   0.3535534  )
         9        Si     tau(   9) = (  -0.2357020   0.4714040   0.2357020  )
        10        Si     tau(  10) = (  -0.3535534   0.5892561   0.3535534  )
        11        Si     tau(  11) = (  -0.4714048   0.7071068   0.2357020  )
        12        Si     tau(  12) = (  -0.5892554   0.8249581   0.3535534  )
        13        Si     tau(  13) = (   0.0000000   0.4714048   0.4714048  )
        14        Si     tau(  14) = (  -0.1178507   0.5892554   0.5892554  )
        15        Si     tau(  15) = (  -0.2357020   0.7071068   0.4714048  )
        16        Si     tau(  16) = (  -0.3535534   0.8249581   0.5892554  )
        17        Si     tau(  17) = (  -0.4714048   0.9428095   0.4714048  )
        18        Si     tau(  18) = (  -0.5892554   1.0606602   0.5892554  )
        19        Si     tau(  19) = (  -0.2357020   0.0000000   0.2357020  )
        20        Si     tau(  20) = (  -0.3535534   0.1178507   0.3535534  )
        21        Si     tau(  21) = (  -0.4714040   0.2357020   0.2357020  )
        22        Si     tau(  22) = (  -0.5892561   0.3535534   0.3535534  )
        23        Si     tau(  23) = (  -0.7071068   0.4714048   0.2357020  )
        24        Si     tau(  24) = (  -0.8249581   0.5892554   0.3535534  )
        25        Si     tau(  25) = (  -0.2357020   0.2357020   0.4714040  )
        26        Si     tau(  26) = (  -0.3535534   0.3535534   0.5892561  )
        27        Si     tau(  27) = (  -0.4714040   0.4714040   0.4714040  )
        28        Si     tau(  28) = (  -0.5892561   0.5892561   0.5892561  )
        29        Si     tau(  29) = (  -0.7071068   0.7071068   0.4714040  )
        30        Si     tau(  30) = (  -0.8249581   0.8249581   0.5892561  )
        31        Si     tau(  31) = (  -0.2357020   0.4714048   0.7071068  )
        32        Si     tau(  32) = (  -0.3535534   0.5892554   0.8249581  )
        33        Si     tau(  33) = (  -0.4714040   0.7071068   0.7071068  )
        34        Si     tau(  34) = (  -0.5892561   0.8249581   0.8249581  )
        35        Si     tau(  35) = (  -0.7071068   0.9428095   0.7071068  )
        36        Si     tau(  36) = (  -0.8249581   1.0606602   0.8249581  )
        37        Si     tau(  37) = (  -0.4714048   0.0000000   0.4714048  )
        38        Si     tau(  38) = (  -0.5892554   0.1178507   0.5892554  )
        39        Si     tau(  39) = (  -0.7071068   0.2357020   0.4714048  )
        40        Si     tau(  40) = (  -0.8249581   0.3535534   0.5892554  )
        41        Si     tau(  41) = (  -0.9428095   0.4714048   0.4714048  )
        42        Si     tau(  42) = (  -1.0606602   0.5892554   0.5892554  )
        43        Si     tau(  43) = (  -0.4714048   0.2357020   0.7071068  )
        44        Si     tau(  44) = (  -0.5892554   0.3535534   0.8249581  )
        45        Si     tau(  45) = (  -0.7071068   0.4714040   0.7071068  )
        46        Si     tau(  46) = (  -0.8249581   0.5892561   0.8249581  )
        47        Si     tau(  47) = (  -0.9428095   0.7071068   0.7071068  )
        48        Si     tau(  48) = (  -1.0606602   0.8249581   0.8249581  )
        49        Si     tau(  49) = (  -0.4714048   0.4714048   0.9428095  )
        50        Si     tau(  50) = (  -0.5892554   0.5892554   1.0606602  )
        51        Si     tau(  51) = (  -0.7071068   0.7071068   0.9428095  )
        52        Si     tau(  52) = (  -0.8249581   0.8249581   1.0606602  )
        53        Si     tau(  53) = (  -0.9428095   0.9428095   0.9428095  )
        54        Si     tau(  54) = (  -1.0606602   1.0606602   1.0606602  )

     number of k points=     8
                       cart. coord. in units 2pi/alat
        k(    1) = (   0.0000000   0.0000000   0.0000000), wk =   0.0312500
        k(    2) = (  -0.1767767   0.1767767  -0.1767767), wk =   0.2500000
        k(    3) = (   0.3535534  -0.3535534   0.3535534), wk =   0.1250000
        k(    4) = (   0.0000000   0.3535534   0.0000000), wk =   0.1875000
        k(    5) = (   0.5303301  -0.1767767   0.5303301), wk =   0.7500000
        k(    6) = (   0.3535534   0.0000000   0.3535534), wk =   0.3750000
        k(    7) = (   0.0000000  -0.7071068   0.0000000), wk =   0.0937500
        k(    8) = (  -0.3535534  -0.7071068   0.0000000), wk =   0.1875000

     Dense  grid:   347997 G-vectors     FFT dimensions: ( 100, 100, 100)

     Estimated max dynamical RAM per process >     132.48 MB

     Estimated total dynamical RAM >       1.55 GB

     Initial potential from superposition of free atoms

     starting charge     215.9619, renormalised to     216.0000
     Starting wfcs are  864 randomized atomic wfcs

     total cpu time spent up to now is       31.6 secs

     per-process dynamical memory:   197.2 Mb

     Self-consistent Calculation

     iteration #  1     ecut=    50.00 Ry     beta= 0.70
     Davidson diagonalization with overlap
     ethr =  1.00E-02,  avg # of iterations =  2.0

     Threshold (ethr) on eigenvalues was too large:
     Diagonalizing with lowered threshold

     Davidson diagonalization with overlap
     ethr =  6.72E-04,  avg # of iterations =  1.0

     total cpu time spent up to now is       48.5 secs

     total energy              =    -425.51075207 Ry
     estimated scf accuracy    <       1.51675738 Ry

     iteration #  2     ecut=    50.00 Ry     beta= 0.70
     Davidson diagonalization with overlap
     ethr =  7.02E-04,  avg # of iterations =  1.0

     total cpu time spent up to now is       56.3 secs

     total energy              =    -425.57546387 Ry
     estimated scf accuracy    <       0.07049604 Ry

     iteration #  3     ecut=    50.00 Ry     beta= 0.70
     Davidson diagonalization with overlap
     ethr =  3.26E-05,  avg # of iterations =  2.0

     total cpu time spent up to now is       66.2 secs

     total energy              =    -425.58513919 Ry
     estimated scf accuracy    <       0.00133802 Ry

     iteration #  4     ecut=    50.00 Ry     beta= 0.70
     Davidson diagonalization with overlap
     ethr =  6.19E-07,  avg # of iterations =  4.8

     total cpu time spent up to now is       79.5 secs

     total energy              =    -425.58582795 Ry
     estimated scf accuracy    <       0.00000567 Ry

     iteration #  5     ecut=    50.00 Ry     beta= 0.70
     Davidson diagonalization with overlap
     ethr =  2.63E-09,  avg # of iterations =  6.6

     total cpu time spent up to now is       97.8 secs

     total energy              =    -425.58585203 Ry
     estimated scf accuracy    <       0.00001005 Ry

     iteration #  6     ecut=    50.00 Ry     beta= 0.70
     Davidson diagonalization with overlap
     ethr =  2.63E-09,  avg # of iterations =  2.1

     total cpu time spent up to now is      108.1 secs

     total energy              =    -425.58585351 Ry
     estimated scf accuracy    <       0.00000050 Ry

     iteration #  7     ecut=    50.00 Ry     beta= 0.70
     Davidson diagonalization with overlap
     ethr =  2.33E-10,  avg # of iterations =  3.5

     total cpu time spent up to now is      120.0 secs

     total energy              =    -425.58585365 Ry
     estimated scf accuracy    <       0.00000014 Ry

     iteration #  8     ecut=    50.00 Ry     beta= 0.70
     Davidson diagonalization with overlap
     ethr =  6.52E-11,  avg # of iterations =  2.2

     total cpu time spent up to now is      128.7 secs

     total energy              =    -425.58585363 Ry
     estimated scf accuracy    <       0.00000011 Ry

     iteration #  9     ecut=    50.00 Ry     beta= 0.70
     Davidson diagonalization with overlap
     ethr =  5.28E-11,  avg # of iterations =  2.0

     total cpu time spent up to now is      137.4 secs

     total energy              =    -425.58585363 Ry
     estimated scf accuracy    <       0.00000003 Ry

     iteration # 10     ecut=    50.00 Ry     beta= 0.70
     Davidson diagonalization with overlap
     ethr =  1.50E-11,  avg # of iterations =  2.2

     total cpu time spent up to now is      147.3 secs

     End of self-consistent calculation

          k = 0.0000 0.0000 0.0000 ( 43655 PWs)   bands (ev):

    -5.7481  -4.3698  -4.3698  -4.3698  -4.3698  -4.3697  -4.3697  -4.3697
    -4.3697  -3.8417  -3.8417  -3.8417  -3.8417  -3.8417  -3.8417  -2.4811
    -2.4811  -2.4811  -2.4811  -2.4811  -2.4810  -2.4810  -2.4810  -2.4810
    -2.4810  -2.4810  -2.4810  -0.5532  -0.5532  -0.5532  -0.5532  -0.5532
    -0.5531  -0.5531  -0.5531  -0.5531  -0.5531  -0.5531  -0.5531   0.8858
     0.8858   0.8858   0.8858   0.8858   0.8858   0.8858   0.8858   1.2056
     1.2056   1.2056   1.2056   1.2056   1.2056   1.8130   1.8130   1.8131
     1.8131   1.8131   1.8131   1.8131   1.8131   1.8131   1.8131   1.8131
     1.8131   3.8058   3.8058   3.8058   3.8058   3.8058   3.8058   3.8058
     3.8058   3.8058   3.8058   3.8058   3.8058   4.1112   4.1112   4.1112
     4.1112   4.1112   4.1112   4.1112   4.1113   4.1113   4.1113   4.1113
     4.1113   5.2214   5.2214   5.2214   5.2214   5.2214   5.2215   5.2215
     5.2215   5.2215   5.2215   5.2215   5.2215   5.2215   5.2215   5.2215
     5.2215   6.2210   6.2210   6.2210

          k =-0.1768 0.1768-0.1768 ( 43579 PWs)   bands (ev):

    -5.6570  -4.9474  -4.4943  -4.4943  -4.4943  -4.2278  -4.2278  -4.2278
    -4.0802  -4.0802  -4.0802  -3.7488  -3.3065  -3.3065  -3.3065  -3.0796
    -3.0796  -3.0796  -2.4761  -2.4761  -2.4761  -2.4761  -2.4761  -2.4761
    -2.2079  -2.2079  -2.2079  -0.8395  -0.8395  -0.8395  -0.5903  -0.5903
    -0.5903  -0.5903  -0.5903  -0.5903  -0.2442  -0.0852  -0.0852  -0.0852
     0.4200   0.4200   0.4200   0.5036   0.5036   0.5036   1.3536   1.3536
     1.3536   1.7891   1.7891   1.7891   1.9880   1.9880   1.9880   1.9880
     1.9880   1.9880   2.0149   2.0149   2.0149   2.2082   2.2082   2.2082
     2.2927   3.3206   3.3206   3.3206   3.6630   3.6630   3.6630   3.8019
     3.8019   3.8019   3.8019   3.8019   3.8019   3.8227   3.8227   3.8227
     3.8685   3.8685   3.8685   4.0871   4.0871   4.0871   4.3725   4.3725
     4.3725   4.5027   4.5027   4.5027   4.9058   4.9058   4.9058   4.9410
     4.9410   4.9410   5.0729   5.0729   5.2286   5.2286   5.2286   5.3600
     5.4624   5.4624   6.0777   6.0777

          k = 0.3536-0.3536 0.3536 ( 43504 PWs)   bands (ev):

    -5.3865  -5.3864  -4.4472  -4.4472  -4.4472  -4.4472  -4.4471  -4.4471
    -3.6400  -3.6400  -3.6400  -3.6400  -3.6400  -3.6400  -3.4145  -2.6770
    -2.6770  -2.6770  -2.6770  -2.6770  -2.6770  -2.4711  -2.4711  -2.4710
    -2.4710  -2.4710  -2.4710  -0.7497  -0.6257  -0.6257  -0.6257  -0.6257
    -0.6257  -0.6257  -0.3485  -0.3485  -0.3485  -0.3484  -0.3484  -0.3484
     0.2128   0.2128   0.2128   0.2128   0.2128   0.2128   1.7819   1.7819
     1.7819   1.7819   1.7819   1.7819   2.2152   2.2152   2.2152   2.2152
     2.2153   2.2153   2.5933   2.5933   2.5933   2.5933   2.5933   2.5933
     3.1758   3.1758   3.1758   3.1758   3.1758   3.1758   3.4635   3.4635
     3.4635   3.4635   3.4635   3.4635   3.6690   3.6690   3.6690   3.6690
     3.6690   3.6691   3.8381   3.8381   4.2293   4.2293   4.2293   4.2293
     4.2294   4.2294   4.4773   4.4773   4.4773   4.4773   4.4773   4.4773
     4.9250   4.9250   4.9250   4.9250   4.9250   4.9250   5.0230   5.0230
     5.7716   5.7716   5.7716   5.7716

          k = 0.0000 0.3536 0.0000 ( 43635 PWs)   bands (ev):

    -5.6264  -4.6887  -4.6887  -4.6887  -4.6887  -4.6649  -3.8681  -3.8681
    -3.8681  -3.8681  -3.7430  -3.7430  -3.7430  -3.7430  -3.0141  -3.0141
    -3.0141  -3.0141  -2.8113  -2.7035  -2.7035  -2.7035  -2.7035  -1.9499
    -1.9499  -1.9499  -1.9499  -1.0381  -1.0381  -1.0381  -1.0381  -0.5790
    -0.5790  -0.5790  -0.5790  -0.2450   0.0001   0.0001   0.0001   0.0001
     0.1233   0.1233   0.1233   0.1233   1.0304   1.0304   1.0304   1.0304
     1.8179   1.8179   1.8179   1.8179   1.9755   1.9755   1.9755   1.9755
     2.0748   2.0748   2.0748   2.0748   2.3272   2.3272   2.3272   2.3272
     2.6981   3.3849   3.3849   3.3849   3.3849   3.4507   3.4507   3.4507
     3.4507   3.4804   3.4804   3.8124   3.8124   3.8124   3.8124   4.1470
     4.1470   4.1470   4.1470   4.1981   4.1981   4.1981   4.1981   4.3338
     4.3338   4.5327   4.5327   4.5327   4.5327   4.6448   4.6448   4.6448
     4.6448   4.8156   4.8156   4.8156   4.8156   5.5217   5.5385   5.5385
     5.5385   5.5385   5.7925   5.7925

          k = 0.5303-0.1768 0.5303 ( 43522 PWs)   bands (ev):

    -5.4152  -5.1781  -4.9358  -4.7093  -4.7093  -4.2650  -4.0211  -4.0211
    -3.8388  -3.6244  -3.6244  -3.5112  -3.5112  -3.3770  -3.1404  -3.1368
    -3.1368  -3.0274  -2.8979  -2.8979  -2.8317  -2.8317  -2.1973  -2.1045
    -2.1045  -1.9966  -1.9966  -0.9331  -0.9326  -0.9326  -0.9248  -0.9248
    -0.6466  -0.5461  -0.5136  -0.5136  -0.1966  -0.1966  -0.1647  -0.1411
    -0.1411   0.1952   0.1952   0.5478   0.5505   0.5505   1.2468   1.2468
     1.3593   2.1418   2.1418   2.2497   2.2497   2.3084   2.3084   2.4732
     2.4732   2.6901   2.7109   2.7109   2.7543   2.7543   2.7974   2.7974
     2.9215   2.9215   3.0495   3.0909   3.2319   3.2535   3.2535   3.2757
     3.3212   3.3572   3.3572   3.4466   3.5929   3.5929   3.5955   3.5955
     3.6594   3.6594   3.7900   4.0182   4.0575   4.0575   4.0793   4.0793
     4.2899   4.3080   4.3080   4.3931   4.4399   4.5686   4.5686   4.6303
     4.6671   4.6671   4.6822   4.6962   4.8374   4.8462   5.2404   5.2404
     5.2928   5.4291   5.6175   5.8677

          k = 0.3536 0.0000 0.3536 ( 43559 PWs)   bands (ev):

    -5.5058  -5.0308  -5.0308  -4.5542  -4.5542  -4.1334  -4.1334  -4.1334
    -4.1334  -3.7021  -3.6519  -3.6519  -3.4979  -3.4979  -3.0337  -3.0337
    -3.0337  -3.0336  -2.7339  -2.7339  -2.5471  -2.5471  -2.5470  -2.5470
    -2.2282  -2.2282  -1.7415  -1.3372  -0.7026  -0.7026  -0.5195  -0.5194
    -0.5194  -0.5194  -0.4688  -0.4688  -0.3264  -0.3264  -0.3264  -0.3264
    -0.2816  -0.2816   0.7374   0.7610   0.7610   0.9487   0.9487   0.9487
     0.9488   2.0170   2.0170   2.2765   2.2765   2.2766   2.2766   2.2963
     2.2963   2.3798   2.4727   2.6362   2.6362   2.6362   2.6362   2.7894
     2.7894   3.1009   3.1009   3.1465   3.1465   3.2367   3.2367   3.2974
     3.2974   3.5638   3.6034   3.6034   3.6034   3.6034   3.7872   3.7872
     3.7873   3.7873   3.8948   3.8948   3.9797   3.9797   4.2519   4.2519
     4.2519   4.2519   4.3448   4.3448   4.5962   4.5962   4.6277   4.8947
     4.9134   4.9134   4.9134   4.9134   4.9891   4.9891   5.1160   5.1160
     5.2941   5.2941   5.3600   6.1029

          k = 0.0000-0.7071 0.0000 ( 43442 PWs)   bands (ev):

    -5.2634  -5.2634  -4.7975  -4.7975  -4.7975  -4.7975  -3.4563  -3.4563
    -3.4563  -3.4563  -3.4563  -3.4563  -3.4563  -3.4563  -3.2549  -3.2549
    -3.2549  -3.2549  -3.2549  -3.2549  -3.2549  -3.2548  -1.6000  -1.6000
    -1.4804  -1.4804  -1.4804  -1.4804  -1.4804  -1.4804  -1.4804  -1.4804
    -0.3863  -0.3863  -0.3863  -0.3863  -0.3863  -0.3863  -0.3862  -0.3862
     0.5731   0.5731   0.5732   0.5732   0.5732   0.5732   0.5732   0.5732
     2.5002   2.5002   2.5002   2.5002   2.5807   2.5807   2.5807   2.5807
     2.5807   2.5807   2.5807   2.5807   2.6557   2.6557   2.6557   2.6557
     2.6557   2.6557   2.6557   2.6557   3.3707   3.3707   3.4455   3.4455
     3.4455   3.4456   3.4456   3.4456   3.4456   3.4456   3.8125   3.8125
     3.8125   3.8125   3.9295   3.9295   3.9295   3.9295   3.9296   3.9296
     3.9296   3.9296   4.1756   4.1756   4.4465   4.4465   4.4465   4.4465
     4.4466   4.4466   4.4466   4.4466   5.0306   5.0306   5.0306   5.0306
     5.6565   5.6565   5.6565   5.6565

          k =-0.3536-0.7071 0.0000 ( 43524 PWs)   bands (ev):

    -5.1462  -5.1462  -5.1461  -5.1461  -4.2276  -4.2276  -4.2276  -4.2275
    -3.3951  -3.3951  -3.3951  -3.3951  -3.3950  -3.3950  -3.3950  -3.3950
    -3.1726  -3.1726  -3.1726  -3.1726  -2.5200  -2.5200  -2.5199  -2.5199
    -1.5620  -1.5620  -1.5620  -1.5620  -1.4365  -1.4365  -0.6394  -0.6394
    -0.6394  -0.6394  -0.4260  -0.4259  -0.4259  -0.4259   0.1927   0.1927
     0.1927   0.1927   0.1927   0.1928   0.1928   0.1928   1.5294   1.5294
     1.5294   1.5294   2.3732   2.3732   2.4569   2.4569   2.4569   2.4570
     3.0001   3.0001   3.0002   3.0002   3.0002   3.0002   3.0002   3.0002
     3.0654   3.0654   3.0654   3.0654   3.0757   3.0757   3.0757   3.0758
     3.1265   3.1265   3.1265   3.1265   3.4897   3.4897   3.4897   3.4897
     3.6237   3.6237   3.6237   3.6237   4.0975   4.0975   4.0975   4.0975
     4.0975   4.0975   4.0975   4.0975   4.5755   4.5755   4.5755   4.5755
     4.5904   4.5904   4.5904   4.5904   4.9500   4.9500   4.9500   4.9500
     5.5151   5.5151   5.5151   5.5151

     highest occupied level (ev):     6.2210

!    total energy              =    -425.58585363 Ry
     estimated scf accuracy    <          1.9E-09 Ry

     The total energy is the sum of the following terms:
     one-electron contribution =     128.41549605 Ry
     hartree contribution      =      29.55510948 Ry
     xc contribution           =    -130.06849365 Ry
     ewald contribution        =    -453.48796551 Ry

     convergence has been achieved in  10 iterations

     Forces acting on atoms (cartesian axes, Ry/au):

     atom    1 type  1   force =     0.00000000    0.00000000    0.00000000
     atom    2 type  1   force =    -0.00000071    0.00000071    0.00000071
     atom    3 type  1   force =     0.00000164   -0.00000164    0.00000040
     atom    4 type  1   force =     0.00000000    0.00000000    0.00000054
     atom    5 type  1   force =    -0.00000164    0.00000164    0.00000040
     atom    6 type  1   force =     0.00000071   -0.00000071    0.00000071
     atom    7 type  1   force =    -0.00000040   -0.00000164   -0.00000164
     atom    8 type  1   force =    -0.00000054    0.00000000   -0.00000000
     atom    9 type  1   force =    -0.00000064   -0.00000064    0.00000064
     atom   10 type  1   force =     0.00000000   -0.00000054    0.00000000
     atom   11 type  1   force =    -0.00000164   -0.00000040   -0.00000164
     atom   12 type  1   force =     0.00000289    0.00000289    0.00000120
     atom   13 type  1   force =    -0.00000040    0.00000164    0.00000164
     atom   14 type  1   force =    -0.00000071   -0.00000071   -0.00000071
     atom   15 type  1   force =     0.00000164   -0.00000040    0.00000164
     atom   16 type  1   force =    -0.00000120    0.00000289   -0.00000289
     atom   17 type  1   force =    -0.00000058   -0.00000058    0.00000058
     atom   18 type  1   force =     0.00000289   -0.00000120   -0.00000289
     atom   19 type  1   force =     0.00000164    0.00000040   -0.00000164
     atom   20 type  1   force =     0.00000000    0.00000054    0.00000000
     atom   21 type  1   force =     0.00000064    0.00000064    0.00000064
     atom   22 type  1   force =     0.00000054    0.00000000   -0.00000000
     atom   23 type  1   force =     0.00000040    0.00000164   -0.00000164
     atom   24 type  1   force =    -0.00000289   -0.00000289    0.00000120
     atom   25 type  1   force =    -0.00000064    0.00000064   -0.00000064
     atom   26 type  1   force =     0.00000000    0.00000000   -0.00000054
     atom   27 type  1   force =     0.00000064   -0.00000064   -0.00000064
     atom   28 type  1   force =     0.00000028   -0.00000028   -0.00000028
     atom   29 type  1   force =     0.00000000    0.00000000   -0.00000027
     atom   30 type  1   force =    -0.00000028    0.00000028   -0.00000028
     atom   31 type  1   force =     0.00000164    0.00000164   -0.00000040
     atom   32 type  1   force =    -0.00000120   -0.00000289    0.00000289
     atom   33 type  1   force =     0.00000027    0.00000000    0.00000000
     atom   34 type  1   force =     0.00000028    0.00000028    0.00000028
     atom   35 type  1   force =    -0.00000000    0.00000027   -0.00000000
     atom   36 type  1   force =    -0.00000289   -0.00000120    0.00000289
     atom   37 type  1   force =    -0.00000164    0.00000040    0.00000164
     atom   38 type  1   force =     0.00000071    0.00000071   -0.00000071
     atom   39 type  1   force =     0.00000040   -0.00000164    0.00000164
     atom   40 type  1   force =    -0.00000289    0.00000120   -0.00000289
     atom   41 type  1   force =     0.00000058    0.00000058    0.00000058
     atom   42 type  1   force =     0.00000120   -0.00000289   -0.00000289
     atom   43 type  1   force =    -0.00000164   -0.00000164   -0.00000040
     atom   44 type  1   force =     0.00000289    0.00000120    0.00000289
     atom   45 type  1   force =     0.00000000   -0.00000027    0.00000000
     atom   46 type  1   force =    -0.00000028   -0.00000028    0.00000028
     atom   47 type  1   force =    -0.00000027   -0.00000000    0.00000000
     atom   48 type  1   force =     0.00000120    0.00000289    0.00000289
     atom   49 type  1   force =    -0.00000058    0.00000058   -0.00000058
     atom   50 type  1   force =     0.00000289   -0.00000289   -0.00000120
     atom   51 type  1   force =     0.00000000    0.00000000    0.00000027
     atom   52 type  1   force =    -0.00000289    0.00000289   -0.00000120
     atom   53 type  1   force =     0.00000058   -0.00000058   -0.00000058
     atom   54 type  1   force =     0.00000000    0.00000000   -0.00000000

     Total force =     0.000017     Total SCF correction =     0.000069
     SCF correction compared to forces is large: reduce conv_thr to get better values

     Writing all to output data dir ./tmp/si_sup.save/ :
     XML data file, charge density, pseudopotentials, collected wavefunctions
 
     init_run     :     30.18s CPU     31.57s WALL (       1 calls)
     electrons    :    111.12s CPU    115.69s WALL (       1 calls)
     forces       :      2.15s CPU      2.18s WALL (       1 calls)

     Called by init_run:
     wfcinit      :     29.93s CPU     31.29s WALL (       1 calls)
     potinit      :      0.06s CPU      0.07s WALL (       1 calls)
     hinit0       :      0.02s CPU      0.03s WALL (       1 calls)

     Called by electrons:
     c_bands      :     98.24s CPU    102.07s WALL (      11 calls)
     sum_band     :     12.22s CPU     12.90s WALL (      11 calls)
     v_of_rho     :      0.57s CPU      0.62s WALL (      11 calls)
     mix_rho      :      0.10s CPU      0.11s WALL (      11 calls)

     Called by c_bands:
     init_us_2    :      3.35s CPU      3.37s WALL (     192 calls)
     cegterg      :     90.66s CPU     94.46s WALL (      88 calls)

     Called by *egterg:
     cdiaghg      :      7.00s CPU      7.02s WALL (     316 calls)
     h_psi        :     86.70s CPU     90.20s WALL (     332 calls)
     g_psi        :      0.26s CPU      0.26s WALL (     236 calls)

     Called by h_psi:
     h_psi:calbec :     14.71s CPU     14.76s WALL (     332 calls)
     vloc_psi     :     57.00s CPU     59.55s WALL (     332 calls)
     add_vuspsi   :     14.53s CPU     14.59s WALL (     332 calls)

     General routines
     calbec       :     16.32s CPU     16.37s WALL (     364 calls)
     fft          :      0.21s CPU      0.24s WALL (     112 calls)
     ffts         :      0.02s CPU      0.02s WALL (      11 calls)
     fftw         :     51.13s CPU     53.87s WALL (   75020 calls)
 
     Parallel routines
 
     PWSCF        :   2m23.92s CPU   2m30.45s WALL

 
   This run was terminated on:  18:50:53  10Jun2026            

=------------------------------------------------------------------------------=
   JOB DONE.
=------------------------------------------------------------------------------=
