
     Program PWSCF v.7.4 starts on 16Jun2026 at 13:43:38 

     This program is part of the open-source Quantum ESPRESSO suite
     for quantum simulation of materials; please cite
         "P. Giannozzi et al., J. Phys.:Condens. Matter 21 395502 (2009);
         "P. Giannozzi et al., J. Phys.:Condens. Matter 29 465901 (2017);
         "P. Giannozzi et al., J. Chem. Phys. 152 154105 (2020);
          URL http://www.quantum-espresso.org", 
     in publications or presentations arising from this work. More details at
     http://www.quantum-espresso.org/quote

     Parallel version (MPI), running on    12 processors

     MPI processes distributed on     1 nodes
     131390 MiB available memory on the printing compute node when the environment starts
 
     Reading input from ./scratch_runs/atom02_y_minus/atom02_y_minus.in

     Current dimensions of program PWSCF are:
     Max number of different atomic species (ntypx) = 10
     Max number of k-points (npk) =  40000
     Max angular momentum in pseudopotentials (lmaxx) =  4
     file Si_NC_PBE.upf: wavefunction(s)  4f renormalized
     Message from routine setup:
     using ibrav=0 with symmetry is DISCOURAGED, use correct ibrav instead
 
     R & G space division:  proc/nbgrp/npool/nimage =      12
     Subspace diagonalization in iterative solution of the eigenvalue problem:
     one sub-group per band group will be used
     custom distributed-memory algorithm (size of sub-group:  3*  3 procs)

 
     Parallelization info
     --------------------
     sticks:   dense  smooth     PW     G-vecs:    dense   smooth      PW
     Min        2176    2176    560               232234   232234   30333
     Max        2178    2178    561               232235   232235   30335
     Sum       26131   26131   6727              2786819  2786819  364011
 
     Using Slab Decomposition
 


     bravais-lattice index     =            0
     lattice parameter (alat)  =      43.5427  a.u.
     unit-cell volume          =   58375.3865 (a.u.)^3
     number of atoms/cell      =          432
     number of atomic types    =            1
     number of electrons       =      1728.00
     number of Kohn-Sham states=          864
     kinetic-energy cutoff     =      50.0000  Ry
     charge density cutoff     =     200.0000  Ry
     scf convergence threshold =      1.0E-08
     mixing beta               =       0.7000
     number of iterations used =            8  plain     mixing
     Exchange-correlation= PBE
                           (   1   4   3   4   0   0   0)

     celldm(1)=  43.542657  celldm(2)=   0.000000  celldm(3)=   0.000000
     celldm(4)=   0.000000  celldm(5)=   0.000000  celldm(6)=   0.000000

     crystal axes: (cart. coord. in units of alat)
               a(1) = (  -0.707107   0.000000   0.707107 )  
               a(2) = (   0.000000   0.707107   0.707107 )  
               a(3) = (  -0.707107   0.707107   0.000000 )  

     reciprocal axes: (cart. coord. in units 2 pi/alat)
               b(1) = ( -0.707107 -0.707107  0.707107 )  
               b(2) = (  0.707107  0.707107  0.707107 )  
               b(3) = ( -0.707107  0.707107 -0.707107 )  


     PseudoPot. # 1 for Si read from file:
     ../../../pseudopotentzialak/Si_NC_PBE.upf
     MD5 check sum: 2f548285ada518390005852429903be6
     Pseudo is Norm-conserving, Zval =  4.0
     Generated using FHI98PP, converted with fhi2upf.x v.5.0.2
     Using radial grid of  495 points,  3 beta functions with: 
                l(1) =   0
                l(2) =   1
                l(3) =   3

     atomic species   valence    mass     pseudopotential
     Si                4.00    28.08600     Si( 1.00)

      2 Sym. Ops. (no inversion) found



   Cartesian axes

     site n.     atom                  positions (alat units)
         1        Si     tau(   1) = (   0.0000000   0.0000000   0.0000000  )
         2        Si     tau(   2) = (  -0.0589260   0.0584920   0.0589260  )
         3        Si     tau(   3) = (  -0.1178513   0.1178513   0.0000000  )
         4        Si     tau(   4) = (  -0.1767767   0.1767767   0.0589260  )
         5        Si     tau(   5) = (  -0.2357020   0.2357020   0.0000000  )
         6        Si     tau(   6) = (  -0.2946280   0.2946280   0.0589260  )
         7        Si     tau(   7) = (  -0.3535534   0.3535534   0.0000000  )
         8        Si     tau(   8) = (  -0.4124794   0.4124794   0.0589260  )
         9        Si     tau(   9) = (  -0.4714047   0.4714047   0.0000000  )
        10        Si     tau(  10) = (  -0.5303301   0.5303301   0.0589260  )
        11        Si     tau(  11) = (  -0.5892554   0.5892554   0.0000000  )
        12        Si     tau(  12) = (  -0.6481814   0.6481814   0.0589260  )
        13        Si     tau(  13) = (   0.0000000   0.1178513   0.1178513  )
        14        Si     tau(  14) = (  -0.0589260   0.1767767   0.1767767  )
        15        Si     tau(  15) = (  -0.1178513   0.2357027   0.1178513  )
        16        Si     tau(  16) = (  -0.1767767   0.2946273   0.1767767  )
        17        Si     tau(  17) = (  -0.2357020   0.3535534   0.1178513  )
        18        Si     tau(  18) = (  -0.2946280   0.4124787   0.1767767  )
        19        Si     tau(  19) = (  -0.3535534   0.4714047   0.1178513  )
        20        Si     tau(  20) = (  -0.4124794   0.5303301   0.1767767  )
        21        Si     tau(  21) = (  -0.4714047   0.5892561   0.1178513  )
        22        Si     tau(  22) = (  -0.5303301   0.6481807   0.1767767  )
        23        Si     tau(  23) = (  -0.5892554   0.7071068   0.1178513  )
        24        Si     tau(  24) = (  -0.6481814   0.7660321   0.1767767  )
        25        Si     tau(  25) = (   0.0000000   0.2357020   0.2357020  )
        26        Si     tau(  26) = (  -0.0589260   0.2946280   0.2946280  )
        27        Si     tau(  27) = (  -0.1178513   0.3535534   0.2357020  )
        28        Si     tau(  28) = (  -0.1767767   0.4124787   0.2946280  )
        29        Si     tau(  29) = (  -0.2357020   0.4714040   0.2357020  )
        30        Si     tau(  30) = (  -0.2946280   0.5303301   0.2946280  )
        31        Si     tau(  31) = (  -0.3535534   0.5892554   0.2357020  )
        32        Si     tau(  32) = (  -0.4124794   0.6481814   0.2946280  )
        33        Si     tau(  33) = (  -0.4714047   0.7071068   0.2357020  )
        34        Si     tau(  34) = (  -0.5303301   0.7660321   0.2946280  )
        35        Si     tau(  35) = (  -0.5892554   0.8249574   0.2357020  )
        36        Si     tau(  36) = (  -0.6481814   0.8838835   0.2946280  )
        37        Si     tau(  37) = (   0.0000000   0.3535534   0.3535534  )
        38        Si     tau(  38) = (  -0.0589260   0.4124794   0.4124794  )
        39        Si     tau(  39) = (  -0.1178513   0.4714047   0.3535534  )
        40        Si     tau(  40) = (  -0.1767767   0.5303301   0.4124794  )
        41        Si     tau(  41) = (  -0.2357020   0.5892554   0.3535534  )
        42        Si     tau(  42) = (  -0.2946280   0.6481814   0.4124794  )
        43        Si     tau(  43) = (  -0.3535534   0.7071068   0.3535534  )
        44        Si     tau(  44) = (  -0.4124794   0.7660328   0.4124794  )
        45        Si     tau(  45) = (  -0.4714047   0.8249581   0.3535534  )
        46        Si     tau(  46) = (  -0.5303301   0.8838835   0.4124794  )
        47        Si     tau(  47) = (  -0.5892554   0.9428088   0.3535534  )
        48        Si     tau(  48) = (  -0.6481814   1.0017348   0.4124794  )
        49        Si     tau(  49) = (   0.0000000   0.4714047   0.4714047  )
        50        Si     tau(  50) = (  -0.0589260   0.5303301   0.5303301  )
        51        Si     tau(  51) = (  -0.1178513   0.5892561   0.4714047  )
        52        Si     tau(  52) = (  -0.1767767   0.6481807   0.5303301  )
        53        Si     tau(  53) = (  -0.2357020   0.7071068   0.4714047  )
        54        Si     tau(  54) = (  -0.2946280   0.7660321   0.5303301  )
        55        Si     tau(  55) = (  -0.3535534   0.8249581   0.4714047  )
        56        Si     tau(  56) = (  -0.4124794   0.8838835   0.5303301  )
        57        Si     tau(  57) = (  -0.4714047   0.9428095   0.4714047  )
        58        Si     tau(  58) = (  -0.5303301   1.0017341   0.5303301  )
        59        Si     tau(  59) = (  -0.5892554   1.0606602   0.4714047  )
        60        Si     tau(  60) = (  -0.6481814   1.1195855   0.5303301  )
        61        Si     tau(  61) = (   0.0000000   0.5892554   0.5892554  )
        62        Si     tau(  62) = (  -0.0589260   0.6481814   0.6481814  )
        63        Si     tau(  63) = (  -0.1178513   0.7071068   0.5892554  )
        64        Si     tau(  64) = (  -0.1767767   0.7660321   0.6481814  )
        65        Si     tau(  65) = (  -0.2357020   0.8249574   0.5892554  )
        66        Si     tau(  66) = (  -0.2946280   0.8838835   0.6481814  )
        67        Si     tau(  67) = (  -0.3535534   0.9428088   0.5892554  )
        68        Si     tau(  68) = (  -0.4124794   1.0017348   0.6481814  )
        69        Si     tau(  69) = (  -0.4714047   1.0606602   0.5892554  )
        70        Si     tau(  70) = (  -0.5303301   1.1195855   0.6481814  )
        71        Si     tau(  71) = (  -0.5892554   1.1785108   0.5892554  )
        72        Si     tau(  72) = (  -0.6481814   1.2374369   0.6481814  )
        73        Si     tau(  73) = (  -0.1178513   0.0000000   0.1178513  )
        74        Si     tau(  74) = (  -0.1767767   0.0589260   0.1767767  )
        75        Si     tau(  75) = (  -0.2357027   0.1178513   0.1178513  )
        76        Si     tau(  76) = (  -0.2946273   0.1767767   0.1767767  )
        77        Si     tau(  77) = (  -0.3535534   0.2357020   0.1178513  )
        78        Si     tau(  78) = (  -0.4124787   0.2946280   0.1767767  )
        79        Si     tau(  79) = (  -0.4714047   0.3535534   0.1178513  )
        80        Si     tau(  80) = (  -0.5303301   0.4124794   0.1767767  )
        81        Si     tau(  81) = (  -0.5892561   0.4714047   0.1178513  )
        82        Si     tau(  82) = (  -0.6481807   0.5303301   0.1767767  )
        83        Si     tau(  83) = (  -0.7071068   0.5892554   0.1178513  )
        84        Si     tau(  84) = (  -0.7660321   0.6481814   0.1767767  )
        85        Si     tau(  85) = (  -0.1178513   0.1178513   0.2357027  )
        86        Si     tau(  86) = (  -0.1767767   0.1767767   0.2946273  )
        87        Si     tau(  87) = (  -0.2357027   0.2357027   0.2357027  )
        88        Si     tau(  88) = (  -0.2946273   0.2946273   0.2946273  )
        89        Si     tau(  89) = (  -0.3535534   0.3535534   0.2357027  )
        90        Si     tau(  90) = (  -0.4124787   0.4124787   0.2946273  )
        91        Si     tau(  91) = (  -0.4714047   0.4714047   0.2357027  )
        92        Si     tau(  92) = (  -0.5303301   0.5303301   0.2946273  )
        93        Si     tau(  93) = (  -0.5892561   0.5892561   0.2357027  )
        94        Si     tau(  94) = (  -0.6481807   0.6481807   0.2946273  )
        95        Si     tau(  95) = (  -0.7071068   0.7071068   0.2357027  )
        96        Si     tau(  96) = (  -0.7660321   0.7660321   0.2946273  )
        97        Si     tau(  97) = (  -0.1178513   0.2357020   0.3535534  )
        98        Si     tau(  98) = (  -0.1767767   0.2946280   0.4124787  )
        99        Si     tau(  99) = (  -0.2357027   0.3535534   0.3535534  )
       100        Si     tau( 100) = (  -0.2946273   0.4124787   0.4124787  )
       101        Si     tau( 101) = (  -0.3535534   0.4714040   0.3535534  )
       102        Si     tau( 102) = (  -0.4124787   0.5303301   0.4124787  )
       103        Si     tau( 103) = (  -0.4714047   0.5892554   0.3535534  )
       104        Si     tau( 104) = (  -0.5303301   0.6481814   0.4124787  )
       105        Si     tau( 105) = (  -0.5892561   0.7071068   0.3535534  )
       106        Si     tau( 106) = (  -0.6481807   0.7660321   0.4124787  )
       107        Si     tau( 107) = (  -0.7071068   0.8249574   0.3535534  )
       108        Si     tau( 108) = (  -0.7660321   0.8838835   0.4124787  )
       109        Si     tau( 109) = (  -0.1178513   0.3535534   0.4714047  )
       110        Si     tau( 110) = (  -0.1767767   0.4124794   0.5303301  )
       111        Si     tau( 111) = (  -0.2357027   0.4714047   0.4714047  )
       112        Si     tau( 112) = (  -0.2946273   0.5303301   0.5303301  )
       113        Si     tau( 113) = (  -0.3535534   0.5892554   0.4714047  )
       114        Si     tau( 114) = (  -0.4124787   0.6481814   0.5303301  )
       115        Si     tau( 115) = (  -0.4714047   0.7071068   0.4714047  )
       116        Si     tau( 116) = (  -0.5303301   0.7660328   0.5303301  )
       117        Si     tau( 117) = (  -0.5892561   0.8249581   0.4714047  )
       118        Si     tau( 118) = (  -0.6481807   0.8838835   0.5303301  )
       119        Si     tau( 119) = (  -0.7071068   0.9428088   0.4714047  )
       120        Si     tau( 120) = (  -0.7660321   1.0017348   0.5303301  )
       121        Si     tau( 121) = (  -0.1178513   0.4714047   0.5892561  )
       122        Si     tau( 122) = (  -0.1767767   0.5303301   0.6481807  )
       123        Si     tau( 123) = (  -0.2357027   0.5892561   0.5892561  )
       124        Si     tau( 124) = (  -0.2946273   0.6481807   0.6481807  )
       125        Si     tau( 125) = (  -0.3535534   0.7071068   0.5892561  )
       126        Si     tau( 126) = (  -0.4124787   0.7660321   0.6481807  )
       127        Si     tau( 127) = (  -0.4714047   0.8249581   0.5892561  )
       128        Si     tau( 128) = (  -0.5303301   0.8838835   0.6481807  )
       129        Si     tau( 129) = (  -0.5892561   0.9428095   0.5892561  )
       130        Si     tau( 130) = (  -0.6481807   1.0017341   0.6481807  )
       131        Si     tau( 131) = (  -0.7071068   1.0606602   0.5892561  )
       132        Si     tau( 132) = (  -0.7660321   1.1195855   0.6481807  )
       133        Si     tau( 133) = (  -0.1178513   0.5892554   0.7071068  )
       134        Si     tau( 134) = (  -0.1767767   0.6481814   0.7660321  )
       135        Si     tau( 135) = (  -0.2357027   0.7071068   0.7071068  )
       136        Si     tau( 136) = (  -0.2946273   0.7660321   0.7660321  )
       137        Si     tau( 137) = (  -0.3535534   0.8249574   0.7071068  )
       138        Si     tau( 138) = (  -0.4124787   0.8838835   0.7660321  )
       139        Si     tau( 139) = (  -0.4714047   0.9428088   0.7071068  )
       140        Si     tau( 140) = (  -0.5303301   1.0017348   0.7660321  )
       141        Si     tau( 141) = (  -0.5892561   1.0606602   0.7071068  )
       142        Si     tau( 142) = (  -0.6481807   1.1195855   0.7660321  )
       143        Si     tau( 143) = (  -0.7071068   1.1785108   0.7071068  )
       144        Si     tau( 144) = (  -0.7660321   1.2374369   0.7660321  )
       145        Si     tau( 145) = (  -0.2357020   0.0000000   0.2357020  )
       146        Si     tau( 146) = (  -0.2946280   0.0589260   0.2946280  )
       147        Si     tau( 147) = (  -0.3535534   0.1178513   0.2357020  )
       148        Si     tau( 148) = (  -0.4124787   0.1767767   0.2946280  )
       149        Si     tau( 149) = (  -0.4714040   0.2357020   0.2357020  )
       150        Si     tau( 150) = (  -0.5303301   0.2946280   0.2946280  )
       151        Si     tau( 151) = (  -0.5892554   0.3535534   0.2357020  )
       152        Si     tau( 152) = (  -0.6481814   0.4124794   0.2946280  )
       153        Si     tau( 153) = (  -0.7071068   0.4714047   0.2357020  )
       154        Si     tau( 154) = (  -0.7660321   0.5303301   0.2946280  )
       155        Si     tau( 155) = (  -0.8249574   0.5892554   0.2357020  )
       156        Si     tau( 156) = (  -0.8838835   0.6481814   0.2946280  )
       157        Si     tau( 157) = (  -0.2357020   0.1178513   0.3535534  )
       158        Si     tau( 158) = (  -0.2946280   0.1767767   0.4124787  )
       159        Si     tau( 159) = (  -0.3535534   0.2357027   0.3535534  )
       160        Si     tau( 160) = (  -0.4124787   0.2946273   0.4124787  )
       161        Si     tau( 161) = (  -0.4714040   0.3535534   0.3535534  )
       162        Si     tau( 162) = (  -0.5303301   0.4124787   0.4124787  )
       163        Si     tau( 163) = (  -0.5892554   0.4714047   0.3535534  )
       164        Si     tau( 164) = (  -0.6481814   0.5303301   0.4124787  )
       165        Si     tau( 165) = (  -0.7071068   0.5892561   0.3535534  )
       166        Si     tau( 166) = (  -0.7660321   0.6481807   0.4124787  )
       167        Si     tau( 167) = (  -0.8249574   0.7071068   0.3535534  )
       168        Si     tau( 168) = (  -0.8838835   0.7660321   0.4124787  )
       169        Si     tau( 169) = (  -0.2357020   0.2357020   0.4714040  )
       170        Si     tau( 170) = (  -0.2946280   0.2946280   0.5303301  )
       171        Si     tau( 171) = (  -0.3535534   0.3535534   0.4714040  )
       172        Si     tau( 172) = (  -0.4124787   0.4124787   0.5303301  )
       173        Si     tau( 173) = (  -0.4714040   0.4714040   0.4714040  )
       174        Si     tau( 174) = (  -0.5303301   0.5303301   0.5303301  )
       175        Si     tau( 175) = (  -0.5892554   0.5892554   0.4714040  )
       176        Si     tau( 176) = (  -0.6481814   0.6481814   0.5303301  )
       177        Si     tau( 177) = (  -0.7071068   0.7071068   0.4714040  )
       178        Si     tau( 178) = (  -0.7660321   0.7660321   0.5303301  )
       179        Si     tau( 179) = (  -0.8249574   0.8249574   0.4714040  )
       180        Si     tau( 180) = (  -0.8838835   0.8838835   0.5303301  )
       181        Si     tau( 181) = (  -0.2357020   0.3535534   0.5892554  )
       182        Si     tau( 182) = (  -0.2946280   0.4124794   0.6481814  )
       183        Si     tau( 183) = (  -0.3535534   0.4714047   0.5892554  )
       184        Si     tau( 184) = (  -0.4124787   0.5303301   0.6481814  )
       185        Si     tau( 185) = (  -0.4714040   0.5892554   0.5892554  )
       186        Si     tau( 186) = (  -0.5303301   0.6481814   0.6481814  )
       187        Si     tau( 187) = (  -0.5892554   0.7071068   0.5892554  )
       188        Si     tau( 188) = (  -0.6481814   0.7660328   0.6481814  )
       189        Si     tau( 189) = (  -0.7071068   0.8249581   0.5892554  )
       190        Si     tau( 190) = (  -0.7660321   0.8838835   0.6481814  )
       191        Si     tau( 191) = (  -0.8249574   0.9428088   0.5892554  )
       192        Si     tau( 192) = (  -0.8838835   1.0017348   0.6481814  )
       193        Si     tau( 193) = (  -0.2357020   0.4714047   0.7071068  )
       194        Si     tau( 194) = (  -0.2946280   0.5303301   0.7660321  )
       195        Si     tau( 195) = (  -0.3535534   0.5892561   0.7071068  )
       196        Si     tau( 196) = (  -0.4124787   0.6481807   0.7660321  )
       197        Si     tau( 197) = (  -0.4714040   0.7071068   0.7071068  )
       198        Si     tau( 198) = (  -0.5303301   0.7660321   0.7660321  )
       199        Si     tau( 199) = (  -0.5892554   0.8249581   0.7071068  )
       200        Si     tau( 200) = (  -0.6481814   0.8838835   0.7660321  )
       201        Si     tau( 201) = (  -0.7071068   0.9428095   0.7071068  )
       202        Si     tau( 202) = (  -0.7660321   1.0017341   0.7660321  )
       203        Si     tau( 203) = (  -0.8249574   1.0606602   0.7071068  )
       204        Si     tau( 204) = (  -0.8838835   1.1195855   0.7660321  )
       205        Si     tau( 205) = (  -0.2357020   0.5892554   0.8249574  )
       206        Si     tau( 206) = (  -0.2946280   0.6481814   0.8838835  )
       207        Si     tau( 207) = (  -0.3535534   0.7071068   0.8249574  )
       208        Si     tau( 208) = (  -0.4124787   0.7660321   0.8838835  )
       209        Si     tau( 209) = (  -0.4714040   0.8249574   0.8249574  )
       210        Si     tau( 210) = (  -0.5303301   0.8838835   0.8838835  )
       211        Si     tau( 211) = (  -0.5892554   0.9428088   0.8249574  )
       212        Si     tau( 212) = (  -0.6481814   1.0017348   0.8838835  )
       213        Si     tau( 213) = (  -0.7071068   1.0606602   0.8249574  )
       214        Si     tau( 214) = (  -0.7660321   1.1195855   0.8838835  )
       215        Si     tau( 215) = (  -0.8249574   1.1785108   0.8249574  )
       216        Si     tau( 216) = (  -0.8838835   1.2374369   0.8838835  )
       217        Si     tau( 217) = (  -0.3535534   0.0000000   0.3535534  )
       218        Si     tau( 218) = (  -0.4124794   0.0589260   0.4124794  )
       219        Si     tau( 219) = (  -0.4714047   0.1178513   0.3535534  )
       220        Si     tau( 220) = (  -0.5303301   0.1767767   0.4124794  )
       221        Si     tau( 221) = (  -0.5892554   0.2357020   0.3535534  )
       222        Si     tau( 222) = (  -0.6481814   0.2946280   0.4124794  )
       223        Si     tau( 223) = (  -0.7071068   0.3535534   0.3535534  )
       224        Si     tau( 224) = (  -0.7660328   0.4124794   0.4124794  )
       225        Si     tau( 225) = (  -0.8249581   0.4714047   0.3535534  )
       226        Si     tau( 226) = (  -0.8838835   0.5303301   0.4124794  )
       227        Si     tau( 227) = (  -0.9428088   0.5892554   0.3535534  )
       228        Si     tau( 228) = (  -1.0017348   0.6481814   0.4124794  )
       229        Si     tau( 229) = (  -0.3535534   0.1178513   0.4714047  )
       230        Si     tau( 230) = (  -0.4124794   0.1767767   0.5303301  )
       231        Si     tau( 231) = (  -0.4714047   0.2357027   0.4714047  )
       232        Si     tau( 232) = (  -0.5303301   0.2946273   0.5303301  )
       233        Si     tau( 233) = (  -0.5892554   0.3535534   0.4714047  )
       234        Si     tau( 234) = (  -0.6481814   0.4124787   0.5303301  )
       235        Si     tau( 235) = (  -0.7071068   0.4714047   0.4714047  )
       236        Si     tau( 236) = (  -0.7660328   0.5303301   0.5303301  )
       237        Si     tau( 237) = (  -0.8249581   0.5892561   0.4714047  )
       238        Si     tau( 238) = (  -0.8838835   0.6481807   0.5303301  )
       239        Si     tau( 239) = (  -0.9428088   0.7071068   0.4714047  )
       240        Si     tau( 240) = (  -1.0017348   0.7660321   0.5303301  )
       241        Si     tau( 241) = (  -0.3535534   0.2357020   0.5892554  )
       242        Si     tau( 242) = (  -0.4124794   0.2946280   0.6481814  )
       243        Si     tau( 243) = (  -0.4714047   0.3535534   0.5892554  )
       244        Si     tau( 244) = (  -0.5303301   0.4124787   0.6481814  )
       245        Si     tau( 245) = (  -0.5892554   0.4714040   0.5892554  )
       246        Si     tau( 246) = (  -0.6481814   0.5303301   0.6481814  )
       247        Si     tau( 247) = (  -0.7071068   0.5892554   0.5892554  )
       248        Si     tau( 248) = (  -0.7660328   0.6481814   0.6481814  )
       249        Si     tau( 249) = (  -0.8249581   0.7071068   0.5892554  )
       250        Si     tau( 250) = (  -0.8838835   0.7660321   0.6481814  )
       251        Si     tau( 251) = (  -0.9428088   0.8249574   0.5892554  )
       252        Si     tau( 252) = (  -1.0017348   0.8838835   0.6481814  )
       253        Si     tau( 253) = (  -0.3535534   0.3535534   0.7071068  )
       254        Si     tau( 254) = (  -0.4124794   0.4124794   0.7660328  )
       255        Si     tau( 255) = (  -0.4714047   0.4714047   0.7071068  )
       256        Si     tau( 256) = (  -0.5303301   0.5303301   0.7660328  )
       257        Si     tau( 257) = (  -0.5892554   0.5892554   0.7071068  )
       258        Si     tau( 258) = (  -0.6481814   0.6481814   0.7660328  )
       259        Si     tau( 259) = (  -0.7071068   0.7071068   0.7071068  )
       260        Si     tau( 260) = (  -0.7660328   0.7660328   0.7660328  )
       261        Si     tau( 261) = (  -0.8249581   0.8249581   0.7071068  )
       262        Si     tau( 262) = (  -0.8838835   0.8838835   0.7660328  )
       263        Si     tau( 263) = (  -0.9428088   0.9428088   0.7071068  )
       264        Si     tau( 264) = (  -1.0017348   1.0017348   0.7660328  )
       265        Si     tau( 265) = (  -0.3535534   0.4714047   0.8249581  )
       266        Si     tau( 266) = (  -0.4124794   0.5303301   0.8838835  )
       267        Si     tau( 267) = (  -0.4714047   0.5892561   0.8249581  )
       268        Si     tau( 268) = (  -0.5303301   0.6481807   0.8838835  )
       269        Si     tau( 269) = (  -0.5892554   0.7071068   0.8249581  )
       270        Si     tau( 270) = (  -0.6481814   0.7660321   0.8838835  )
       271        Si     tau( 271) = (  -0.7071068   0.8249581   0.8249581  )
       272        Si     tau( 272) = (  -0.7660328   0.8838835   0.8838835  )
       273        Si     tau( 273) = (  -0.8249581   0.9428095   0.8249581  )
       274        Si     tau( 274) = (  -0.8838835   1.0017341   0.8838835  )
       275        Si     tau( 275) = (  -0.9428088   1.0606602   0.8249581  )
       276        Si     tau( 276) = (  -1.0017348   1.1195855   0.8838835  )
       277        Si     tau( 277) = (  -0.3535534   0.5892554   0.9428088  )
       278        Si     tau( 278) = (  -0.4124794   0.6481814   1.0017348  )
       279        Si     tau( 279) = (  -0.4714047   0.7071068   0.9428088  )
       280        Si     tau( 280) = (  -0.5303301   0.7660321   1.0017348  )
       281        Si     tau( 281) = (  -0.5892554   0.8249574   0.9428088  )
       282        Si     tau( 282) = (  -0.6481814   0.8838835   1.0017348  )
       283        Si     tau( 283) = (  -0.7071068   0.9428088   0.9428088  )
       284        Si     tau( 284) = (  -0.7660328   1.0017348   1.0017348  )
       285        Si     tau( 285) = (  -0.8249581   1.0606602   0.9428088  )
       286        Si     tau( 286) = (  -0.8838835   1.1195855   1.0017348  )
       287        Si     tau( 287) = (  -0.9428088   1.1785108   0.9428088  )
       288        Si     tau( 288) = (  -1.0017348   1.2374369   1.0017348  )
       289        Si     tau( 289) = (  -0.4714047   0.0000000   0.4714047  )
       290        Si     tau( 290) = (  -0.5303301   0.0589260   0.5303301  )
       291        Si     tau( 291) = (  -0.5892561   0.1178513   0.4714047  )
       292        Si     tau( 292) = (  -0.6481807   0.1767767   0.5303301  )
       293        Si     tau( 293) = (  -0.7071068   0.2357020   0.4714047  )
       294        Si     tau( 294) = (  -0.7660321   0.2946280   0.5303301  )
       295        Si     tau( 295) = (  -0.8249581   0.3535534   0.4714047  )
       296        Si     tau( 296) = (  -0.8838835   0.4124794   0.5303301  )
       297        Si     tau( 297) = (  -0.9428095   0.4714047   0.4714047  )
       298        Si     tau( 298) = (  -1.0017341   0.5303301   0.5303301  )
       299        Si     tau( 299) = (  -1.0606602   0.5892554   0.4714047  )
       300        Si     tau( 300) = (  -1.1195855   0.6481814   0.5303301  )
       301        Si     tau( 301) = (  -0.4714047   0.1178513   0.5892561  )
       302        Si     tau( 302) = (  -0.5303301   0.1767767   0.6481807  )
       303        Si     tau( 303) = (  -0.5892561   0.2357027   0.5892561  )
       304        Si     tau( 304) = (  -0.6481807   0.2946273   0.6481807  )
       305        Si     tau( 305) = (  -0.7071068   0.3535534   0.5892561  )
       306        Si     tau( 306) = (  -0.7660321   0.4124787   0.6481807  )
       307        Si     tau( 307) = (  -0.8249581   0.4714047   0.5892561  )
       308        Si     tau( 308) = (  -0.8838835   0.5303301   0.6481807  )
       309        Si     tau( 309) = (  -0.9428095   0.5892561   0.5892561  )
       310        Si     tau( 310) = (  -1.0017341   0.6481807   0.6481807  )
       311        Si     tau( 311) = (  -1.0606602   0.7071068   0.5892561  )
       312        Si     tau( 312) = (  -1.1195855   0.7660321   0.6481807  )
       313        Si     tau( 313) = (  -0.4714047   0.2357020   0.7071068  )
       314        Si     tau( 314) = (  -0.5303301   0.2946280   0.7660321  )
       315        Si     tau( 315) = (  -0.5892561   0.3535534   0.7071068  )
       316        Si     tau( 316) = (  -0.6481807   0.4124787   0.7660321  )
       317        Si     tau( 317) = (  -0.7071068   0.4714040   0.7071068  )
       318        Si     tau( 318) = (  -0.7660321   0.5303301   0.7660321  )
       319        Si     tau( 319) = (  -0.8249581   0.5892554   0.7071068  )
       320        Si     tau( 320) = (  -0.8838835   0.6481814   0.7660321  )
       321        Si     tau( 321) = (  -0.9428095   0.7071068   0.7071068  )
       322        Si     tau( 322) = (  -1.0017341   0.7660321   0.7660321  )
       323        Si     tau( 323) = (  -1.0606602   0.8249574   0.7071068  )
       324        Si     tau( 324) = (  -1.1195855   0.8838835   0.7660321  )
       325        Si     tau( 325) = (  -0.4714047   0.3535534   0.8249581  )
       326        Si     tau( 326) = (  -0.5303301   0.4124794   0.8838835  )
       327        Si     tau( 327) = (  -0.5892561   0.4714047   0.8249581  )
       328        Si     tau( 328) = (  -0.6481807   0.5303301   0.8838835  )
       329        Si     tau( 329) = (  -0.7071068   0.5892554   0.8249581  )
       330        Si     tau( 330) = (  -0.7660321   0.6481814   0.8838835  )
       331        Si     tau( 331) = (  -0.8249581   0.7071068   0.8249581  )
       332        Si     tau( 332) = (  -0.8838835   0.7660328   0.8838835  )
       333        Si     tau( 333) = (  -0.9428095   0.8249581   0.8249581  )
       334        Si     tau( 334) = (  -1.0017341   0.8838835   0.8838835  )
       335        Si     tau( 335) = (  -1.0606602   0.9428088   0.8249581  )
       336        Si     tau( 336) = (  -1.1195855   1.0017348   0.8838835  )
       337        Si     tau( 337) = (  -0.4714047   0.4714047   0.9428095  )
       338        Si     tau( 338) = (  -0.5303301   0.5303301   1.0017341  )
       339        Si     tau( 339) = (  -0.5892561   0.5892561   0.9428095  )
       340        Si     tau( 340) = (  -0.6481807   0.6481807   1.0017341  )
       341        Si     tau( 341) = (  -0.7071068   0.7071068   0.9428095  )
       342        Si     tau( 342) = (  -0.7660321   0.7660321   1.0017341  )
       343        Si     tau( 343) = (  -0.8249581   0.8249581   0.9428095  )
       344        Si     tau( 344) = (  -0.8838835   0.8838835   1.0017341  )
       345        Si     tau( 345) = (  -0.9428095   0.9428095   0.9428095  )
       346        Si     tau( 346) = (  -1.0017341   1.0017341   1.0017341  )
       347        Si     tau( 347) = (  -1.0606602   1.0606602   0.9428095  )
       348        Si     tau( 348) = (  -1.1195855   1.1195855   1.0017341  )
       349        Si     tau( 349) = (  -0.4714047   0.5892554   1.0606602  )
       350        Si     tau( 350) = (  -0.5303301   0.6481814   1.1195855  )
       351        Si     tau( 351) = (  -0.5892561   0.7071068   1.0606602  )
       352        Si     tau( 352) = (  -0.6481807   0.7660321   1.1195855  )
       353        Si     tau( 353) = (  -0.7071068   0.8249574   1.0606602  )
       354        Si     tau( 354) = (  -0.7660321   0.8838835   1.1195855  )
       355        Si     tau( 355) = (  -0.8249581   0.9428088   1.0606602  )
       356        Si     tau( 356) = (  -0.8838835   1.0017348   1.1195855  )
       357        Si     tau( 357) = (  -0.9428095   1.0606602   1.0606602  )
       358        Si     tau( 358) = (  -1.0017341   1.1195855   1.1195855  )
       359        Si     tau( 359) = (  -1.0606602   1.1785108   1.0606602  )
       360        Si     tau( 360) = (  -1.1195855   1.2374369   1.1195855  )
       361        Si     tau( 361) = (  -0.5892554   0.0000000   0.5892554  )
       362        Si     tau( 362) = (  -0.6481814   0.0589260   0.6481814  )
       363        Si     tau( 363) = (  -0.7071068   0.1178513   0.5892554  )
       364        Si     tau( 364) = (  -0.7660321   0.1767767   0.6481814  )
       365        Si     tau( 365) = (  -0.8249574   0.2357020   0.5892554  )
       366        Si     tau( 366) = (  -0.8838835   0.2946280   0.6481814  )
       367        Si     tau( 367) = (  -0.9428088   0.3535534   0.5892554  )
       368        Si     tau( 368) = (  -1.0017348   0.4124794   0.6481814  )
       369        Si     tau( 369) = (  -1.0606602   0.4714047   0.5892554  )
       370        Si     tau( 370) = (  -1.1195855   0.5303301   0.6481814  )
       371        Si     tau( 371) = (  -1.1785108   0.5892554   0.5892554  )
       372        Si     tau( 372) = (  -1.2374369   0.6481814   0.6481814  )
       373        Si     tau( 373) = (  -0.5892554   0.1178513   0.7071068  )
       374        Si     tau( 374) = (  -0.6481814   0.1767767   0.7660321  )
       375        Si     tau( 375) = (  -0.7071068   0.2357027   0.7071068  )
       376        Si     tau( 376) = (  -0.7660321   0.2946273   0.7660321  )
       377        Si     tau( 377) = (  -0.8249574   0.3535534   0.7071068  )
       378        Si     tau( 378) = (  -0.8838835   0.4124787   0.7660321  )
       379        Si     tau( 379) = (  -0.9428088   0.4714047   0.7071068  )
       380        Si     tau( 380) = (  -1.0017348   0.5303301   0.7660321  )
       381        Si     tau( 381) = (  -1.0606602   0.5892561   0.7071068  )
       382        Si     tau( 382) = (  -1.1195855   0.6481807   0.7660321  )
       383        Si     tau( 383) = (  -1.1785108   0.7071068   0.7071068  )
       384        Si     tau( 384) = (  -1.2374369   0.7660321   0.7660321  )
       385        Si     tau( 385) = (  -0.5892554   0.2357020   0.8249574  )
       386        Si     tau( 386) = (  -0.6481814   0.2946280   0.8838835  )
       387        Si     tau( 387) = (  -0.7071068   0.3535534   0.8249574  )
       388        Si     tau( 388) = (  -0.7660321   0.4124787   0.8838835  )
       389        Si     tau( 389) = (  -0.8249574   0.4714040   0.8249574  )
       390        Si     tau( 390) = (  -0.8838835   0.5303301   0.8838835  )
       391        Si     tau( 391) = (  -0.9428088   0.5892554   0.8249574  )
       392        Si     tau( 392) = (  -1.0017348   0.6481814   0.8838835  )
       393        Si     tau( 393) = (  -1.0606602   0.7071068   0.8249574  )
       394        Si     tau( 394) = (  -1.1195855   0.7660321   0.8838835  )
       395        Si     tau( 395) = (  -1.1785108   0.8249574   0.8249574  )
       396        Si     tau( 396) = (  -1.2374369   0.8838835   0.8838835  )
       397        Si     tau( 397) = (  -0.5892554   0.3535534   0.9428088  )
       398        Si     tau( 398) = (  -0.6481814   0.4124794   1.0017348  )
       399        Si     tau( 399) = (  -0.7071068   0.4714047   0.9428088  )
       400        Si     tau( 400) = (  -0.7660321   0.5303301   1.0017348  )
       401        Si     tau( 401) = (  -0.8249574   0.5892554   0.9428088  )
       402        Si     tau( 402) = (  -0.8838835   0.6481814   1.0017348  )
       403        Si     tau( 403) = (  -0.9428088   0.7071068   0.9428088  )
       404        Si     tau( 404) = (  -1.0017348   0.7660328   1.0017348  )
       405        Si     tau( 405) = (  -1.0606602   0.8249581   0.9428088  )
       406        Si     tau( 406) = (  -1.1195855   0.8838835   1.0017348  )
       407        Si     tau( 407) = (  -1.1785108   0.9428088   0.9428088  )
       408        Si     tau( 408) = (  -1.2374369   1.0017348   1.0017348  )
       409        Si     tau( 409) = (  -0.5892554   0.4714047   1.0606602  )
       410        Si     tau( 410) = (  -0.6481814   0.5303301   1.1195855  )
       411        Si     tau( 411) = (  -0.7071068   0.5892561   1.0606602  )
       412        Si     tau( 412) = (  -0.7660321   0.6481807   1.1195855  )
       413        Si     tau( 413) = (  -0.8249574   0.7071068   1.0606602  )
       414        Si     tau( 414) = (  -0.8838835   0.7660321   1.1195855  )
       415        Si     tau( 415) = (  -0.9428088   0.8249581   1.0606602  )
       416        Si     tau( 416) = (  -1.0017348   0.8838835   1.1195855  )
       417        Si     tau( 417) = (  -1.0606602   0.9428095   1.0606602  )
       418        Si     tau( 418) = (  -1.1195855   1.0017341   1.1195855  )
       419        Si     tau( 419) = (  -1.1785108   1.0606602   1.0606602  )
       420        Si     tau( 420) = (  -1.2374369   1.1195855   1.1195855  )
       421        Si     tau( 421) = (  -0.5892554   0.5892554   1.1785108  )
       422        Si     tau( 422) = (  -0.6481814   0.6481814   1.2374369  )
       423        Si     tau( 423) = (  -0.7071068   0.7071068   1.1785108  )
       424        Si     tau( 424) = (  -0.7660321   0.7660321   1.2374369  )
       425        Si     tau( 425) = (  -0.8249574   0.8249574   1.1785108  )
       426        Si     tau( 426) = (  -0.8838835   0.8838835   1.2374369  )
       427        Si     tau( 427) = (  -0.9428088   0.9428088   1.1785108  )
       428        Si     tau( 428) = (  -1.0017348   1.0017348   1.2374369  )
       429        Si     tau( 429) = (  -1.0606602   1.0606602   1.1785108  )
       430        Si     tau( 430) = (  -1.1195855   1.1195855   1.2374369  )
       431        Si     tau( 431) = (  -1.1785108   1.1785108   1.1785108  )
       432        Si     tau( 432) = (  -1.2374369   1.2374369   1.2374369  )

     number of k points=     6
                       cart. coord. in units 2pi/alat
        k(    1) = (   0.0000000   0.0000000   0.0000000), wk =   0.2500000
        k(    2) = (   0.3535534  -0.3535534   0.3535534), wk =   0.5000000
        k(    3) = (   0.0000000  -0.7071068   0.0000000), wk =   0.2500000
        k(    4) = (   0.3535534   0.3535534  -0.3535534), wk =   0.2500000
        k(    5) = (   0.3535534  -0.3535534  -0.3535534), wk =   0.2500000
        k(    6) = (  -0.7071068   0.0000000   0.0000000), wk =   0.5000000

     Dense  grid:  2786819 G-vectors     FFT dimensions: ( 200, 200, 200)

     Estimated max dynamical RAM per process >       6.39 GB

     Estimated total dynamical RAM >      76.63 GB

     Initial potential from superposition of free atoms

     starting charge    1727.6954, renormalised to    1728.0000
     Starting wfcs are 6912 randomized atomic wfcs

     total cpu time spent up to now is     3874.3 secs

     per-process dynamical memory:  5082.5 Mb

     Self-consistent Calculation

     iteration #  1     ecut=    50.00 Ry     beta= 0.70
     Davidson diagonalization with overlap
     ethr =  1.00E-02,  avg # of iterations =  2.0

     Threshold (ethr) on eigenvalues was too large:
     Diagonalizing with lowered threshold

     Davidson diagonalization with overlap
     ethr =  6.72E-04,  avg # of iterations =  1.0

     total cpu time spent up to now is     5004.5 secs

     total energy              =   -3404.08658520 Ry
     estimated scf accuracy    <      12.13221386 Ry

     iteration #  2     ecut=    50.00 Ry     beta= 0.70
     Davidson diagonalization with overlap
     ethr =  7.02E-04,  avg # of iterations =  1.0

     total cpu time spent up to now is     5525.1 secs

     total energy              =   -3404.60346508 Ry
     estimated scf accuracy    <       0.56431167 Ry

     iteration #  3     ecut=    50.00 Ry     beta= 0.70
     Davidson diagonalization with overlap
     ethr =  3.27E-05,  avg # of iterations =  2.0

     total cpu time spent up to now is     6236.6 secs

     total energy              =   -3404.68097895 Ry
     estimated scf accuracy    <       0.01072485 Ry

     iteration #  4     ecut=    50.00 Ry     beta= 0.70
     Davidson diagonalization with overlap
     ethr =  6.21E-07,  avg # of iterations =  5.0

     total cpu time spent up to now is     7226.2 secs

     total energy              =   -3404.68632420 Ry
     estimated scf accuracy    <       0.00074652 Ry

     iteration #  5     ecut=    50.00 Ry     beta= 0.70
     Davidson diagonalization with overlap
     ethr =  4.32E-08,  avg # of iterations =  5.0

     total cpu time spent up to now is     8159.4 secs

     total energy              =   -3404.68665446 Ry
     estimated scf accuracy    <       0.00100832 Ry

     iteration #  6     ecut=    50.00 Ry     beta= 0.70
     Davidson diagonalization with overlap
     ethr =  4.32E-08,  avg # of iterations =  3.2

     total cpu time spent up to now is     8851.4 secs

     total energy              =   -3404.68675363 Ry
     estimated scf accuracy    <       0.00014959 Ry

     iteration #  7     ecut=    50.00 Ry     beta= 0.70
     Davidson diagonalization with overlap
     ethr =  8.66E-09,  avg # of iterations =  3.0

     total cpu time spent up to now is     9547.6 secs

     total energy              =   -3404.68677785 Ry
     estimated scf accuracy    <       0.00000832 Ry

     iteration #  8     ecut=    50.00 Ry     beta= 0.70
     Davidson diagonalization with overlap
     ethr =  4.82E-10,  avg # of iterations =  4.0

     total cpu time spent up to now is    10349.5 secs

     total energy              =   -3404.68677984 Ry
     estimated scf accuracy    <       0.00000371 Ry

     iteration #  9     ecut=    50.00 Ry     beta= 0.70
     Davidson diagonalization with overlap
     ethr =  2.14E-10,  avg # of iterations =  3.0

     total cpu time spent up to now is    11005.5 secs

     total energy              =   -3404.68677994 Ry
     estimated scf accuracy    <       0.00000191 Ry

     iteration # 10     ecut=    50.00 Ry     beta= 0.70
     Davidson diagonalization with overlap
     ethr =  1.10E-10,  avg # of iterations =  2.7

     total cpu time spent up to now is    11665.6 secs

     total energy              =   -3404.68678011 Ry
     estimated scf accuracy    <       0.00000020 Ry

     iteration # 11     ecut=    50.00 Ry     beta= 0.70
     Davidson diagonalization with overlap
     ethr =  1.18E-11,  avg # of iterations =  4.0

     total cpu time spent up to now is    12429.8 secs

     total energy              =   -3404.68678016 Ry
     estimated scf accuracy    <       0.00000004 Ry

     iteration # 12     ecut=    50.00 Ry     beta= 0.70
     Davidson diagonalization with overlap
     ethr =  2.55E-12,  avg # of iterations =  2.3

     total cpu time spent up to now is    13047.7 secs

     total energy              =   -3404.68678015 Ry
     estimated scf accuracy    <       0.00000002 Ry

     iteration # 13     ecut=    50.00 Ry     beta= 0.70
     Davidson diagonalization with overlap
     ethr =  1.11E-12,  avg # of iterations =  4.0

     total cpu time spent up to now is    13814.8 secs

     total energy              =   -3404.68678016 Ry
     estimated scf accuracy    <       0.00000002 Ry

     iteration # 14     ecut=    50.00 Ry     beta= 0.70
     Davidson diagonalization with overlap
     ethr =  1.03E-12,  avg # of iterations =  3.0

     total cpu time spent up to now is    14504.9 secs

     End of self-consistent calculation

          k = 0.0000 0.0000 0.0000 (347997 PWs)   bands (ev):

    -5.7481  -5.3867  -5.3865  -5.3865  -5.3864  -5.3864  -5.3864  -5.3863
    -5.3862  -5.2636  -5.2635  -5.2634  -5.2634  -5.2633  -5.2632  -4.7980
    -4.7977  -4.7975  -4.7975  -4.7975  -4.7975  -4.7975  -4.7975  -4.7975
    -4.7975  -4.7973  -4.7970  -4.4483  -4.4475  -4.4473  -4.4472  -4.4472
    -4.4472  -4.4472  -4.4472  -4.4472  -4.4472  -4.4472  -4.4472  -4.4472
    -4.4472  -4.4472  -4.4471  -4.4471  -4.4471  -4.4471  -4.4471  -4.4471
    -4.4470  -4.4468  -4.4460  -4.3701  -4.3699  -4.3698  -4.3697  -4.3697
    -4.3697  -4.3697  -4.3694  -3.8420  -3.8418  -3.8417  -3.8417  -3.8416
    -3.8414  -3.6412  -3.6404  -3.6401  -3.6401  -3.6401  -3.6401  -3.6401
    -3.6400  -3.6400  -3.6400  -3.6400  -3.6400  -3.6400  -3.6400  -3.6400
    -3.6400  -3.6400  -3.6400  -3.6400  -3.6400  -3.6400  -3.6399  -3.6396
    -3.6389  -3.4575  -3.4567  -3.4564  -3.4564  -3.4563  -3.4563  -3.4563
    -3.4563  -3.4563  -3.4563  -3.4563  -3.4563  -3.4563  -3.4563  -3.4563
    -3.4562  -3.4562  -3.4562  -3.4562  -3.4562  -3.4562  -3.4561  -3.4558
    -3.4550  -3.4147  -3.4146  -3.4144  -3.4143  -3.2560  -3.2553  -3.2550
    -3.2549  -3.2549  -3.2549  -3.2549  -3.2549  -3.2549  -3.2549  -3.2549
    -3.2549  -3.2549  -3.2549  -3.2549  -3.2549  -3.2549  -3.2548  -3.2548
    -3.2548  -3.2548  -3.2547  -3.2544  -3.2538  -2.6782  -2.6774  -2.6770
    -2.6770  -2.6770  -2.6770  -2.6770  -2.6770  -2.6770  -2.6770  -2.6770
    -2.6770  -2.6770  -2.6770  -2.6769  -2.6769  -2.6769  -2.6769  -2.6769
    -2.6769  -2.6769  -2.6769  -2.6765  -2.6757  -2.4817  -2.4813  -2.4811
    -2.4811  -2.4811  -2.4810  -2.4810  -2.4810  -2.4810  -2.4810  -2.4808
    -2.4805  -2.4721  -2.4716  -2.4712  -2.4711  -2.4711  -2.4711  -2.4711
    -2.4710  -2.4710  -2.4710  -2.4710  -2.4710  -2.4710  -2.4710  -2.4710
    -2.4710  -2.4710  -2.4710  -2.4710  -2.4710  -2.4710  -2.4709  -2.4705
    -2.4698  -1.6003  -1.6002  -1.6000  -1.6000  -1.5999  -1.5997  -1.4816
    -1.4811  -1.4805  -1.4805  -1.4805  -1.4805  -1.4804  -1.4804  -1.4804
    -1.4804  -1.4804  -1.4804  -1.4804  -1.4804  -1.4804  -1.4804  -1.4804
    -1.4804  -1.4804  -1.4804  -1.4804  -1.4803  -1.4798  -1.4793  -0.7499
    -0.7497  -0.7497  -0.7495  -0.6269  -0.6263  -0.6258  -0.6257  -0.6257
    -0.6257  -0.6257  -0.6257  -0.6257  -0.6257  -0.6257  -0.6257  -0.6257
    -0.6257  -0.6257  -0.6256  -0.6256  -0.6256  -0.6256  -0.6256  -0.6256
    -0.6256  -0.6250  -0.6245  -0.5537  -0.5534  -0.5532  -0.5532  -0.5532
    -0.5532  -0.5531  -0.5531  -0.5531  -0.5531  -0.5528  -0.5525  -0.3874
    -0.3868  -0.3864  -0.3863  -0.3863  -0.3863  -0.3863  -0.3863  -0.3863
    -0.3863  -0.3863  -0.3863  -0.3863  -0.3863  -0.3863  -0.3863  -0.3862
    -0.3862  -0.3862  -0.3862  -0.3862  -0.3862  -0.3858  -0.3851  -0.3495
    -0.3492  -0.3485  -0.3485  -0.3485  -0.3485  -0.3485  -0.3485  -0.3485
    -0.3484  -0.3484  -0.3484  -0.3484  -0.3484  -0.3484  -0.3484  -0.3484
    -0.3484  -0.3484  -0.3484  -0.3484  -0.3484  -0.3477  -0.3473   0.2118
     0.2122   0.2127   0.2128   0.2128   0.2128   0.2128   0.2128   0.2128
     0.2128   0.2128   0.2128   0.2128   0.2128   0.2128   0.2129   0.2129
     0.2129   0.2129   0.2129   0.2129   0.2130   0.2135   0.2139   0.5723
     0.5723   0.5731   0.5731   0.5731   0.5731   0.5732   0.5732   0.5732
     0.5732   0.5732   0.5732   0.5732   0.5732   0.5732   0.5732   0.5732
     0.5732   0.5732   0.5732   0.5733   0.5733   0.5740   0.5741   0.8855
     0.8856   0.8857   0.8858   0.8858   0.8859   0.8860   0.8861   1.2053
     1.2054   1.2056   1.2056   1.2058   1.2058   1.7810   1.7812   1.7818
     1.7818   1.7819   1.7819   1.7819   1.7819   1.7819   1.7819   1.7819
     1.7819   1.7819   1.7819   1.7819   1.7819   1.7820   1.7820   1.7820
     1.7820   1.7820   1.7820   1.7827   1.7828   1.8127   1.8130   1.8130
     1.8130   1.8130   1.8131   1.8131   1.8131   1.8131   1.8132   1.8132
     1.8135   2.2146   2.2149   2.2150   2.2152   2.2152   2.2152   2.2152
     2.2152   2.2152   2.2153   2.2153   2.2153   2.2153   2.2153   2.2153
     2.2153   2.2153   2.2153   2.2153   2.2153   2.2153   2.2155   2.2156
     2.2160   2.4997   2.5000   2.5002   2.5002   2.5002   2.5003   2.5003
     2.5003   2.5003   2.5003   2.5005   2.5008   2.5800   2.5804   2.5805
     2.5806   2.5806   2.5806   2.5807   2.5807   2.5807   2.5807   2.5807
     2.5807   2.5807   2.5807   2.5807   2.5807   2.5807   2.5807   2.5807
     2.5807   2.5808   2.5808   2.5810   2.5813   2.5927   2.5930   2.5931
     2.5932   2.5933   2.5933   2.5933   2.5933   2.5933   2.5933   2.5933
     2.5933   2.5933   2.5933   2.5933   2.5933   2.5933   2.5933   2.5933
     2.5933   2.5934   2.5935   2.5937   2.5939   2.6552   2.6552   2.6554
     2.6556   2.6556   2.6556   2.6557   2.6557   2.6557   2.6557   2.6557
     2.6557   2.6557   2.6557   2.6557   2.6557   2.6557   2.6557   2.6557
     2.6557   2.6558   2.6560   2.6562   2.6562   3.1751   3.1753   3.1755
     3.1758   3.1758   3.1758   3.1758   3.1758   3.1758   3.1758   3.1758
     3.1758   3.1758   3.1758   3.1758   3.1758   3.1758   3.1758   3.1759
     3.1759   3.1759   3.1761   3.1764   3.1765   3.3706   3.3707   3.3707
     3.3707   3.3707   3.3709   3.4448   3.4450   3.4453   3.4455   3.4455
     3.4455   3.4455   3.4455   3.4455   3.4456   3.4456   3.4456   3.4456
     3.4456   3.4456   3.4456   3.4456   3.4456   3.4456   3.4456   3.4457
     3.4458   3.4461   3.4463   3.4629   3.4630   3.4634   3.4634   3.4635
     3.4635   3.4635   3.4635   3.4635   3.4635   3.4635   3.4635   3.4635
     3.4635   3.4635   3.4635   3.4636   3.4636   3.4636   3.4636   3.4637
     3.4637   3.4641   3.4642   3.6684   3.6687   3.6689   3.6689   3.6690
     3.6690   3.6690   3.6690   3.6690   3.6690   3.6690   3.6690   3.6690
     3.6690   3.6690   3.6690   3.6691   3.6691   3.6691   3.6691   3.6691
     3.6691   3.6693   3.6697   3.8054   3.8057   3.8058   3.8058   3.8058
     3.8058   3.8058   3.8058   3.8058   3.8058   3.8059   3.8062   3.8121
     3.8123   3.8124   3.8125   3.8125   3.8125   3.8125   3.8125   3.8126
     3.8127   3.8127   3.8130   3.8377   3.8379   3.8380   3.8380   3.8381
     3.8381   3.8382   3.8384   3.9289   3.9290   3.9294   3.9295   3.9295
     3.9295   3.9295   3.9295   3.9295   3.9296   3.9296   3.9296   3.9296
     3.9296   3.9296   3.9296   3.9296   3.9296   3.9296   3.9297   3.9297
     3.9297   3.9302   3.9303   4.1109   4.1111   4.1112   4.1112   4.1112
     4.1112   4.1113   4.1113   4.1113   4.1113   4.1115   4.1116   4.1753
     4.1756   4.1756   4.1756   4.1757   4.1760   4.2284   4.2289   4.2291
     4.2292   4.2293   4.2293   4.2293   4.2293   4.2293   4.2293   4.2293
     4.2293   4.2293   4.2293   4.2294   4.2294   4.2294   4.2294   4.2294
     4.2294   4.2294   4.2296   4.2299   4.2303   4.4456   4.4462   4.4464
     4.4465   4.4465   4.4465   4.4465   4.4465   4.4465   4.4465   4.4466
     4.4466   4.4466   4.4466   4.4466   4.4466   4.4466   4.4466   4.4466
     4.4467   4.4467   4.4467   4.4470   4.4475   4.4764   4.4771   4.4771
     4.4773   4.4773   4.4773   4.4773   4.4773   4.4773   4.4773   4.4773
     4.4773   4.4773   4.4774   4.4774   4.4774   4.4774   4.4774   4.4774
     4.4774   4.4774   4.4775   4.4776   4.4784   4.9240   4.9246   4.9249
     4.9250   4.9250   4.9250   4.9250   4.9250   4.9250   4.9250   4.9251
     4.9251   4.9251   4.9251   4.9251   4.9251   4.9251   4.9251   4.9251
     4.9251   4.9251   4.9252   4.9255   4.9261   5.0226   5.0229   5.0229
     5.0230   5.0230   5.0230   5.0231   5.0233   5.0301   5.0305   5.0306
     5.0306   5.0306   5.0306   5.0306   5.0306   5.0306   5.0307   5.0307
     5.0313   5.2207   5.2213   5.2214   5.2214   5.2214   5.2215   5.2215
     5.2215   5.2215   5.2215   5.2215   5.2215   5.2215   5.2216   5.2217
     5.2224   5.6557   5.6563   5.6564   5.6564   5.6565   5.6565   5.6565
     5.6565   5.6565   5.6565   5.6567   5.6572   5.7706   5.7715   5.7715
     5.7716   5.7716   5.7716   5.7716   5.7716   5.7716   5.7716   5.7716
     5.7717   5.7717   5.7717   5.7717   5.7727   6.2208   6.2210   6.2212

          k = 0.3536-0.3536 0.3536 (348290 PWs)   bands (ev):

    -5.6570  -5.6569  -5.4153  -5.4153  -5.4153  -5.4152  -5.4152  -5.4149
    -5.1783  -5.1782  -5.1781  -5.1781  -5.1780  -5.1778  -4.9475  -4.9473
    -4.9361  -4.9359  -4.9358  -4.9358  -4.9357  -4.9356  -4.7097  -4.7095
    -4.7093  -4.7093  -4.7093  -4.7092  -4.7092  -4.7092  -4.7092  -4.7092
    -4.7092  -4.7087  -4.4944  -4.4943  -4.4943  -4.4942  -4.4942  -4.4939
    -4.2653  -4.2650  -4.2650  -4.2650  -4.2649  -4.2647  -4.2280  -4.2279
    -4.2278  -4.2278  -4.2277  -4.2274  -4.0804  -4.0803  -4.0802  -4.0802
    -4.0801  -4.0799  -4.0217  -4.0213  -4.0211  -4.0211  -4.0211  -4.0211
    -4.0211  -4.0211  -4.0210  -4.0210  -4.0209  -4.0205  -3.8391  -3.8388
    -3.8388  -3.8387  -3.8387  -3.8385  -3.7489  -3.7487  -3.6247  -3.6246
    -3.6244  -3.6244  -3.6244  -3.6244  -3.6244  -3.6243  -3.6243  -3.6243
    -3.6243  -3.6236  -3.5115  -3.5114  -3.5112  -3.5112  -3.5112  -3.5112
    -3.5111  -3.5111  -3.5111  -3.5111  -3.5111  -3.5104  -3.3772  -3.3772
    -3.3770  -3.3770  -3.3770  -3.3767  -3.3068  -3.3066  -3.3065  -3.3065
    -3.3064  -3.3062  -3.1408  -3.1405  -3.1405  -3.1404  -3.1404  -3.1402
    -3.1372  -3.1370  -3.1368  -3.1368  -3.1368  -3.1368  -3.1367  -3.1367
    -3.1367  -3.1367  -3.1366  -3.1360  -3.0799  -3.0797  -3.0796  -3.0796
    -3.0795  -3.0793  -3.0276  -3.0275  -3.0274  -3.0274  -3.0273  -3.0270
    -2.8983  -2.8982  -2.8979  -2.8979  -2.8979  -2.8979  -2.8979  -2.8979
    -2.8979  -2.8978  -2.8977  -2.8972  -2.8324  -2.8319  -2.8317  -2.8317
    -2.8317  -2.8317  -2.8316  -2.8316  -2.8316  -2.8316  -2.8314  -2.8312
    -2.4764  -2.4763  -2.4762  -2.4761  -2.4761  -2.4760  -2.4760  -2.4760
    -2.4760  -2.4760  -2.4760  -2.4753  -2.2083  -2.2080  -2.2079  -2.2079
    -2.2079  -2.2077  -2.1976  -2.1975  -2.1973  -2.1973  -2.1972  -2.1970
    -2.1051  -2.1048  -2.1046  -2.1046  -2.1045  -2.1045  -2.1045  -2.1045
    -2.1045  -2.1045  -2.1043  -2.1039  -1.9971  -1.9969  -1.9966  -1.9966
    -1.9966  -1.9966  -1.9965  -1.9965  -1.9965  -1.9965  -1.9963  -1.9959
    -0.9338  -0.9334  -0.9331  -0.9331  -0.9330  -0.9329  -0.9329  -0.9328
    -0.9326  -0.9326  -0.9326  -0.9326  -0.9326  -0.9326  -0.9326  -0.9325
    -0.9322  -0.9319  -0.9252  -0.9251  -0.9248  -0.9248  -0.9248  -0.9248
    -0.9248  -0.9247  -0.9247  -0.9247  -0.9244  -0.9241  -0.8396  -0.8395
    -0.8395  -0.8394  -0.8394  -0.8388  -0.6470  -0.6467  -0.6466  -0.6465
    -0.6465  -0.6464  -0.5911  -0.5908  -0.5904  -0.5903  -0.5903  -0.5903
    -0.5903  -0.5902  -0.5902  -0.5902  -0.5902  -0.5898  -0.5461  -0.5461
    -0.5461  -0.5460  -0.5459  -0.5453  -0.5143  -0.5139  -0.5137  -0.5136
    -0.5136  -0.5136  -0.5136  -0.5136  -0.5136  -0.5136  -0.5135  -0.5130
    -0.2441  -0.2440  -0.1969  -0.1967  -0.1966  -0.1966  -0.1966  -0.1966
    -0.1966  -0.1966  -0.1965  -0.1965  -0.1964  -0.1954  -0.1651  -0.1649
    -0.1647  -0.1647  -0.1646  -0.1644  -0.1417  -0.1414  -0.1411  -0.1411
    -0.1411  -0.1411  -0.1411  -0.1411  -0.1410  -0.1410  -0.1409  -0.1406
    -0.0854  -0.0854  -0.0852  -0.0852  -0.0851  -0.0849   0.1946   0.1947
     0.1952   0.1952   0.1952   0.1952   0.1952   0.1952   0.1952   0.1953
     0.1954   0.1957   0.4198   0.4198   0.4200   0.4200   0.4202   0.4203
     0.5033   0.5034   0.5036   0.5037   0.5037   0.5038   0.5477   0.5478
     0.5478   0.5478   0.5479   0.5484   0.5499   0.5500   0.5504   0.5505
     0.5505   0.5505   0.5505   0.5505   0.5505   0.5506   0.5506   0.5511
     1.2463   1.2464   1.2467   1.2468   1.2468   1.2468   1.2468   1.2468
     1.2468   1.2468   1.2472   1.2473   1.3534   1.3534   1.3536   1.3536
     1.3537   1.3538   1.3592   1.3592   1.3592   1.3593   1.3594   1.3598
     1.7887   1.7888   1.7890   1.7891   1.7891   1.7893   1.9874   1.9878
     1.9880   1.9880   1.9880   1.9880   1.9880   1.9880   1.9880   1.9881
     1.9881   1.9881   2.0147   2.0149   2.0149   2.0149   2.0149   2.0151
     2.1416   2.1417   2.1418   2.1418   2.1418   2.1418   2.1418   2.1418
     2.1419   2.1419   2.1419   2.1423   2.2081   2.2082   2.2082   2.2083
     2.2083   2.2085   2.2491   2.2494   2.2497   2.2497   2.2497   2.2498
     2.2498   2.2498   2.2498   2.2499   2.2499   2.2502   2.2927   2.2929
     2.3080   2.3081   2.3084   2.3084   2.3084   2.3084   2.3085   2.3085
     2.3085   2.3085   2.3085   2.3089   2.4728   2.4730   2.4731   2.4731
     2.4731   2.4732   2.4732   2.4732   2.4732   2.4732   2.4733   2.4735
     2.6901   2.6901   2.6901   2.6902   2.6902   2.6905   2.7106   2.7106
     2.7108   2.7108   2.7108   2.7108   2.7109   2.7109   2.7109   2.7110
     2.7111   2.7113   2.7540   2.7541   2.7542   2.7543   2.7543   2.7543
     2.7543   2.7543   2.7543   2.7545   2.7546   2.7547   2.7970   2.7971
     2.7974   2.7974   2.7974   2.7975   2.7975   2.7975   2.7975   2.7975
     2.7976   2.7976   2.9212   2.9213   2.9215   2.9215   2.9215   2.9215
     2.9216   2.9216   2.9216   2.9216   2.9217   2.9218   3.0495   3.0495
     3.0496   3.0496   3.0496   3.0497   3.0907   3.0908   3.0908   3.0909
     3.0910   3.0914   3.2316   3.2317   3.2318   3.2319   3.2319   3.2322
     3.2533   3.2534   3.2534   3.2534   3.2535   3.2535   3.2535   3.2535
     3.2535   3.2536   3.2538   3.2539   3.2754   3.2756   3.2757   3.2758
     3.2758   3.2759   3.3204   3.3204   3.3205   3.3206   3.3206   3.3207
     3.3210   3.3211   3.3212   3.3212   3.3213   3.3214   3.3570   3.3571
     3.3572   3.3572   3.3572   3.3572   3.3572   3.3572   3.3572   3.3573
     3.3575   3.3577   3.4464   3.4466   3.4467   3.4467   3.4467   3.4467
     3.5924   3.5924   3.5928   3.5928   3.5929   3.5929   3.5929   3.5929
     3.5929   3.5929   3.5930   3.5932   3.5954   3.5955   3.5955   3.5955
     3.5955   3.5955   3.5955   3.5955   3.5955   3.5956   3.5959   3.5961
     3.6589   3.6590   3.6594   3.6594   3.6594   3.6594   3.6594   3.6595
     3.6595   3.6595   3.6597   3.6597   3.6627   3.6630   3.6630   3.6630
     3.6630   3.6631   3.7897   3.7898   3.7900   3.7901   3.7901   3.7902
     3.8017   3.8018   3.8019   3.8019   3.8020   3.8020   3.8020   3.8020
     3.8020   3.8020   3.8022   3.8025   3.8225   3.8227   3.8227   3.8227
     3.8228   3.8229   3.8685   3.8685   3.8685   3.8686   3.8687   3.8690
     4.0179   4.0181   4.0182   4.0182   4.0183   4.0183   4.0570   4.0572
     4.0575   4.0575   4.0575   4.0575   4.0575   4.0575   4.0575   4.0576
     4.0577   4.0578   4.0790   4.0791   4.0793   4.0793   4.0793   4.0793
     4.0794   4.0794   4.0794   4.0794   4.0796   4.0798   4.0868   4.0871
     4.0871   4.0871   4.0872   4.0872   4.2895   4.2898   4.2899   4.2899
     4.2900   4.2901   4.3075   4.3077   4.3079   4.3080   4.3080   4.3080
     4.3080   4.3080   4.3081   4.3081   4.3081   4.3084   4.3724   4.3724
     4.3725   4.3725   4.3726   4.3729   4.3927   4.3930   4.3930   4.3931
     4.3931   4.3933   4.4398   4.4399   4.4399   4.4399   4.4400   4.4403
     4.5024   4.5027   4.5027   4.5027   4.5028   4.5029   4.5684   4.5684
     4.5685   4.5686   4.5686   4.5686   4.5686   4.5686   4.5687   4.5687
     4.5689   4.5693   4.6299   4.6302   4.6302   4.6303   4.6303   4.6305
     4.6670   4.6671   4.6671   4.6671   4.6671   4.6671   4.6672   4.6672
     4.6672   4.6672   4.6674   4.6681   4.6819   4.6821   4.6822   4.6823
     4.6823   4.6825   4.6958   4.6962   4.6962   4.6962   4.6963   4.6964
     4.8373   4.8373   4.8374   4.8374   4.8375   4.8379   4.8458   4.8462
     4.8462   4.8463   4.8463   4.8463   4.9054   4.9058   4.9058   4.9058
     4.9059   4.9059   4.9409   4.9410   4.9410   4.9410   4.9411   4.9416
     5.0725   5.0729   5.0729   5.0730   5.2281   5.2285   5.2285   5.2286
     5.2286   5.2287   5.2401   5.2403   5.2403   5.2404   5.2404   5.2404
     5.2404   5.2404   5.2405   5.2405   5.2406   5.2414   5.2924   5.2928
     5.2928   5.2929   5.2929   5.2931   5.3601   5.3603   5.4286   5.4291
     5.4291   5.4291   5.4292   5.4293   5.4620   5.4624   5.4624   5.4625
     5.6175   5.6175   5.6175   5.6176   5.6177   5.6183   5.8671   5.8676
     5.8677   5.8677   5.8677   5.8679   6.0773   6.0778   6.0778   6.0779

          k = 0.0000-0.7071 0.0000 (348554 PWs)   bands (ev):

    -5.6265  -5.6264  -5.5059  -5.5059  -5.5058  -5.5058  -5.1464  -5.1463
    -5.1462  -5.1462  -5.1461  -5.1461  -5.1460  -5.1459  -5.0313  -5.0309
    -5.0308  -5.0308  -5.0308  -5.0308  -5.0307  -5.0304  -4.6890  -4.6888
    -4.6888  -4.6887  -4.6887  -4.6887  -4.6886  -4.6885  -4.6650  -4.6647
    -4.5544  -4.5543  -4.5543  -4.5543  -4.5542  -4.5542  -4.5542  -4.5541
    -4.2281  -4.2277  -4.2276  -4.2275  -4.2275  -4.2275  -4.2274  -4.2270
    -4.1341  -4.1337  -4.1335  -4.1334  -4.1334  -4.1334  -4.1334  -4.1334
    -4.1334  -4.1334  -4.1334  -4.1334  -4.1334  -4.1333  -4.1331  -4.1327
    -3.8686  -3.8682  -3.8681  -3.8681  -3.8681  -3.8680  -3.8680  -3.8676
    -3.7431  -3.7431  -3.7430  -3.7430  -3.7430  -3.7429  -3.7428  -3.7428
    -3.7023  -3.7022  -3.7021  -3.7020  -3.6525  -3.6520  -3.6519  -3.6519
    -3.6519  -3.6519  -3.6518  -3.6513  -3.4982  -3.4981  -3.4979  -3.4979
    -3.4979  -3.4979  -3.4978  -3.4976  -3.3954  -3.3954  -3.3951  -3.3951
    -3.3951  -3.3950  -3.3950  -3.3950  -3.3950  -3.3950  -3.3950  -3.3950
    -3.3950  -3.3949  -3.3947  -3.3946  -3.1729  -3.1728  -3.1726  -3.1726
    -3.1726  -3.1725  -3.1724  -3.1723  -3.0346  -3.0340  -3.0338  -3.0337
    -3.0337  -3.0337  -3.0337  -3.0337  -3.0337  -3.0337  -3.0336  -3.0336
    -3.0336  -3.0336  -3.0334  -3.0328  -3.0144  -3.0143  -3.0140  -3.0140
    -3.0140  -3.0140  -3.0138  -3.0137  -2.8115  -2.8112  -2.7341  -2.7340
    -2.7339  -2.7339  -2.7339  -2.7339  -2.7338  -2.7337  -2.7040  -2.7036
    -2.7035  -2.7035  -2.7035  -2.7035  -2.7034  -2.7030  -2.5475  -2.5474
    -2.5471  -2.5471  -2.5471  -2.5471  -2.5471  -2.5470  -2.5470  -2.5470
    -2.5470  -2.5470  -2.5470  -2.5470  -2.5467  -2.5466  -2.5205  -2.5201
    -2.5200  -2.5200  -2.5199  -2.5199  -2.5198  -2.5193  -2.2286  -2.2284
    -2.2283  -2.2283  -2.2282  -2.2282  -2.2281  -2.2278  -1.9503  -1.9502
    -1.9500  -1.9500  -1.9499  -1.9499  -1.9497  -1.9496  -1.7418  -1.7415
    -1.7414  -1.7411  -1.5623  -1.5620  -1.5620  -1.5620  -1.5620  -1.5619
    -1.5619  -1.5616  -1.4367  -1.4365  -1.4365  -1.4363  -1.3374  -1.3372
    -1.3371  -1.3369  -1.0384  -1.0383  -1.0381  -1.0381  -1.0381  -1.0381
    -1.0379  -1.0378  -0.7031  -0.7028  -0.7026  -0.7026  -0.7026  -0.7025
    -0.7024  -0.7021  -0.6398  -0.6395  -0.6394  -0.6394  -0.6394  -0.6393
    -0.6392  -0.6389  -0.5794  -0.5791  -0.5790  -0.5790  -0.5790  -0.5790
    -0.5789  -0.5786  -0.5201  -0.5200  -0.5195  -0.5195  -0.5195  -0.5195
    -0.5194  -0.5194  -0.5194  -0.5194  -0.5194  -0.5194  -0.5194  -0.5194
    -0.5189  -0.5188  -0.4692  -0.4690  -0.4689  -0.4688  -0.4688  -0.4688
    -0.4687  -0.4685  -0.4264  -0.4261  -0.4260  -0.4259  -0.4259  -0.4258
    -0.4258  -0.4255  -0.3271  -0.3267  -0.3265  -0.3265  -0.3264  -0.3264
    -0.3264  -0.3264  -0.3264  -0.3264  -0.3264  -0.3264  -0.3263  -0.3263
    -0.3261  -0.3257  -0.2820  -0.2818  -0.2816  -0.2816  -0.2816  -0.2816
    -0.2814  -0.2813  -0.2451  -0.2449  -0.0002  -0.0001   0.0001   0.0001
     0.0002   0.0002   0.0004   0.0005   0.1230   0.1232   0.1233   0.1233
     0.1233   0.1234   0.1235   0.1237   0.1920   0.1922   0.1927   0.1927
     0.1927   0.1927   0.1927   0.1928   0.1928   0.1928   0.1928   0.1928
     0.1928   0.1928   0.1933   0.1935   0.7372   0.7373   0.7375   0.7376
     0.7607   0.7609   0.7610   0.7610   0.7610   0.7610   0.7611   0.7614
     0.9482   0.9482   0.9487   0.9487   0.9487   0.9487   0.9487   0.9487
     0.9488   0.9488   0.9488   0.9488   0.9488   0.9488   0.9493   0.9493
     1.0300   1.0303   1.0304   1.0304   1.0304   1.0304   1.0305   1.0309
     1.5292   1.5292   1.5294   1.5294   1.5294   1.5295   1.5297   1.5297
     1.8176   1.8177   1.8178   1.8179   1.8179   1.8180   1.8181   1.8182
     1.9753   1.9755   1.9755   1.9755   1.9755   1.9755   1.9756   1.9757
     2.0167   2.0169   2.0169   2.0169   2.0170   2.0170   2.0170   2.0172
     2.0747   2.0747   2.0747   2.0748   2.0749   2.0750   2.0750   2.0750
     2.2761   2.2763   2.2764   2.2765   2.2765   2.2765   2.2765   2.2765
     2.2765   2.2766   2.2766   2.2766   2.2766   2.2767   2.2768   2.2769
     2.2958   2.2961   2.2963   2.2963   2.2963   2.2963   2.2965   2.2968
     2.3270   2.3271   2.3271   2.3272   2.3272   2.3273   2.3273   2.3274
     2.3732   2.3732   2.3732   2.3733   2.3797   2.3798   2.3799   2.3799
     2.4567   2.4568   2.4569   2.4569   2.4570   2.4570   2.4572   2.4572
     2.4726   2.4727   2.4728   2.4728   2.6358   2.6358   2.6361   2.6362
     2.6362   2.6362   2.6362   2.6362   2.6362   2.6362   2.6362   2.6362
     2.6363   2.6364   2.6366   2.6366   2.6980   2.6981   2.7892   2.7893
     2.7894   2.7894   2.7895   2.7895   2.7896   2.7897   2.9998   2.9999
     3.0000   3.0001   3.0001   3.0002   3.0002   3.0002   3.0002   3.0002
     3.0002   3.0002   3.0002   3.0004   3.0004   3.0006   3.0653   3.0654
     3.0654   3.0654   3.0655   3.0655   3.0655   3.0656   3.0755   3.0755
     3.0757   3.0757   3.0758   3.0758   3.0760   3.0760   3.1008   3.1008
     3.1008   3.1009   3.1009   3.1010   3.1010   3.1010   3.1261   3.1263
     3.1264   3.1265   3.1265   3.1266   3.1266   3.1268   3.1463   3.1463
     3.1465   3.1465   3.1465   3.1466   3.1468   3.1468   3.2365   3.2365
     3.2366   3.2367   3.2367   3.2368   3.2369   3.2369   3.2972   3.2972
     3.2973   3.2974   3.2974   3.2974   3.2976   3.2976   3.3846   3.3848
     3.3849   3.3849   3.3849   3.3850   3.3850   3.3852   3.4504   3.4505
     3.4507   3.4507   3.4507   3.4507   3.4508   3.4509   3.4802   3.4804
     3.4804   3.4806   3.4893   3.4896   3.4897   3.4897   3.4897   3.4897
     3.4898   3.4902   3.5636   3.5637   3.5638   3.5640   3.6032   3.6032
     3.6033   3.6034   3.6034   3.6034   3.6034   3.6034   3.6034   3.6034
     3.6034   3.6034   3.6035   3.6035   3.6036   3.6037   3.6233   3.6236
     3.6237   3.6237   3.6238   3.6238   3.6239   3.6241   3.7864   3.7870
     3.7871   3.7872   3.7872   3.7872   3.7872   3.7872   3.7873   3.7873
     3.7873   3.7873   3.7873   3.7874   3.7876   3.7881   3.8123   3.8124
     3.8124   3.8124   3.8124   3.8124   3.8124   3.8125   3.8948   3.8948
     3.8948   3.8948   3.8949   3.8949   3.8949   3.8949   3.9792   3.9796
     3.9797   3.9797   3.9797   3.9798   3.9798   3.9803   4.0969   4.0971
     4.0974   4.0975   4.0975   4.0975   4.0975   4.0975   4.0975   4.0975
     4.0975   4.0975   4.0975   4.0976   4.0979   4.0981   4.1468   4.1469
     4.1469   4.1470   4.1470   4.1470   4.1471   4.1471   4.1976   4.1980
     4.1980   4.1981   4.1981   4.1981   4.1981   4.1986   4.2514   4.2514
     4.2518   4.2519   4.2519   4.2519   4.2519   4.2519   4.2519   4.2519
     4.2519   4.2519   4.2519   4.2519   4.2524   4.2524   4.3335   4.3337
     4.3339   4.3341   4.3446   4.3447   4.3448   4.3448   4.3448   4.3449
     4.3450   4.3450   4.5326   4.5326   4.5327   4.5327   4.5327   4.5328
     4.5328   4.5328   4.5753   4.5754   4.5755   4.5755   4.5756   4.5756
     4.5757   4.5758   4.5899   4.5903   4.5904   4.5904   4.5904   4.5904
     4.5905   4.5909   4.5957   4.5960   4.5961   4.5962   4.5962   4.5962
     4.5963   4.5967   4.6275   4.6277   4.6278   4.6280   4.6446   4.6447
     4.6447   4.6448   4.6448   4.6448   4.6449   4.6450   4.8150   4.8155
     4.8156   4.8156   4.8156   4.8157   4.8157   4.8163   4.8944   4.8946
     4.8947   4.8950   4.9131   4.9131   4.9133   4.9134   4.9134   4.9134
     4.9134   4.9134   4.9134   4.9134   4.9134   4.9134   4.9135   4.9135
     4.9138   4.9138   4.9497   4.9498   4.9500   4.9500   4.9501   4.9501
     4.9503   4.9504   4.9885   4.9890   4.9891   4.9891   4.9891   4.9891
     4.9892   4.9898   5.1153   5.1159   5.1159   5.1159   5.1160   5.1160
     5.1161   5.1167   5.2939   5.2940   5.2941   5.2941   5.2941   5.2941
     5.2943   5.2943   5.3600   5.3600   5.3600   5.3600   5.5149   5.5150
     5.5151   5.5151   5.5151   5.5152   5.5152   5.5154   5.5217   5.5217
     5.5378   5.5385   5.5385   5.5385   5.5386   5.5386   5.5386   5.5394
     5.7921   5.7924   5.7925   5.7929   6.1024   6.1029   6.1029   6.1034

          k = 0.3536 0.3536-0.3536 (348290 PWs)   bands (ev):

    -5.6570  -5.6569  -5.4155  -5.4152  -5.4152  -5.4151  -5.4151  -5.4151
    -5.1783  -5.1781  -5.1781  -5.1781  -5.1780  -5.1779  -4.9475  -4.9473
    -4.9361  -4.9359  -4.9358  -4.9358  -4.9357  -4.9356  -4.7099  -4.7094
    -4.7093  -4.7093  -4.7093  -4.7093  -4.7093  -4.7092  -4.7092  -4.7092
    -4.7090  -4.7088  -4.4946  -4.4943  -4.4943  -4.4942  -4.4941  -4.4941
    -4.2652  -4.2650  -4.2650  -4.2650  -4.2649  -4.2647  -4.2281  -4.2278
    -4.2278  -4.2277  -4.2277  -4.2275  -4.0805  -4.0802  -4.0802  -4.0802
    -4.0801  -4.0799  -4.0217  -4.0213  -4.0212  -4.0211  -4.0211  -4.0211
    -4.0211  -4.0210  -4.0210  -4.0210  -4.0209  -4.0205  -3.8390  -3.8388
    -3.8388  -3.8387  -3.8387  -3.8384  -3.7488  -3.7486  -3.6251  -3.6244
    -3.6244  -3.6244  -3.6244  -3.6243  -3.6243  -3.6243  -3.6243  -3.6243
    -3.6241  -3.6240  -3.5119  -3.5112  -3.5112  -3.5112  -3.5112  -3.5112
    -3.5111  -3.5111  -3.5111  -3.5111  -3.5109  -3.5108  -3.3773  -3.3771
    -3.3770  -3.3770  -3.3768  -3.3768  -3.3067  -3.3066  -3.3065  -3.3065
    -3.3064  -3.3061  -3.1406  -3.1404  -3.1404  -3.1404  -3.1403  -3.1402
    -3.1374  -3.1369  -3.1368  -3.1368  -3.1368  -3.1367  -3.1367  -3.1367
    -3.1367  -3.1367  -3.1365  -3.1362  -3.0799  -3.0797  -3.0796  -3.0796
    -3.0795  -3.0793  -3.0278  -3.0275  -3.0274  -3.0274  -3.0272  -3.0272
    -2.8985  -2.8981  -2.8979  -2.8979  -2.8979  -2.8979  -2.8979  -2.8979
    -2.8979  -2.8978  -2.8976  -2.8975  -2.8321  -2.8319  -2.8317  -2.8317
    -2.8317  -2.8317  -2.8317  -2.8316  -2.8316  -2.8316  -2.8314  -2.8309
    -2.4768  -2.4761  -2.4761  -2.4761  -2.4761  -2.4761  -2.4761  -2.4761
    -2.4761  -2.4760  -2.4758  -2.4757  -2.2082  -2.2079  -2.2079  -2.2079
    -2.2078  -2.2075  -2.1977  -2.1975  -2.1973  -2.1973  -2.1972  -2.1970
    -2.1052  -2.1048  -2.1046  -2.1046  -2.1045  -2.1045  -2.1045  -2.1045
    -2.1045  -2.1045  -2.1043  -2.1040  -1.9972  -1.9968  -1.9966  -1.9966
    -1.9966  -1.9966  -1.9965  -1.9965  -1.9965  -1.9965  -1.9962  -1.9960
    -0.9336  -0.9333  -0.9331  -0.9331  -0.9330  -0.9329  -0.9328  -0.9328
    -0.9326  -0.9326  -0.9326  -0.9326  -0.9326  -0.9325  -0.9325  -0.9325
    -0.9322  -0.9318  -0.9253  -0.9251  -0.9248  -0.9248  -0.9248  -0.9247
    -0.9247  -0.9247  -0.9247  -0.9247  -0.9244  -0.9241  -0.8401  -0.8395
    -0.8395  -0.8395  -0.8394  -0.8393  -0.6468  -0.6466  -0.6466  -0.6466
    -0.6465  -0.6462  -0.5908  -0.5904  -0.5904  -0.5903  -0.5903  -0.5903
    -0.5903  -0.5903  -0.5903  -0.5902  -0.5898  -0.5894  -0.5468  -0.5461
    -0.5461  -0.5460  -0.5460  -0.5459  -0.5141  -0.5137  -0.5136  -0.5136
    -0.5136  -0.5136  -0.5136  -0.5136  -0.5136  -0.5135  -0.5133  -0.5129
    -0.2443  -0.2442  -0.1977  -0.1968  -0.1966  -0.1966  -0.1966  -0.1966
    -0.1966  -0.1965  -0.1965  -0.1965  -0.1964  -0.1963  -0.1650  -0.1647
    -0.1647  -0.1647  -0.1645  -0.1643  -0.1415  -0.1412  -0.1412  -0.1411
    -0.1411  -0.1411  -0.1411  -0.1410  -0.1410  -0.1410  -0.1407  -0.1404
    -0.0855  -0.0854  -0.0852  -0.0852  -0.0851  -0.0850   0.1947   0.1950
     0.1952   0.1952   0.1952   0.1952   0.1952   0.1952   0.1952   0.1953
     0.1957   0.1958   0.4196   0.4198   0.4200   0.4200   0.4202   0.4202
     0.5034   0.5035   0.5036   0.5036   0.5038   0.5039   0.5473   0.5477
     0.5478   0.5478   0.5479   0.5479   0.5500   0.5504   0.5505   0.5505
     0.5505   0.5505   0.5505   0.5505   0.5505   0.5506   0.5510   0.5512
     1.2463   1.2464   1.2467   1.2467   1.2468   1.2468   1.2468   1.2468
     1.2468   1.2468   1.2471   1.2472   1.3534   1.3535   1.3536   1.3536
     1.3539   1.3539   1.3588   1.3592   1.3593   1.3593   1.3593   1.3594
     1.7888   1.7890   1.7890   1.7891   1.7893   1.7894   1.9878   1.9878
     1.9879   1.9879   1.9879   1.9879   1.9880   1.9880   1.9880   1.9880
     1.9882   1.9886   2.0147   2.0149   2.0149   2.0149   2.0150   2.0151
     2.1413   2.1417   2.1417   2.1418   2.1418   2.1418   2.1418   2.1418
     2.1418   2.1418   2.1419   2.1421   2.2080   2.2081   2.2082   2.2082
     2.2083   2.2083   2.2494   2.2496   2.2497   2.2497   2.2497   2.2497
     2.2497   2.2498   2.2498   2.2498   2.2502   2.2504   2.2926   2.2927
     2.3080   2.3084   2.3084   2.3084   2.3084   2.3084   2.3084   2.3085
     2.3085   2.3085   2.3087   2.3089   2.4729   2.4731   2.4731   2.4732
     2.4732   2.4732   2.4732   2.4732   2.4732   2.4732   2.4734   2.4736
     2.6897   2.6900   2.6901   2.6901   2.6902   2.6902   2.7104   2.7106
     2.7108   2.7108   2.7108   2.7109   2.7109   2.7109   2.7109   2.7109
     2.7111   2.7112   2.7539   2.7540   2.7541   2.7543   2.7543   2.7543
     2.7543   2.7543   2.7543   2.7543   2.7545   2.7546   2.7973   2.7973
     2.7974   2.7974   2.7974   2.7974   2.7974   2.7974   2.7975   2.7975
     2.7978   2.7979   2.9213   2.9215   2.9215   2.9215   2.9215   2.9215
     2.9216   2.9216   2.9216   2.9217   2.9218   2.9219   3.0493   3.0495
     3.0495   3.0495   3.0496   3.0496   3.0904   3.0908   3.0909   3.0909
     3.0909   3.0910   3.2316   3.2319   3.2319   3.2319   3.2321   3.2321
     3.2531   3.2533   3.2535   3.2535   3.2535   3.2535   3.2535   3.2535
     3.2536   3.2536   3.2536   3.2537   3.2755   3.2756   3.2756   3.2757
     3.2758   3.2760   3.3203   3.3205   3.3205   3.3206   3.3206   3.3207
     3.3210   3.3211   3.3212   3.3212   3.3214   3.3215   3.3568   3.3570
     3.3571   3.3572   3.3572   3.3572   3.3572   3.3573   3.3573   3.3573
     3.3574   3.3575   3.4466   3.4466   3.4466   3.4467   3.4467   3.4469
     3.5925   3.5928   3.5928   3.5928   3.5928   3.5928   3.5928   3.5929
     3.5929   3.5930   3.5932   3.5933   3.5950   3.5953   3.5955   3.5955
     3.5955   3.5955   3.5955   3.5955   3.5955   3.5956   3.5956   3.5957
     3.6592   3.6592   3.6594   3.6594   3.6594   3.6595   3.6595   3.6595
     3.6595   3.6595   3.6599   3.6599   3.6629   3.6629   3.6630   3.6630
     3.6630   3.6633   3.7898   3.7900   3.7900   3.7900   3.7902   3.7903
     3.8014   3.8017   3.8019   3.8019   3.8019   3.8019   3.8019   3.8019
     3.8020   3.8020   3.8021   3.8021   3.8226   3.8227   3.8227   3.8228
     3.8228   3.8230   3.8681   3.8684   3.8685   3.8685   3.8686   3.8686
     4.0181   4.0181   4.0182   4.0182   4.0182   4.0185   4.0572   4.0573
     4.0575   4.0575   4.0575   4.0575   4.0575   4.0575   4.0576   4.0576
     4.0578   4.0580   4.0789   4.0792   4.0793   4.0793   4.0793   4.0794
     4.0794   4.0794   4.0794   4.0794   4.0796   4.0797   4.0870   4.0871
     4.0871   4.0871   4.0871   4.0875   4.2897   4.2899   4.2900   4.2900
     4.2901   4.2904   4.3077   4.3079   4.3079   4.3080   4.3080   4.3080
     4.3080   4.3080   4.3081   4.3081   4.3084   4.3086   4.3721   4.3724
     4.3725   4.3725   4.3726   4.3726   4.3929   4.3930   4.3931   4.3931
     4.3931   4.3935   4.4395   4.4398   4.4399   4.4399   4.4399   4.4400
     4.5026   4.5027   4.5027   4.5028   4.5028   4.5031   4.5680   4.5683
     4.5686   4.5686   4.5686   4.5686   4.5687   4.5687   4.5687   4.5687
     4.5688   4.5689   4.6300   4.6302   4.6303   4.6303   4.6303   4.6306
     4.6663   4.6669   4.6671   4.6671   4.6671   4.6671   4.6672   4.6672
     4.6672   4.6672   4.6672   4.6673   4.6820   4.6822   4.6822   4.6823
     4.6824   4.6826   4.6961   4.6961   4.6962   4.6962   4.6962   4.6967
     4.8370   4.8374   4.8374   4.8374   4.8375   4.8375   4.8462   4.8462
     4.8462   4.8463   4.8463   4.8466   4.9057   4.9057   4.9058   4.9058
     4.9058   4.9062   4.9405   4.9409   4.9410   4.9410   4.9410   4.9410
     5.0727   5.0728   5.0728   5.0732   5.2285   5.2285   5.2286   5.2286
     5.2286   5.2290   5.2394   5.2402   5.2404   5.2404   5.2404   5.2404
     5.2404   5.2404   5.2405   5.2405   5.2406   5.2407   5.2926   5.2928
     5.2929   5.2929   5.2929   5.2934   5.3599   5.3600   5.4290   5.4290
     5.4291   5.4291   5.4291   5.4296   5.4623   5.4623   5.4623   5.4628
     5.6168   5.6174   5.6176   5.6176   5.6176   5.6176   5.8675   5.8676
     5.8677   5.8677   5.8677   5.8683   6.0776   6.0777   6.0777   6.0782

          k = 0.3536-0.3536-0.3536 (348290 PWs)   bands (ev):

    -5.6570  -5.6569  -5.4154  -5.4152  -5.4152  -5.4151  -5.4151  -5.4151
    -5.1783  -5.1781  -5.1781  -5.1781  -5.1780  -5.1779  -4.9475  -4.9473
    -4.9361  -4.9359  -4.9358  -4.9358  -4.9357  -4.9356  -4.7099  -4.7094
    -4.7093  -4.7093  -4.7093  -4.7093  -4.7093  -4.7092  -4.7092  -4.7092
    -4.7090  -4.7088  -4.4946  -4.4943  -4.4942  -4.4942  -4.4941  -4.4941
    -4.2652  -4.2650  -4.2650  -4.2650  -4.2649  -4.2647  -4.2281  -4.2278
    -4.2278  -4.2277  -4.2277  -4.2275  -4.0805  -4.0802  -4.0802  -4.0802
    -4.0801  -4.0799  -4.0217  -4.0213  -4.0212  -4.0211  -4.0211  -4.0211
    -4.0211  -4.0210  -4.0210  -4.0210  -4.0209  -4.0205  -3.8390  -3.8388
    -3.8388  -3.8387  -3.8387  -3.8384  -3.7488  -3.7486  -3.6251  -3.6244
    -3.6244  -3.6244  -3.6244  -3.6243  -3.6243  -3.6243  -3.6243  -3.6243
    -3.6241  -3.6240  -3.5119  -3.5112  -3.5112  -3.5112  -3.5112  -3.5112
    -3.5111  -3.5111  -3.5111  -3.5111  -3.5109  -3.5108  -3.3773  -3.3771
    -3.3770  -3.3770  -3.3768  -3.3768  -3.3067  -3.3066  -3.3065  -3.3065
    -3.3064  -3.3061  -3.1406  -3.1404  -3.1404  -3.1404  -3.1403  -3.1402
    -3.1374  -3.1369  -3.1368  -3.1368  -3.1368  -3.1367  -3.1367  -3.1367
    -3.1367  -3.1367  -3.1365  -3.1362  -3.0799  -3.0797  -3.0796  -3.0796
    -3.0795  -3.0793  -3.0278  -3.0275  -3.0274  -3.0274  -3.0272  -3.0272
    -2.8985  -2.8981  -2.8979  -2.8979  -2.8979  -2.8979  -2.8979  -2.8979
    -2.8979  -2.8978  -2.8976  -2.8975  -2.8321  -2.8319  -2.8317  -2.8317
    -2.8317  -2.8317  -2.8317  -2.8316  -2.8316  -2.8316  -2.8314  -2.8309
    -2.4768  -2.4761  -2.4761  -2.4761  -2.4761  -2.4761  -2.4761  -2.4761
    -2.4761  -2.4760  -2.4758  -2.4757  -2.2082  -2.2079  -2.2079  -2.2079
    -2.2078  -2.2075  -2.1977  -2.1975  -2.1973  -2.1973  -2.1972  -2.1970
    -2.1052  -2.1048  -2.1046  -2.1046  -2.1045  -2.1045  -2.1045  -2.1045
    -2.1045  -2.1045  -2.1043  -2.1040  -1.9972  -1.9968  -1.9966  -1.9966
    -1.9966  -1.9966  -1.9965  -1.9965  -1.9965  -1.9965  -1.9962  -1.9960
    -0.9336  -0.9333  -0.9331  -0.9331  -0.9330  -0.9329  -0.9328  -0.9328
    -0.9326  -0.9326  -0.9326  -0.9326  -0.9326  -0.9325  -0.9325  -0.9325
    -0.9322  -0.9318  -0.9253  -0.9251  -0.9248  -0.9248  -0.9248  -0.9247
    -0.9247  -0.9247  -0.9247  -0.9247  -0.9244  -0.9241  -0.8401  -0.8395
    -0.8395  -0.8395  -0.8394  -0.8393  -0.6468  -0.6466  -0.6466  -0.6466
    -0.6465  -0.6462  -0.5908  -0.5904  -0.5903  -0.5903  -0.5903  -0.5903
    -0.5903  -0.5903  -0.5903  -0.5902  -0.5898  -0.5894  -0.5468  -0.5461
    -0.5461  -0.5460  -0.5460  -0.5459  -0.5141  -0.5137  -0.5136  -0.5136
    -0.5136  -0.5136  -0.5136  -0.5136  -0.5136  -0.5135  -0.5133  -0.5129
    -0.2443  -0.2442  -0.1977  -0.1968  -0.1966  -0.1966  -0.1966  -0.1966
    -0.1966  -0.1965  -0.1965  -0.1965  -0.1964  -0.1963  -0.1650  -0.1647
    -0.1647  -0.1647  -0.1645  -0.1643  -0.1415  -0.1412  -0.1412  -0.1411
    -0.1411  -0.1411  -0.1411  -0.1410  -0.1410  -0.1410  -0.1407  -0.1404
    -0.0855  -0.0854  -0.0852  -0.0852  -0.0851  -0.0850   0.1947   0.1950
     0.1952   0.1952   0.1952   0.1952   0.1952   0.1952   0.1952   0.1953
     0.1957   0.1958   0.4196   0.4198   0.4200   0.4200   0.4202   0.4202
     0.5034   0.5035   0.5035   0.5036   0.5038   0.5039   0.5473   0.5477
     0.5478   0.5478   0.5479   0.5479   0.5500   0.5504   0.5505   0.5505
     0.5505   0.5505   0.5505   0.5505   0.5505   0.5506   0.5510   0.5512
     1.2463   1.2464   1.2467   1.2467   1.2468   1.2468   1.2468   1.2468
     1.2468   1.2468   1.2471   1.2472   1.3534   1.3535   1.3536   1.3536
     1.3539   1.3539   1.3588   1.3592   1.3593   1.3593   1.3593   1.3594
     1.7888   1.7890   1.7890   1.7891   1.7893   1.7894   1.9878   1.9879
     1.9879   1.9879   1.9879   1.9879   1.9879   1.9880   1.9880   1.9880
     1.9882   1.9886   2.0147   2.0149   2.0149   2.0149   2.0150   2.0151
     2.1413   2.1417   2.1417   2.1418   2.1418   2.1418   2.1418   2.1418
     2.1418   2.1418   2.1419   2.1421   2.2080   2.2081   2.2082   2.2082
     2.2083   2.2083   2.2494   2.2496   2.2497   2.2497   2.2497   2.2497
     2.2497   2.2498   2.2498   2.2498   2.2502   2.2504   2.2926   2.2927
     2.3080   2.3084   2.3084   2.3084   2.3084   2.3084   2.3084   2.3085
     2.3085   2.3085   2.3087   2.3089   2.4729   2.4731   2.4731   2.4732
     2.4732   2.4732   2.4732   2.4732   2.4732   2.4732   2.4734   2.4736
     2.6897   2.6900   2.6901   2.6901   2.6902   2.6902   2.7104   2.7106
     2.7108   2.7108   2.7108   2.7109   2.7109   2.7109   2.7109   2.7109
     2.7111   2.7112   2.7539   2.7540   2.7541   2.7543   2.7543   2.7543
     2.7543   2.7543   2.7543   2.7543   2.7545   2.7546   2.7973   2.7973
     2.7974   2.7974   2.7974   2.7974   2.7974   2.7974   2.7975   2.7975
     2.7978   2.7979   2.9213   2.9215   2.9215   2.9215   2.9215   2.9215
     2.9216   2.9216   2.9216   2.9216   2.9218   2.9219   3.0493   3.0495
     3.0495   3.0495   3.0496   3.0496   3.0904   3.0908   3.0909   3.0909
     3.0909   3.0910   3.2316   3.2319   3.2319   3.2319   3.2321   3.2321
     3.2531   3.2533   3.2535   3.2535   3.2535   3.2535   3.2535   3.2535
     3.2536   3.2536   3.2536   3.2537   3.2755   3.2756   3.2756   3.2757
     3.2758   3.2760   3.3203   3.3205   3.3205   3.3206   3.3206   3.3207
     3.3210   3.3211   3.3212   3.3212   3.3214   3.3215   3.3568   3.3570
     3.3571   3.3572   3.3572   3.3572   3.3572   3.3573   3.3573   3.3573
     3.3574   3.3575   3.4466   3.4466   3.4466   3.4467   3.4467   3.4469
     3.5925   3.5928   3.5928   3.5928   3.5928   3.5928   3.5928   3.5929
     3.5929   3.5930   3.5933   3.5933   3.5950   3.5953   3.5955   3.5955
     3.5955   3.5955   3.5955   3.5955   3.5955   3.5956   3.5956   3.5957
     3.6592   3.6592   3.6594   3.6594   3.6594   3.6595   3.6595   3.6595
     3.6595   3.6595   3.6599   3.6599   3.6629   3.6629   3.6630   3.6630
     3.6630   3.6633   3.7898   3.7900   3.7900   3.7900   3.7902   3.7903
     3.8014   3.8017   3.8019   3.8019   3.8019   3.8019   3.8019   3.8019
     3.8020   3.8020   3.8021   3.8022   3.8226   3.8227   3.8227   3.8228
     3.8228   3.8230   3.8681   3.8684   3.8685   3.8685   3.8686   3.8686
     4.0181   4.0181   4.0182   4.0182   4.0182   4.0185   4.0572   4.0573
     4.0575   4.0575   4.0575   4.0575   4.0575   4.0575   4.0576   4.0576
     4.0578   4.0580   4.0789   4.0792   4.0793   4.0793   4.0793   4.0794
     4.0794   4.0794   4.0794   4.0794   4.0796   4.0797   4.0870   4.0871
     4.0871   4.0871   4.0871   4.0875   4.2897   4.2899   4.2900   4.2900
     4.2901   4.2904   4.3077   4.3079   4.3079   4.3080   4.3080   4.3080
     4.3080   4.3080   4.3081   4.3081   4.3084   4.3086   4.3721   4.3724
     4.3725   4.3725   4.3726   4.3726   4.3929   4.3930   4.3931   4.3931
     4.3931   4.3935   4.4395   4.4398   4.4399   4.4399   4.4399   4.4400
     4.5026   4.5027   4.5027   4.5028   4.5028   4.5031   4.5680   4.5683
     4.5686   4.5686   4.5686   4.5686   4.5687   4.5687   4.5687   4.5687
     4.5688   4.5689   4.6300   4.6302   4.6303   4.6303   4.6303   4.6306
     4.6663   4.6669   4.6671   4.6671   4.6671   4.6671   4.6672   4.6672
     4.6672   4.6672   4.6672   4.6673   4.6820   4.6822   4.6822   4.6823
     4.6824   4.6826   4.6961   4.6961   4.6962   4.6962   4.6962   4.6967
     4.8370   4.8374   4.8374   4.8374   4.8375   4.8375   4.8462   4.8462
     4.8462   4.8463   4.8463   4.8466   4.9057   4.9057   4.9058   4.9058
     4.9058   4.9062   4.9405   4.9409   4.9410   4.9410   4.9410   4.9410
     5.0728   5.0728   5.0728   5.0732   5.2285   5.2285   5.2286   5.2286
     5.2286   5.2290   5.2395   5.2402   5.2404   5.2404   5.2404   5.2404
     5.2404   5.2404   5.2405   5.2405   5.2406   5.2407   5.2926   5.2928
     5.2929   5.2929   5.2929   5.2934   5.3599   5.3600   5.4290   5.4290
     5.4291   5.4291   5.4291   5.4296   5.4623   5.4623   5.4623   5.4628
     5.6168   5.6174   5.6176   5.6176   5.6176   5.6176   5.8675   5.8676
     5.8677   5.8677   5.8677   5.8683   6.0776   6.0777   6.0777   6.0782

          k =-0.7071 0.0000 0.0000 (348554 PWs)   bands (ev):

    -5.6264  -5.6264  -5.5060  -5.5058  -5.5058  -5.5057  -5.1465  -5.1462
    -5.1462  -5.1462  -5.1461  -5.1461  -5.1461  -5.1458  -5.0310  -5.0309
    -5.0308  -5.0308  -5.0308  -5.0308  -5.0308  -5.0306  -4.6891  -4.6888
    -4.6887  -4.6887  -4.6887  -4.6887  -4.6887  -4.6883  -4.6648  -4.6648
    -4.5547  -4.5543  -4.5542  -4.5542  -4.5542  -4.5542  -4.5542  -4.5538
    -4.2278  -4.2276  -4.2275  -4.2275  -4.2275  -4.2275  -4.2274  -4.2273
    -4.1342  -4.1336  -4.1335  -4.1334  -4.1334  -4.1334  -4.1334  -4.1334
    -4.1334  -4.1334  -4.1334  -4.1334  -4.1334  -4.1333  -4.1332  -4.1326
    -3.8684  -3.8682  -3.8681  -3.8681  -3.8680  -3.8680  -3.8679  -3.8677
    -3.7435  -3.7430  -3.7430  -3.7430  -3.7430  -3.7429  -3.7429  -3.7425
    -3.7024  -3.7022  -3.7021  -3.7019  -3.6521  -3.6520  -3.6519  -3.6519
    -3.6519  -3.6519  -3.6518  -3.6517  -3.4983  -3.4980  -3.4979  -3.4979
    -3.4979  -3.4979  -3.4978  -3.4975  -3.3959  -3.3953  -3.3951  -3.3951
    -3.3951  -3.3951  -3.3950  -3.3950  -3.3950  -3.3950  -3.3950  -3.3950
    -3.3950  -3.3950  -3.3948  -3.3941  -3.1730  -3.1727  -3.1726  -3.1726
    -3.1726  -3.1726  -3.1725  -3.1722  -3.0343  -3.0340  -3.0337  -3.0337
    -3.0337  -3.0337  -3.0337  -3.0337  -3.0337  -3.0337  -3.0337  -3.0336
    -3.0336  -3.0336  -3.0333  -3.0331  -3.0145  -3.0142  -3.0140  -3.0140
    -3.0140  -3.0140  -3.0139  -3.0136  -2.8113  -2.8113  -2.7344  -2.7340
    -2.7339  -2.7339  -2.7339  -2.7339  -2.7338  -2.7334  -2.7038  -2.7037
    -2.7035  -2.7035  -2.7035  -2.7035  -2.7033  -2.7032  -2.5480  -2.5472
    -2.5471  -2.5471  -2.5471  -2.5471  -2.5471  -2.5470  -2.5470  -2.5470
    -2.5470  -2.5470  -2.5470  -2.5470  -2.5468  -2.5461  -2.5201  -2.5201
    -2.5200  -2.5199  -2.5199  -2.5199  -2.5198  -2.5197  -2.2286  -2.2284
    -2.2282  -2.2282  -2.2282  -2.2282  -2.2280  -2.2278  -1.9503  -1.9501
    -1.9499  -1.9499  -1.9499  -1.9499  -1.9498  -1.9495  -1.7416  -1.7415
    -1.7414  -1.7414  -1.5624  -1.5620  -1.5620  -1.5620  -1.5620  -1.5620
    -1.5620  -1.5615  -1.4367  -1.4365  -1.4365  -1.4363  -1.3373  -1.3373
    -1.3371  -1.3371  -1.0385  -1.0383  -1.0381  -1.0381  -1.0381  -1.0381
    -1.0379  -1.0377  -0.7029  -0.7028  -0.7026  -0.7026  -0.7026  -0.7026
    -0.7024  -0.7023  -0.6398  -0.6395  -0.6394  -0.6394  -0.6394  -0.6394
    -0.6393  -0.6390  -0.5794  -0.5792  -0.5790  -0.5790  -0.5790  -0.5790
    -0.5788  -0.5786  -0.5202  -0.5197  -0.5195  -0.5195  -0.5195  -0.5195
    -0.5194  -0.5194  -0.5194  -0.5194  -0.5194  -0.5194  -0.5194  -0.5194
    -0.5191  -0.5186  -0.4692  -0.4690  -0.4689  -0.4688  -0.4688  -0.4688
    -0.4687  -0.4685  -0.4262  -0.4262  -0.4259  -0.4259  -0.4259  -0.4259
    -0.4257  -0.4257  -0.3272  -0.3268  -0.3265  -0.3264  -0.3264  -0.3264
    -0.3264  -0.3264  -0.3264  -0.3264  -0.3264  -0.3264  -0.3264  -0.3263
    -0.3260  -0.3256  -0.2820  -0.2817  -0.2816  -0.2816  -0.2816  -0.2816
    -0.2815  -0.2812  -0.2450  -0.2450  -0.0002  -0.0000   0.0001   0.0002
     0.0002   0.0002   0.0004   0.0005   0.1230   0.1231   0.1233   0.1233
     0.1234   0.1234   0.1235   0.1237   0.1921   0.1923   0.1927   0.1927
     0.1927   0.1927   0.1927   0.1927   0.1928   0.1928   0.1928   0.1928
     0.1928   0.1928   0.1932   0.1934   0.7373   0.7373   0.7375   0.7375
     0.7608   0.7608   0.7610   0.7610   0.7610   0.7610   0.7612   0.7613
     0.9482   0.9483   0.9486   0.9487   0.9487   0.9487   0.9487   0.9487
     0.9488   0.9488   0.9488   0.9488   0.9488   0.9489   0.9492   0.9493
     1.0301   1.0303   1.0304   1.0304   1.0304   1.0304   1.0306   1.0307
     1.5291   1.5292   1.5294   1.5294   1.5294   1.5294   1.5297   1.5297
     1.8176   1.8177   1.8178   1.8179   1.8179   1.8180   1.8181   1.8181
     1.9753   1.9755   1.9755   1.9755   1.9755   1.9755   1.9755   1.9757
     2.0168   2.0169   2.0170   2.0170   2.0170   2.0170   2.0171   2.0172
     2.0747   2.0747   2.0748   2.0749   2.0749   2.0749   2.0750   2.0751
     2.2761   2.2763   2.2764   2.2765   2.2765   2.2765   2.2765   2.2765
     2.2766   2.2766   2.2766   2.2766   2.2766   2.2767   2.2768   2.2770
     2.2961   2.2962   2.2963   2.2963   2.2963   2.2963   2.2965   2.2965
     2.3270   2.3271   2.3272   2.3272   2.3272   2.3273   2.3274   2.3274
     2.3731   2.3732   2.3733   2.3733   2.3798   2.3798   2.3798   2.3799
     2.4568   2.4569   2.4569   2.4569   2.4570   2.4570   2.4570   2.4572
     2.4726   2.4727   2.4727   2.4728   2.6358   2.6359   2.6360   2.6362
     2.6362   2.6362   2.6362   2.6362   2.6362   2.6362   2.6362   2.6362
     2.6363   2.6364   2.6366   2.6367   2.6981   2.6981   2.7891   2.7893
     2.7894   2.7894   2.7894   2.7895   2.7896   2.7898   2.9997   2.9998
     3.0001   3.0001   3.0001   3.0001   3.0002   3.0002   3.0002   3.0002
     3.0002   3.0002   3.0002   3.0003   3.0006   3.0006   3.0653   3.0653
     3.0654   3.0655   3.0655   3.0655   3.0656   3.0656   3.0756   3.0756
     3.0757   3.0757   3.0758   3.0758   3.0759   3.0759   3.1007   3.1008
     3.1009   3.1009   3.1009   3.1009   3.1010   3.1011   3.1264   3.1264
     3.1265   3.1265   3.1265   3.1265   3.1266   3.1266   3.1463   3.1465
     3.1465   3.1465   3.1465   3.1465   3.1466   3.1467   3.2365   3.2365
     3.2366   3.2367   3.2367   3.2368   3.2368   3.2369   3.2972   3.2973
     3.2974   3.2974   3.2974   3.2974   3.2975   3.2975   3.3847   3.3848
     3.3849   3.3849   3.3849   3.3849   3.3850   3.3851   3.4505   3.4505
     3.4507   3.4507   3.4507   3.4507   3.4508   3.4509   3.4804   3.4804
     3.4804   3.4804   3.4894   3.4896   3.4897   3.4897   3.4897   3.4897
     3.4899   3.4901   3.5637   3.5638   3.5638   3.5639   3.6030   3.6032
     3.6034   3.6034   3.6034   3.6034   3.6034   3.6034   3.6034   3.6034
     3.6035   3.6035   3.6035   3.6035   3.6037   3.6039   3.6236   3.6237
     3.6237   3.6237   3.6238   3.6238   3.6238   3.6239   3.7870   3.7870
     3.7870   3.7872   3.7872   3.7872   3.7872   3.7873   3.7873   3.7873
     3.7873   3.7873   3.7873   3.7875   3.7875   3.7875   3.8122   3.8123
     3.8124   3.8124   3.8124   3.8124   3.8125   3.8127   3.8947   3.8948
     3.8948   3.8948   3.8949   3.8949   3.8949   3.8950   3.9796   3.9797
     3.9797   3.9797   3.9797   3.9797   3.9797   3.9799   4.0971   4.0972
     4.0974   4.0974   4.0975   4.0975   4.0975   4.0975   4.0975   4.0975
     4.0975   4.0975   4.0976   4.0976   4.0978   4.0979   4.1467   4.1468
     4.1470   4.1470   4.1470   4.1470   4.1471   4.1473   4.1978   4.1981
     4.1981   4.1981   4.1981   4.1981   4.1981   4.1983   4.2513   4.2516
     4.2518   4.2518   4.2519   4.2519   4.2519   4.2519   4.2519   4.2519
     4.2519   4.2519   4.2519   4.2519   4.2522   4.2525   4.3338   4.3338
     4.3338   4.3338   4.3445   4.3447   4.3448   4.3448   4.3448   4.3448
     4.3450   4.3452   4.5323   4.5326   4.5327   4.5327   4.5327   4.5328
     4.5328   4.5331   4.5752   4.5754   4.5755   4.5755   4.5756   4.5756
     4.5757   4.5759   4.5903   4.5904   4.5904   4.5904   4.5904   4.5905
     4.5905   4.5905   4.5961   4.5961   4.5962   4.5962   4.5962   4.5962
     4.5963   4.5963   4.6277   4.6277   4.6278   4.6278   4.6444   4.6446
     4.6447   4.6448   4.6448   4.6448   4.6449   4.6452   4.8155   4.8156
     4.8156   4.8156   4.8156   4.8156   4.8157   4.8158   4.8945   4.8947
     4.8947   4.8948   4.9126   4.9132   4.9133   4.9134   4.9134   4.9134
     4.9134   4.9134   4.9134   4.9134   4.9134   4.9134   4.9134   4.9135
     4.9137   4.9143   4.9497   4.9499   4.9500   4.9500   4.9501   4.9501
     4.9502   4.9504   4.9889   4.9891   4.9891   4.9891   4.9891   4.9891
     4.9892   4.9893   5.1159   5.1159   5.1160   5.1160   5.1160   5.1160
     5.1160   5.1160   5.2937   5.2941   5.2941   5.2941   5.2941   5.2941
     5.2942   5.2946   5.3600   5.3600   5.3600   5.3600   5.5146   5.5150
     5.5151   5.5151   5.5151   5.5151   5.5152   5.5156   5.5217   5.5217
     5.5384   5.5385   5.5385   5.5386   5.5386   5.5386   5.5387   5.5387
     5.7925   5.7925   5.7925   5.7925   6.1029   6.1029   6.1029   6.1029

     highest occupied level (ev):     6.2212

!    total energy              =   -3404.68678015 Ry
     estimated scf accuracy    <          8.2E-09 Ry

     The total energy is the sum of the following terms:
     one-electron contribution =    1027.32407294 Ry
     hartree contribution      =     236.44042430 Ry
     xc contribution           =   -1040.54772969 Ry
     ewald contribution        =   -3627.90354771 Ry

     convergence has been achieved in  14 iterations

     Forces acting on atoms (cartesian axes, Ry/au):

     atom    1 type  1   force =     0.00088468   -0.00126098   -0.00088468
     atom    2 type  1   force =     0.00000481    0.00517173   -0.00000481
     atom    3 type  1   force =     0.00087058   -0.00125869    0.00086814
     atom    4 type  1   force =     0.00006800   -0.00006980    0.00003453
     atom    5 type  1   force =     0.00000031    0.00000084   -0.00001610
     atom    6 type  1   force =     0.00000818   -0.00000327    0.00000285
     atom    7 type  1   force =    -0.00000563    0.00000242    0.00000127
     atom    8 type  1   force =     0.00000843   -0.00000528   -0.00000546
     atom    9 type  1   force =     0.00000337   -0.00000606    0.00000512
     atom   10 type  1   force =     0.00000387    0.00000158   -0.00001466
     atom   11 type  1   force =     0.00000068    0.00000135    0.00002434
     atom   12 type  1   force =     0.00007291   -0.00007440   -0.00004638
     atom   13 type  1   force =    -0.00086814   -0.00125869   -0.00087058
     atom   14 type  1   force =    -0.00003453   -0.00006980   -0.00006800
     atom   15 type  1   force =    -0.00000727   -0.00000661    0.00000727
     atom   16 type  1   force =     0.00000162    0.00001086   -0.00000162
     atom   17 type  1   force =    -0.00000721   -0.00000034   -0.00000066
     atom   18 type  1   force =     0.00000634    0.00000524   -0.00000146
     atom   19 type  1   force =    -0.00000321   -0.00000466   -0.00000226
     atom   20 type  1   force =     0.00000740    0.00000152   -0.00000163
     atom   21 type  1   force =     0.00000135   -0.00000852    0.00000142
     atom   22 type  1   force =    -0.00000111    0.00000489   -0.00000657
     atom   23 type  1   force =    -0.00001562    0.00001101    0.00000912
     atom   24 type  1   force =     0.00004592    0.00016548    0.00004141
     atom   25 type  1   force =     0.00001610    0.00000084   -0.00000031
     atom   26 type  1   force =    -0.00000285   -0.00000327   -0.00000818
     atom   27 type  1   force =     0.00000066   -0.00000034    0.00000721
     atom   28 type  1   force =     0.00000146    0.00000524   -0.00000634
     atom   29 type  1   force =    -0.00000451    0.00000524    0.00000451
     atom   30 type  1   force =     0.00000926   -0.00000355   -0.00000926
     atom   31 type  1   force =    -0.00000520    0.00000727    0.00000988
     atom   32 type  1   force =     0.00000708   -0.00000396   -0.00000636
     atom   33 type  1   force =     0.00000075    0.00000225    0.00000993
     atom   34 type  1   force =     0.00000766    0.00004652    0.00000307
     atom   35 type  1   force =     0.00001700   -0.00006421    0.00002379
     atom   36 type  1   force =     0.00001790   -0.00000987   -0.00001249
     atom   37 type  1   force =    -0.00000127    0.00000242    0.00000563
     atom   38 type  1   force =     0.00000546   -0.00000528   -0.00000843
     atom   39 type  1   force =     0.00000226   -0.00000466    0.00000321
     atom   40 type  1   force =     0.00000163    0.00000152   -0.00000740
     atom   41 type  1   force =    -0.00000988    0.00000727    0.00000520
     atom   42 type  1   force =     0.00000636   -0.00000396   -0.00000708
     atom   43 type  1   force =    -0.00000660    0.00000512    0.00000660
     atom   44 type  1   force =     0.00000530    0.00001666   -0.00000530
     atom   45 type  1   force =     0.00000758   -0.00003151    0.00000508
     atom   46 type  1   force =     0.00000168   -0.00000020   -0.00000858
     atom   47 type  1   force =    -0.00001447    0.00000856    0.00000633
     atom   48 type  1   force =     0.00000650   -0.00000352   -0.00000633
     atom   49 type  1   force =    -0.00000512   -0.00000606   -0.00000337
     atom   50 type  1   force =     0.00001466    0.00000158   -0.00000387
     atom   51 type  1   force =    -0.00000142   -0.00000852   -0.00000135
     atom   52 type  1   force =     0.00000657    0.00000489    0.00000111
     atom   53 type  1   force =    -0.00000993    0.00000225   -0.00000075
     atom   54 type  1   force =    -0.00000307    0.00004652   -0.00000766
     atom   55 type  1   force =    -0.00000508   -0.00003151   -0.00000758
     atom   56 type  1   force =     0.00000858   -0.00000020   -0.00000168
     atom   57 type  1   force =     0.00000085   -0.00000747   -0.00000085
     atom   58 type  1   force =    -0.00000166    0.00001026    0.00000166
     atom   59 type  1   force =    -0.00000758   -0.00000052   -0.00000264
     atom   60 type  1   force =     0.00000715    0.00000535   -0.00000050
     atom   61 type  1   force =    -0.00002434    0.00000135   -0.00000068
     atom   62 type  1   force =     0.00004638   -0.00007440   -0.00007291
     atom   63 type  1   force =    -0.00000912    0.00001101    0.00001562
     atom   64 type  1   force =    -0.00004141    0.00016548   -0.00004592
     atom   65 type  1   force =    -0.00002379   -0.00006421   -0.00001700
     atom   66 type  1   force =     0.00001249   -0.00000987   -0.00001790
     atom   67 type  1   force =    -0.00000633    0.00000856    0.00001447
     atom   68 type  1   force =     0.00000633   -0.00000352   -0.00000650
     atom   69 type  1   force =     0.00000264   -0.00000052    0.00000758
     atom   70 type  1   force =     0.00000050    0.00000535   -0.00000715
     atom   71 type  1   force =    -0.00000545    0.00000649    0.00000545
     atom   72 type  1   force =     0.00000988   -0.00000287   -0.00000988
     atom   73 type  1   force =    -0.00088479   -0.00126331    0.00088479
     atom   74 type  1   force =     0.00003965    0.00015474   -0.00003965
     atom   75 type  1   force =    -0.00000264    0.00000859   -0.00001647
     atom   76 type  1   force =    -0.00000821   -0.00000290    0.00001299
     atom   77 type  1   force =    -0.00000039    0.00000378   -0.00000878
     atom   78 type  1   force =    -0.00000355   -0.00000587    0.00000375
     atom   79 type  1   force =     0.00000360    0.00000167   -0.00000667
     atom   80 type  1   force =    -0.00000031   -0.00000560    0.00000348
     atom   81 type  1   force =     0.00000584   -0.00000176   -0.00000672
     atom   82 type  1   force =    -0.00000557    0.00000440    0.00000791
     atom   83 type  1   force =    -0.00000905    0.00000677   -0.00001458
     atom   84 type  1   force =    -0.00004602   -0.00007658    0.00007087
     atom   85 type  1   force =     0.00001647    0.00000859    0.00000264
     atom   86 type  1   force =    -0.00001299   -0.00000290    0.00000821
     atom   87 type  1   force =     0.00000938   -0.00000759   -0.00000938
     atom   88 type  1   force =    -0.00000931    0.00000830    0.00000931
     atom   89 type  1   force =     0.00000303   -0.00000276   -0.00001015
     atom   90 type  1   force =    -0.00000248    0.00000261    0.00000720
     atom   91 type  1   force =     0.00000266   -0.00000192   -0.00000694
     atom   92 type  1   force =    -0.00000288    0.00000261    0.00001048
     atom   93 type  1   force =     0.00000936   -0.00000698   -0.00000927
     atom   94 type  1   force =    -0.00001931    0.00000413    0.00001152
     atom   95 type  1   force =     0.00001668    0.00000883   -0.00001998
     atom   96 type  1   force =    -0.00000276   -0.00000509    0.00000708
     atom   97 type  1   force =     0.00000878    0.00000378    0.00000039
     atom   98 type  1   force =    -0.00000375   -0.00000587    0.00000355
     atom   99 type  1   force =     0.00001015   -0.00000276   -0.00000303
     atom  100 type  1   force =    -0.00000720    0.00000261    0.00000248
     atom  101 type  1   force =     0.00000090    0.00000657   -0.00000090
     atom  102 type  1   force =    -0.00000457   -0.00000179    0.00000457
     atom  103 type  1   force =     0.00000484    0.00000656   -0.00000086
     atom  104 type  1   force =    -0.00000408   -0.00000630    0.00000639
     atom  105 type  1   force =     0.00001428    0.00000010   -0.00000701
     atom  106 type  1   force =    -0.00000724    0.00000018    0.00000215
     atom  107 type  1   force =     0.00000122    0.00000987   -0.00000140
     atom  108 type  1   force =    -0.00000431   -0.00000471    0.00000471
     atom  109 type  1   force =     0.00000667    0.00000167   -0.00000360
     atom  110 type  1   force =    -0.00000348   -0.00000560    0.00000031
     atom  111 type  1   force =     0.00000694   -0.00000192   -0.00000266
     atom  112 type  1   force =    -0.00001048    0.00000261    0.00000288
     atom  113 type  1   force =     0.00000086    0.00000656   -0.00000484
     atom  114 type  1   force =    -0.00000639   -0.00000630    0.00000408
     atom  115 type  1   force =     0.00000691    0.00000295   -0.00000691
     atom  116 type  1   force =    -0.00000098   -0.00000734    0.00000098
     atom  117 type  1   force =     0.00000714   -0.00000166   -0.00000299
     atom  118 type  1   force =    -0.00001016    0.00000179    0.00000267
     atom  119 type  1   force =     0.00000082    0.00000636   -0.00000445
     atom  120 type  1   force =    -0.00000480   -0.00000672    0.00000042
     atom  121 type  1   force =     0.00000672   -0.00000176   -0.00000584
     atom  122 type  1   force =    -0.00000791    0.00000440    0.00000557
     atom  123 type  1   force =     0.00000927   -0.00000698   -0.00000936
     atom  124 type  1   force =    -0.00001152    0.00000413    0.00001931
     atom  125 type  1   force =     0.00000701    0.00000010   -0.00001428
     atom  126 type  1   force =    -0.00000215    0.00000018    0.00000724
     atom  127 type  1   force =     0.00000299   -0.00000166   -0.00000714
     atom  128 type  1   force =    -0.00000267    0.00000179    0.00001016
     atom  129 type  1   force =     0.00000912   -0.00000896   -0.00000912
     atom  130 type  1   force =    -0.00000906    0.00000873    0.00000906
     atom  131 type  1   force =     0.00000307   -0.00000261   -0.00000973
     atom  132 type  1   force =    -0.00000306    0.00000244    0.00000707
     atom  133 type  1   force =     0.00001458    0.00000677    0.00000905
     atom  134 type  1   force =    -0.00007087   -0.00007658    0.00004602
     atom  135 type  1   force =     0.00001998    0.00000883   -0.00001668
     atom  136 type  1   force =    -0.00000708   -0.00000509    0.00000276
     atom  137 type  1   force =     0.00000140    0.00000987   -0.00000122
     atom  138 type  1   force =    -0.00000471   -0.00000471    0.00000431
     atom  139 type  1   force =     0.00000445    0.00000636   -0.00000082
     atom  140 type  1   force =    -0.00000042   -0.00000672    0.00000480
     atom  141 type  1   force =     0.00000973   -0.00000261   -0.00000307
     atom  142 type  1   force =    -0.00000707    0.00000244    0.00000306
     atom  143 type  1   force =     0.00000147    0.00000602   -0.00000147
     atom  144 type  1   force =    -0.00000469   -0.00000311    0.00000469
     atom  145 type  1   force =     0.00001242   -0.00006596   -0.00001242
     atom  146 type  1   force =     0.00001204    0.00003601   -0.00001204
     atom  147 type  1   force =    -0.00000308   -0.00000204    0.00000172
     atom  148 type  1   force =    -0.00000330   -0.00000020   -0.00000258
     atom  149 type  1   force =    -0.00000663    0.00000215    0.00000165
     atom  150 type  1   force =     0.00000564   -0.00000797   -0.00000669
     atom  151 type  1   force =    -0.00000890    0.00000351    0.00000712
     atom  152 type  1   force =     0.00000578   -0.00000499   -0.00000260
     atom  153 type  1   force =    -0.00000330   -0.00000397    0.00000454
     atom  154 type  1   force =    -0.00001354    0.00000170   -0.00000070
     atom  155 type  1   force =     0.00001425   -0.00000319    0.00001202
     atom  156 type  1   force =     0.00001404   -0.00001328   -0.00000364
     atom  157 type  1   force =    -0.00000172   -0.00000204    0.00000308
     atom  158 type  1   force =     0.00000258   -0.00000020    0.00000330
     atom  159 type  1   force =     0.00000303   -0.00001001   -0.00000303
     atom  160 type  1   force =    -0.00000255    0.00000687    0.00000255
     atom  161 type  1   force =    -0.00000606   -0.00000094   -0.00000100
     atom  162 type  1   force =     0.00000214    0.00000470    0.00000473
     atom  163 type  1   force =    -0.00000570   -0.00000415   -0.00000075
     atom  164 type  1   force =     0.00000298    0.00000152    0.00000624
     atom  165 type  1   force =     0.00000694   -0.00001160   -0.00000429
     atom  166 type  1   force =    -0.00000232    0.00000502    0.00000230
     atom  167 type  1   force =    -0.00000608    0.00000297   -0.00000094
     atom  168 type  1   force =     0.00000197    0.00000221    0.00000487
     atom  169 type  1   force =    -0.00000165    0.00000215    0.00000663
     atom  170 type  1   force =     0.00000669   -0.00000797   -0.00000564
     atom  171 type  1   force =     0.00000100   -0.00000094    0.00000606
     atom  172 type  1   force =    -0.00000473    0.00000470   -0.00000214
     atom  173 type  1   force =    -0.00000541    0.00000583    0.00000541
     atom  174 type  1   force =     0.00000286   -0.00000360   -0.00000286
     atom  175 type  1   force =    -0.00000160    0.00000259    0.00000468
     atom  176 type  1   force =     0.00000795   -0.00000874   -0.00000399
     atom  177 type  1   force =     0.00000091    0.00000095    0.00000570
     atom  178 type  1   force =    -0.00000446    0.00000328   -0.00000228
     atom  179 type  1   force =    -0.00000567    0.00000723    0.00000560
     atom  180 type  1   force =     0.00000416   -0.00000537   -0.00000455
     atom  181 type  1   force =    -0.00000712    0.00000351    0.00000890
     atom  182 type  1   force =     0.00000260   -0.00000499   -0.00000578
     atom  183 type  1   force =     0.00000075   -0.00000415    0.00000570
     atom  184 type  1   force =    -0.00000624    0.00000152   -0.00000298
     atom  185 type  1   force =    -0.00000468    0.00000259    0.00000160
     atom  186 type  1   force =     0.00000399   -0.00000874   -0.00000795
     atom  187 type  1   force =    -0.00000772    0.00000499    0.00000772
     atom  188 type  1   force =     0.00000347   -0.00000658   -0.00000347
     atom  189 type  1   force =     0.00000070   -0.00000394    0.00000576
     atom  190 type  1   force =    -0.00000472   -0.00000000   -0.00000604
     atom  191 type  1   force =    -0.00000565    0.00000353    0.00000364
     atom  192 type  1   force =     0.00000402   -0.00000866   -0.00000828
     atom  193 type  1   force =    -0.00000454   -0.00000397    0.00000330
     atom  194 type  1   force =     0.00000070    0.00000170    0.00001354
     atom  195 type  1   force =     0.00000429   -0.00001160   -0.00000694
     atom  196 type  1   force =    -0.00000230    0.00000502    0.00000232
     atom  197 type  1   force =    -0.00000570    0.00000095   -0.00000091
     atom  198 type  1   force =     0.00000228    0.00000328    0.00000446
     atom  199 type  1   force =    -0.00000576   -0.00000394   -0.00000070
     atom  200 type  1   force =     0.00000604   -0.00000000    0.00000472
     atom  201 type  1   force =     0.00000281   -0.00001007   -0.00000281
     atom  202 type  1   force =    -0.00000255    0.00000662    0.00000255
     atom  203 type  1   force =    -0.00000586   -0.00000108   -0.00000069
     atom  204 type  1   force =     0.00000199    0.00000447    0.00000420
     atom  205 type  1   force =    -0.00001202   -0.00000319   -0.00001425
     atom  206 type  1   force =     0.00000364   -0.00001328   -0.00001404
     atom  207 type  1   force =     0.00000094    0.00000297    0.00000608
     atom  208 type  1   force =    -0.00000487    0.00000221   -0.00000197
     atom  209 type  1   force =    -0.00000560    0.00000723    0.00000567
     atom  210 type  1   force =     0.00000455   -0.00000537   -0.00000416
     atom  211 type  1   force =    -0.00000364    0.00000353    0.00000565
     atom  212 type  1   force =     0.00000828   -0.00000866   -0.00000402
     atom  213 type  1   force =     0.00000069   -0.00000108    0.00000586
     atom  214 type  1   force =    -0.00000420    0.00000447   -0.00000199
     atom  215 type  1   force =    -0.00000598    0.00000537    0.00000598
     atom  216 type  1   force =     0.00000214   -0.00000268   -0.00000214
     atom  217 type  1   force =    -0.00000106   -0.00002241    0.00000106
     atom  218 type  1   force =     0.00000560    0.00001666   -0.00000560
     atom  219 type  1   force =     0.00000259   -0.00000374   -0.00000041
     atom  220 type  1   force =     0.00000232    0.00000001   -0.00000486
     atom  221 type  1   force =    -0.00000950    0.00000695    0.00000295
     atom  222 type  1   force =     0.00000625   -0.00000320   -0.00000449
     atom  223 type  1   force =    -0.00000628    0.00000409    0.00000309
     atom  224 type  1   force =     0.00000530   -0.00000504   -0.00000233
     atom  225 type  1   force =     0.00000755   -0.00000592    0.00000071
     atom  226 type  1   force =     0.00000205    0.00000150   -0.00000569
     atom  227 type  1   force =    -0.00001449    0.00000927    0.00000159
     atom  228 type  1   force =     0.00000614   -0.00000423   -0.00000342
     atom  229 type  1   force =     0.00000041   -0.00000374   -0.00000259
     atom  230 type  1   force =     0.00000486    0.00000001   -0.00000232
     atom  231 type  1   force =     0.00000287   -0.00000656   -0.00000287
     atom  232 type  1   force =    -0.00000307    0.00000943    0.00000307
     atom  233 type  1   force =    -0.00000554   -0.00000029   -0.00000493
     atom  234 type  1   force =     0.00000329    0.00000549    0.00000159
     atom  235 type  1   force =     0.00000033   -0.00000448   -0.00000570
     atom  236 type  1   force =     0.00000623    0.00000072    0.00000126
     atom  237 type  1   force =     0.00000273   -0.00000583   -0.00000332
     atom  238 type  1   force =    -0.00000297    0.00000949    0.00000306
     atom  239 type  1   force =    -0.00000571    0.00000056   -0.00000488
     atom  240 type  1   force =     0.00000583    0.00000365    0.00000064
     atom  241 type  1   force =    -0.00000295    0.00000695    0.00000950
     atom  242 type  1   force =     0.00000449   -0.00000320   -0.00000625
     atom  243 type  1   force =     0.00000493   -0.00000029    0.00000554
     atom  244 type  1   force =    -0.00000159    0.00000549   -0.00000329
     atom  245 type  1   force =    -0.00000217    0.00000543    0.00000217
     atom  246 type  1   force =     0.00000790   -0.00000420   -0.00000790
     atom  247 type  1   force =    -0.00000363    0.00000875    0.00000731
     atom  248 type  1   force =     0.00000576   -0.00000380   -0.00000341
     atom  249 type  1   force =     0.00000476    0.00000044    0.00000537
     atom  250 type  1   force =    -0.00000084    0.00000402   -0.00000599
     atom  251 type  1   force =    -0.00000307    0.00000675    0.00000327
     atom  252 type  1   force =     0.00000795   -0.00000527   -0.00000820
     atom  253 type  1   force =    -0.00000309    0.00000409    0.00000628
     atom  254 type  1   force =     0.00000233   -0.00000504   -0.00000530
     atom  255 type  1   force =     0.00000570   -0.00000448   -0.00000033
     atom  256 type  1   force =    -0.00000126    0.00000072   -0.00000623
     atom  257 type  1   force =    -0.00000731    0.00000875    0.00000363
     atom  258 type  1   force =     0.00000341   -0.00000380   -0.00000576
     atom  259 type  1   force =    -0.00000395    0.00000528    0.00000395
     atom  260 type  1   force =     0.00000557   -0.00000605   -0.00000557
     atom  261 type  1   force =     0.00000461   -0.00000360    0.00000186
     atom  262 type  1   force =    -0.00000120    0.00000022   -0.00000624
     atom  263 type  1   force =    -0.00000754    0.00000827    0.00000408
     atom  264 type  1   force =     0.00000303   -0.00000407   -0.00000562
     atom  265 type  1   force =    -0.00000071   -0.00000592   -0.00000755
     atom  266 type  1   force =     0.00000569    0.00000150   -0.00000205
     atom  267 type  1   force =     0.00000332   -0.00000583   -0.00000273
     atom  268 type  1   force =    -0.00000306    0.00000949    0.00000297
     atom  269 type  1   force =    -0.00000537    0.00000044   -0.00000476
     atom  270 type  1   force =     0.00000599    0.00000402    0.00000084
     atom  271 type  1   force =    -0.00000186   -0.00000360   -0.00000461
     atom  272 type  1   force =     0.00000624    0.00000022    0.00000120
     atom  273 type  1   force =     0.00000293   -0.00000674   -0.00000293
     atom  274 type  1   force =    -0.00000334    0.00000983    0.00000334
     atom  275 type  1   force =    -0.00000514   -0.00000022   -0.00000479
     atom  276 type  1   force =     0.00000435    0.00000565    0.00000249
     atom  277 type  1   force =    -0.00000159    0.00000927    0.00001449
     atom  278 type  1   force =     0.00000342   -0.00000423   -0.00000614
     atom  279 type  1   force =     0.00000488    0.00000056    0.00000571
     atom  280 type  1   force =    -0.00000064    0.00000365   -0.00000583
     atom  281 type  1   force =    -0.00000327    0.00000675    0.00000307
     atom  282 type  1   force =     0.00000820   -0.00000527   -0.00000795
     atom  283 type  1   force =    -0.00000408    0.00000827    0.00000754
     atom  284 type  1   force =     0.00000562   -0.00000407   -0.00000303
     atom  285 type  1   force =     0.00000479   -0.00000022    0.00000514
     atom  286 type  1   force =    -0.00000249    0.00000565   -0.00000435
     atom  287 type  1   force =    -0.00000118    0.00000664    0.00000118
     atom  288 type  1   force =     0.00000791   -0.00000460   -0.00000791
     atom  289 type  1   force =     0.00000183   -0.00002461   -0.00000183
     atom  290 type  1   force =    -0.00000965    0.00003551    0.00000965
     atom  291 type  1   force =     0.00000323    0.00000040   -0.00000680
     atom  292 type  1   force =    -0.00000036   -0.00000283    0.00000507
     atom  293 type  1   force =    -0.00000290    0.00000397   -0.00000628
     atom  294 type  1   force =     0.00000351   -0.00000555    0.00000585
     atom  295 type  1   force =     0.00000174    0.00000051   -0.00000618
     atom  296 type  1   force =     0.00000012   -0.00000560    0.00000229
     atom  297 type  1   force =     0.00000524   -0.00000176   -0.00000522
     atom  298 type  1   force =    -0.00000915    0.00000353    0.00000418
     atom  299 type  1   force =    -0.00000092    0.00000602   -0.00000702
     atom  300 type  1   force =    -0.00000238   -0.00000675    0.00000347
     atom  301 type  1   force =     0.00000680    0.00000040   -0.00000323
     atom  302 type  1   force =    -0.00000507   -0.00000283    0.00000036
     atom  303 type  1   force =     0.00000945   -0.00000722   -0.00000945
     atom  304 type  1   force =    -0.00001410    0.00001010    0.00001410
     atom  305 type  1   force =     0.00000752   -0.00000221   -0.00001187
     atom  306 type  1   force =    -0.00000315    0.00000241    0.00000702
     atom  307 type  1   force =     0.00000309   -0.00000180   -0.00000792
     atom  308 type  1   force =    -0.00000305    0.00000289    0.00001028
     atom  309 type  1   force =     0.00000921   -0.00000829   -0.00000987
     atom  310 type  1   force =    -0.00000926    0.00000847    0.00000931
     atom  311 type  1   force =     0.00000339   -0.00000161   -0.00001057
     atom  312 type  1   force =    -0.00000223    0.00000013    0.00000695
     atom  313 type  1   force =     0.00000628    0.00000397    0.00000290
     atom  314 type  1   force =    -0.00000585   -0.00000555   -0.00000351
     atom  315 type  1   force =     0.00001187   -0.00000221   -0.00000752
     atom  316 type  1   force =    -0.00000702    0.00000241    0.00000315
     atom  317 type  1   force =     0.00000175    0.00000645   -0.00000175
     atom  318 type  1   force =    -0.00000457   -0.00000226    0.00000457
     atom  319 type  1   force =     0.00000483    0.00000664   -0.00000134
     atom  320 type  1   force =    -0.00000094   -0.00000631    0.00000480
     atom  321 type  1   force =     0.00001016   -0.00000161   -0.00000343
     atom  322 type  1   force =    -0.00000724    0.00000135    0.00000279
     atom  323 type  1   force =     0.00000150    0.00000809   -0.00000143
     atom  324 type  1   force =    -0.00000444   -0.00000473    0.00000496
     atom  325 type  1   force =     0.00000618    0.00000051   -0.00000174
     atom  326 type  1   force =    -0.00000229   -0.00000560   -0.00000012
     atom  327 type  1   force =     0.00000792   -0.00000180   -0.00000309
     atom  328 type  1   force =    -0.00001028    0.00000289    0.00000305
     atom  329 type  1   force =     0.00000134    0.00000664   -0.00000483
     atom  330 type  1   force =    -0.00000480   -0.00000631    0.00000094
     atom  331 type  1   force =     0.00000459    0.00000328   -0.00000459
     atom  332 type  1   force =    -0.00000127   -0.00000710    0.00000127
     atom  333 type  1   force =     0.00000712   -0.00000144   -0.00000296
     atom  334 type  1   force =    -0.00001069    0.00000173    0.00000341
     atom  335 type  1   force =     0.00000153    0.00000653   -0.00000502
     atom  336 type  1   force =    -0.00000562   -0.00000574    0.00000432
     atom  337 type  1   force =     0.00000522   -0.00000176   -0.00000524
     atom  338 type  1   force =    -0.00000418    0.00000353    0.00000915
     atom  339 type  1   force =     0.00000987   -0.00000829   -0.00000921
     atom  340 type  1   force =    -0.00000931    0.00000847    0.00000926
     atom  341 type  1   force =     0.00000343   -0.00000161   -0.00001016
     atom  342 type  1   force =    -0.00000279    0.00000135    0.00000724
     atom  343 type  1   force =     0.00000296   -0.00000144   -0.00000712
     atom  344 type  1   force =    -0.00000341    0.00000173    0.00001069
     atom  345 type  1   force =     0.00000971   -0.00000881   -0.00000971
     atom  346 type  1   force =    -0.00001096    0.00000938    0.00001096
     atom  347 type  1   force =     0.00000554   -0.00000232   -0.00001224
     atom  348 type  1   force =    -0.00000288    0.00000278    0.00000732
     atom  349 type  1   force =     0.00000702    0.00000602    0.00000092
     atom  350 type  1   force =    -0.00000347   -0.00000675    0.00000238
     atom  351 type  1   force =     0.00001057   -0.00000161   -0.00000339
     atom  352 type  1   force =    -0.00000695    0.00000013    0.00000223
     atom  353 type  1   force =     0.00000143    0.00000809   -0.00000150
     atom  354 type  1   force =    -0.00000496   -0.00000473    0.00000444
     atom  355 type  1   force =     0.00000502    0.00000653   -0.00000153
     atom  356 type  1   force =    -0.00000432   -0.00000574    0.00000562
     atom  357 type  1   force =     0.00001224   -0.00000232   -0.00000554
     atom  358 type  1   force =    -0.00000732    0.00000278    0.00000288
     atom  359 type  1   force =     0.00000132    0.00000621   -0.00000132
     atom  360 type  1   force =    -0.00000456   -0.00000186    0.00000456
     atom  361 type  1   force =    -0.00002840   -0.00006591    0.00002840
     atom  362 type  1   force =    -0.00003761    0.00015512    0.00003761
     atom  363 type  1   force =    -0.00001317    0.00000656   -0.00000395
     atom  364 type  1   force =     0.00003550   -0.00007001    0.00006353
     atom  365 type  1   force =    -0.00002586   -0.00000388    0.00001160
     atom  366 type  1   force =     0.00000575   -0.00000737   -0.00000594
     atom  367 type  1   force =    -0.00001034    0.00000443    0.00000562
     atom  368 type  1   force =     0.00000433   -0.00000533   -0.00000195
     atom  369 type  1   force =    -0.00000138   -0.00000408    0.00000372
     atom  370 type  1   force =    -0.00000446    0.00000113   -0.00000260
     atom  371 type  1   force =    -0.00000785    0.00000453   -0.00000324
     atom  372 type  1   force =     0.00000849   -0.00001350    0.00000205
     atom  373 type  1   force =     0.00000395    0.00000656    0.00001317
     atom  374 type  1   force =    -0.00006353   -0.00007001   -0.00003550
     atom  375 type  1   force =     0.00001305   -0.00000979   -0.00001305
     atom  376 type  1   force =    -0.00000285    0.00000529    0.00000285
     atom  377 type  1   force =    -0.00000570   -0.00000155   -0.00000073
     atom  378 type  1   force =     0.00000177    0.00000410    0.00000426
     atom  379 type  1   force =    -0.00000640   -0.00000413   -0.00000073
     atom  380 type  1   force =     0.00000579    0.00000028    0.00000494
     atom  381 type  1   force =     0.00000254   -0.00000908   -0.00000310
     atom  382 type  1   force =    -0.00000307    0.00000478    0.00000309
     atom  383 type  1   force =    -0.00000592    0.00000297   -0.00000087
     atom  384 type  1   force =     0.00000196   -0.00000319    0.00000474
     atom  385 type  1   force =    -0.00001160   -0.00000388    0.00002586
     atom  386 type  1   force =     0.00000594   -0.00000737   -0.00000575
     atom  387 type  1   force =     0.00000073   -0.00000155    0.00000570
     atom  388 type  1   force =    -0.00000426    0.00000410   -0.00000177
     atom  389 type  1   force =    -0.00000587    0.00000561    0.00000587
     atom  390 type  1   force =     0.00000421   -0.00000468   -0.00000421
     atom  391 type  1   force =    -0.00000395    0.00000408    0.00000596
     atom  392 type  1   force =     0.00000799   -0.00000890   -0.00000395
     atom  393 type  1   force =     0.00000062    0.00000106    0.00000604
     atom  394 type  1   force =    -0.00000514    0.00000214   -0.00000191
     atom  395 type  1   force =    -0.00000575    0.00000922    0.00000564
     atom  396 type  1   force =    -0.00000051   -0.00000997    0.00000592
     atom  397 type  1   force =    -0.00000562    0.00000443    0.00001034
     atom  398 type  1   force =     0.00000195   -0.00000533   -0.00000433
     atom  399 type  1   force =     0.00000073   -0.00000413    0.00000640
     atom  400 type  1   force =    -0.00000494    0.00000028   -0.00000579
     atom  401 type  1   force =    -0.00000596    0.00000408    0.00000395
     atom  402 type  1   force =     0.00000395   -0.00000890   -0.00000799
     atom  403 type  1   force =    -0.00000834    0.00000518    0.00000834
     atom  404 type  1   force =     0.00000311   -0.00000689   -0.00000311
     atom  405 type  1   force =     0.00000058   -0.00000372    0.00000582
     atom  406 type  1   force =    -0.00000744   -0.00000036   -0.00000271
     atom  407 type  1   force =    -0.00000337    0.00000398   -0.00000311
     atom  408 type  1   force =     0.00000384   -0.00000908   -0.00000790
     atom  409 type  1   force =    -0.00000372   -0.00000408    0.00000138
     atom  410 type  1   force =     0.00000260    0.00000113    0.00000446
     atom  411 type  1   force =     0.00000310   -0.00000908   -0.00000254
     atom  412 type  1   force =    -0.00000309    0.00000478    0.00000307
     atom  413 type  1   force =    -0.00000604    0.00000106   -0.00000062
     atom  414 type  1   force =     0.00000191    0.00000214    0.00000514
     atom  415 type  1   force =    -0.00000582   -0.00000372   -0.00000058
     atom  416 type  1   force =     0.00000271   -0.00000036    0.00000744
     atom  417 type  1   force =     0.00000493   -0.00001062   -0.00000493
     atom  418 type  1   force =    -0.00000275    0.00000673    0.00000275
     atom  419 type  1   force =    -0.00000590   -0.00000157   -0.00000091
     atom  420 type  1   force =     0.00000217    0.00000448    0.00000442
     atom  421 type  1   force =     0.00000324    0.00000453    0.00000785
     atom  422 type  1   force =    -0.00000205   -0.00001350   -0.00000849
     atom  423 type  1   force =     0.00000087    0.00000297    0.00000592
     atom  424 type  1   force =    -0.00000474   -0.00000319   -0.00000196
     atom  425 type  1   force =    -0.00000564    0.00000922    0.00000575
     atom  426 type  1   force =    -0.00000592   -0.00000997    0.00000051
     atom  427 type  1   force =     0.00000311    0.00000398    0.00000337
     atom  428 type  1   force =     0.00000790   -0.00000908   -0.00000384
     atom  429 type  1   force =     0.00000091   -0.00000157    0.00000590
     atom  430 type  1   force =    -0.00000442    0.00000448   -0.00000217
     atom  431 type  1   force =    -0.00000540    0.00000529    0.00000540
     atom  432 type  1   force =     0.00000432   -0.00000493   -0.00000432

     Total force =     0.006288     Total SCF correction =     0.000202

     Writing all to output data dir ./scratch_runs/atom02_y_minus/si_sup.save/ :
     XML data file, charge density, pseudopotentials, collected wavefunctions
 
     init_run     :   3818.23s CPU   3874.09s WALL (       1 calls)
     electrons    :  10469.45s CPU  10630.76s WALL (       1 calls)
     forces       :    232.25s CPU    233.64s WALL (       1 calls)

     Called by init_run:
     wfcinit      :   3816.71s CPU   3872.45s WALL (       1 calls)
     potinit      :      0.31s CPU      0.37s WALL (       1 calls)
     hinit0       :      0.43s CPU      0.45s WALL (       1 calls)

     Called by electrons:
     c_bands      :   9783.03s CPU   9932.85s WALL (      15 calls)
     sum_band     :    681.81s CPU    693.16s WALL (      15 calls)
     v_of_rho     :      3.78s CPU      3.89s WALL (      15 calls)
     mix_rho      :      0.92s CPU      0.94s WALL (      15 calls)

     Called by c_bands:
     init_us_2    :    142.99s CPU    143.94s WALL (     192 calls)
     cegterg      :   9555.49s CPU   9704.93s WALL (      90 calls)

     Called by *egterg:
     cdiaghg      :   1970.93s CPU   2002.55s WALL (     355 calls)
     h_psi        :   7926.83s CPU   8020.42s WALL (     367 calls)
     g_psi        :      9.77s CPU      9.77s WALL (     271 calls)

     Called by h_psi:
     h_psi:calbec :   2552.03s CPU   2556.85s WALL (     367 calls)
     vloc_psi     :   2810.11s CPU   2865.84s WALL (     367 calls)
     add_vuspsi   :   2549.44s CPU   2560.74s WALL (     367 calls)

     General routines
     calbec       :   2768.83s CPU   2774.16s WALL (     391 calls)
     fft          :      1.76s CPU      1.84s WALL (     152 calls)
     ffts         :      0.15s CPU      0.16s WALL (      15 calls)
     fftw         :   2369.19s CPU   2433.39s WALL (  563882 calls)
 
     Parallel routines
 
     PWSCF        :      4h 2m CPU      4h 6m WALL

 
   This run was terminated on:  17:49:40  16Jun2026            

=------------------------------------------------------------------------------=
   JOB DONE.
=------------------------------------------------------------------------------=

===== TIMING =====
Job:           atom02_y_minus
Start:         2026-06-16T13:43:26+02:00
End:           2026-06-16T17:49:40+02:00
Duration (s):  14774
Duration (H:M:S): 04:06:14
==================
