
     Program PWSCF v.7.4 starts on 10Jun2026 at 18:38: 4 

     This program is part of the open-source Quantum ESPRESSO suite
     for quantum simulation of materials; please cite
         "P. Giannozzi et al., J. Phys.:Condens. Matter 21 395502 (2009);
         "P. Giannozzi et al., J. Phys.:Condens. Matter 29 465901 (2017);
         "P. Giannozzi et al., J. Chem. Phys. 152 154105 (2020);
          URL http://www.quantum-espresso.org", 
     in publications or presentations arising from this work. More details at
     http://www.quantum-espresso.org/quote

     Parallel version (MPI), running on    12 processors

     MPI processes distributed on     1 nodes
     229009 MiB available memory on the printing compute node when the environment starts
 
     Reading input from si_sup.scf.in

     Current dimensions of program PWSCF are:
     Max number of different atomic species (ntypx) = 10
     Max number of k-points (npk) =  40000
     Max angular momentum in pseudopotentials (lmaxx) =  4
     file Si_NC_PBE.upf: wavefunction(s)  4f renormalized
     Found identity + ( -0.5000  0.0000  0.0000) symmetry
     This is a supercell, fractional translations are disabled
     Message from routine setup:
     using ibrav=0 with symmetry is DISCOURAGED, use correct ibrav instead
 
     R & G space division:  proc/nbgrp/npool/nimage =      12
     Subspace diagonalization in iterative solution of the eigenvalue problem:
     a serial algorithm will be used

 
     Parallelization info
     --------------------
     sticks:   dense  smooth     PW     G-vecs:    dense   smooth      PW
     Min         242     242     67                 8614     8614    1257
     Max         243     243     68                 8618     8618    1260
     Sum        2905    2905    805               103379   103379   15089
 
     Using Slab Decomposition
 


     bravais-lattice index     =            0
     lattice parameter (alat)  =      14.5142  a.u.
     unit-cell volume          =    2162.0514 (a.u.)^3
     number of atoms/cell      =           16
     number of atomic types    =            1
     number of electrons       =        64.00
     number of Kohn-Sham states=           32
     kinetic-energy cutoff     =      50.0000  Ry
     charge density cutoff     =     200.0000  Ry
     scf convergence threshold =      1.0E-08
     mixing beta               =       0.7000
     number of iterations used =            8  plain     mixing
     Exchange-correlation= PBE
                           (   1   4   3   4   0   0   0)

     celldm(1)=  14.514219  celldm(2)=   0.000000  celldm(3)=   0.000000
     celldm(4)=   0.000000  celldm(5)=   0.000000  celldm(6)=   0.000000

     crystal axes: (cart. coord. in units of alat)
               a(1) = (  -0.707107   0.000000   0.707107 )  
               a(2) = (   0.000000   0.707107   0.707107 )  
               a(3) = (  -0.707107   0.707107   0.000000 )  

     reciprocal axes: (cart. coord. in units 2 pi/alat)
               b(1) = ( -0.707107 -0.707107  0.707107 )  
               b(2) = (  0.707107  0.707107  0.707107 )  
               b(3) = ( -0.707107  0.707107 -0.707107 )  


     PseudoPot. # 1 for Si read from file:
     ../../../pseudopotentzialak/Si_NC_PBE.upf
     MD5 check sum: 2f548285ada518390005852429903be6
     Pseudo is Norm-conserving, Zval =  4.0
     Generated using FHI98PP, converted with fhi2upf.x v.5.0.2
     Using radial grid of  495 points,  3 beta functions with: 
                l(1) =   0
                l(2) =   1
                l(3) =   3

     atomic species   valence    mass     pseudopotential
     Si                4.00    28.08600     Si( 1.00)

     24 Sym. Ops. (no inversion) found



   Cartesian axes

     site n.     atom                  positions (alat units)
         1        Si     tau(   1) = (   0.0000000   0.0000000   0.0000000  )
         2        Si     tau(   2) = (  -0.1767767   0.1767767   0.1767767  )
         3        Si     tau(   3) = (  -0.3535534   0.0000000   0.3535534  )
         4        Si     tau(   4) = (  -0.5303301   0.1767767   0.5303301  )
         5        Si     tau(   5) = (   0.0000000   0.3535534   0.3535534  )
         6        Si     tau(   6) = (  -0.1767767   0.5303301   0.5303301  )
         7        Si     tau(   7) = (  -0.3535534   0.3535534   0.0000000  )
         8        Si     tau(   8) = (  -0.5303301   0.5303301   0.1767767  )
         9        Si     tau(   9) = (  -0.3535534   0.3535534   0.7071068  )
        10        Si     tau(  10) = (  -0.5303301   0.5303301   0.8838835  )
        11        Si     tau(  11) = (  -0.7071068   0.3535534   0.3535534  )
        12        Si     tau(  12) = (  -0.8838835   0.5303301   0.5303301  )
        13        Si     tau(  13) = (  -0.3535534   0.7071068   0.3535534  )
        14        Si     tau(  14) = (  -0.5303301   0.8838835   0.5303301  )
        15        Si     tau(  15) = (  -0.7071068   0.7071068   0.7071068  )
        16        Si     tau(  16) = (  -0.8838835   0.8838835   0.8838835  )

     number of k points=    16
                       cart. coord. in units 2pi/alat
        k(    1) = (   0.0000000   0.0000000   0.0000000), wk =   0.0092593
        k(    2) = (  -0.1178511   0.1178511  -0.1178511), wk =   0.0740741
        k(    3) = (  -0.2357023   0.2357023  -0.2357023), wk =   0.0740741
        k(    4) = (   0.3535534  -0.3535534   0.3535534), wk =   0.0370370
        k(    5) = (   0.0000000   0.2357023   0.0000000), wk =   0.0555556
        k(    6) = (  -0.1178511   0.3535534  -0.1178511), wk =   0.2222222
        k(    7) = (   0.4714045  -0.2357023   0.4714045), wk =   0.2222222
        k(    8) = (   0.3535534  -0.1178511   0.3535534), wk =   0.2222222
        k(    9) = (   0.2357023  -0.0000000   0.2357023), wk =   0.1111111
        k(   10) = (   0.0000000   0.4714045   0.0000000), wk =   0.0555556
        k(   11) = (   0.5892557  -0.1178511   0.5892557), wk =   0.2222222
        k(   12) = (   0.4714045  -0.0000000   0.4714045), wk =   0.1111111
        k(   13) = (   0.0000000  -0.7071068   0.0000000), wk =   0.0277778
        k(   14) = (   0.4714045  -0.2357023   0.7071068), wk =   0.2222222
        k(   15) = (   0.3535534  -0.1178511   0.5892557), wk =   0.2222222
        k(   16) = (  -0.2357023  -0.7071068   0.0000000), wk =   0.1111111

     Dense  grid:   103379 G-vectors     FFT dimensions: (  72,  72,  72)

     Estimated max dynamical RAM per process >      20.36 MB

     Estimated total dynamical RAM >     244.27 MB

     Initial potential from superposition of free atoms

     starting charge      63.9887, renormalised to      64.0000
     Starting wfcs are  256 randomized atomic wfcs

     total cpu time spent up to now is        1.7 secs

     per-process dynamical memory:    78.5 Mb

     Self-consistent Calculation

     iteration #  1     ecut=    50.00 Ry     beta= 0.70
     Davidson diagonalization with overlap
     ethr =  1.00E-02,  avg # of iterations =  2.0

     Threshold (ethr) on eigenvalues was too large:
     Diagonalizing with lowered threshold

     Davidson diagonalization with overlap
     ethr =  6.72E-04,  avg # of iterations =  1.0

     total cpu time spent up to now is        2.5 secs

     total energy              =    -126.07723939 Ry
     estimated scf accuracy    <       0.44929392 Ry

     iteration #  2     ecut=    50.00 Ry     beta= 0.70
     Davidson diagonalization with overlap
     ethr =  7.02E-04,  avg # of iterations =  1.0

     total cpu time spent up to now is        2.9 secs

     total energy              =    -126.09643045 Ry
     estimated scf accuracy    <       0.02090820 Ry

     iteration #  3     ecut=    50.00 Ry     beta= 0.70
     Davidson diagonalization with overlap
     ethr =  3.27E-05,  avg # of iterations =  2.0

     total cpu time spent up to now is        3.4 secs

     total energy              =    -126.09930415 Ry
     estimated scf accuracy    <       0.00039669 Ry

     iteration #  4     ecut=    50.00 Ry     beta= 0.70
     Davidson diagonalization with overlap
     ethr =  6.20E-07,  avg # of iterations =  4.3

     total cpu time spent up to now is        4.0 secs

     total energy              =    -126.09950946 Ry
     estimated scf accuracy    <       0.00000144 Ry

     iteration #  5     ecut=    50.00 Ry     beta= 0.70
     Davidson diagonalization with overlap
     ethr =  2.24E-09,  avg # of iterations =  6.3

     total cpu time spent up to now is        4.8 secs

     total energy              =    -126.09951701 Ry
     estimated scf accuracy    <       0.00000034 Ry

     iteration #  6     ecut=    50.00 Ry     beta= 0.70
     Davidson diagonalization with overlap
     ethr =  5.26E-10,  avg # of iterations =  2.5

     total cpu time spent up to now is        5.3 secs

     total energy              =    -126.09951705 Ry
     estimated scf accuracy    <       0.00000003 Ry

     iteration #  7     ecut=    50.00 Ry     beta= 0.70
     Davidson diagonalization with overlap
     ethr =  4.98E-11,  avg # of iterations =  3.2

     total cpu time spent up to now is        5.8 secs

     total energy              =    -126.09951706 Ry
     estimated scf accuracy    <       0.00000001 Ry

     iteration #  8     ecut=    50.00 Ry     beta= 0.70
     Davidson diagonalization with overlap
     ethr =  1.63E-11,  avg # of iterations =  2.5

     total cpu time spent up to now is        6.2 secs

     End of self-consistent calculation

          k = 0.0000 0.0000 0.0000 ( 12939 PWs)   bands (ev):

    -5.7481  -3.4145  -3.4145  -3.4145  -3.4145  -1.6000  -1.6000  -1.6000
    -1.6000  -1.6000  -1.6000  -0.7497  -0.7497  -0.7497  -0.7497   3.3707
     3.3707   3.3707   3.3707   3.3707   3.3707   5.0229   5.0229   5.0229
     5.0230   5.0230   5.0230   5.0230   5.0230   6.2210   6.2210   6.2210

          k =-0.1179 0.1179-0.1179 ( 12939 PWs)   bands (ev):

    -5.6570  -3.7488  -3.3770  -3.3770  -3.3770  -2.1974  -2.1974  -2.1974
    -0.9331  -0.9331  -0.9331  -0.6466  -0.6466  -0.6466  -0.2442   3.0495
     3.0495   3.0495   3.4466   3.4466   3.4466   4.4399   4.4399   4.4399
     4.8462   4.8462   4.8462   5.0728   5.0728   5.3600   6.0777   6.0777

          k =-0.2357 0.2357-0.2357 ( 12885 PWs)   bands (ev):

    -5.3865  -4.3698  -3.2549  -3.2549  -3.2549  -2.6770  -2.6770  -2.6770
    -0.3863  -0.3863  -0.3863  -0.3485  -0.3485  -0.3485   0.8858   2.5933
     2.5933   2.5933   3.4455   3.4455   3.4455   3.6690   3.6690   3.6690
     3.8380   4.4465   4.4465   4.4465   5.2215   5.2215   5.7716   5.7716

          k = 0.3536-0.3536 0.3536 ( 12938 PWs)   bands (ev):

    -4.9475  -4.9475  -3.0274  -3.0274  -3.0274  -3.0274  -3.0274  -3.0274
    -0.1647  -0.1647  -0.1647  -0.1647  -0.1647  -0.1647   2.2927   2.2927
     2.6901   2.6901   2.6901   2.6901   2.6901   2.6901   4.0182   4.0182
     4.0182   4.0182   4.0182   4.0182   5.4623   5.4623   5.4623   5.4623

          k = 0.0000 0.2357 0.0000 ( 12951 PWs)   bands (ev):

    -5.6265  -3.4979  -3.4979  -3.4979  -3.4979  -2.8114  -1.5620  -1.5620
    -1.5620  -1.5620  -0.4689  -0.4689  -0.4689  -0.4689  -0.2450   3.0654
     3.0654   3.0654   3.0654   3.4804   3.4804   4.3448   4.3448   4.3448
     4.3448   4.9891   4.9891   4.9891   4.9891   5.5216   5.7924   5.7924

          k =-0.1179 0.3536-0.1179 ( 12894 PWs)   bands (ev):

    -5.4152  -4.0802  -3.5112  -3.5112  -3.3065  -3.1404  -2.1046  -2.1046
    -0.9248  -0.9248  -0.5461  -0.1411  -0.1411   0.4199   0.5036   2.4732
     2.4732   3.2319   3.2535   3.2535   3.3205   3.6594   3.6594   3.6629
     4.2899   4.3725   4.6302   4.6671   4.6671   5.2285   5.4291   5.6175

          k = 0.4714-0.2357 0.4714 ( 12908 PWs)   bands (ev):

    -5.0308  -4.6888  -3.6519  -3.3951  -3.3951  -2.7035  -2.5471  -2.5471
    -0.5790  -0.5195  -0.5195   0.1927   0.1927   0.7610   1.8179   2.2765
     2.2765   2.3272   2.7894   3.0001   3.0001   3.2367   3.6034   3.6034
     3.9797   4.0975   4.0975   4.1980   4.5327   5.1159   5.2941   5.5385

          k = 0.3536-0.1179 0.3536 ( 12892 PWs)   bands (ev):

    -5.1781  -4.4943  -3.8388  -3.1368  -3.1368  -2.8979  -2.8979  -2.2079
    -0.8395  -0.5136  -0.5136   0.1952   0.1952   0.5478   1.3536   2.0149
     2.7543   2.7543   2.7974   2.7974   3.2757   3.5955   3.5955   3.7900
     3.8227   4.0793   4.0793   4.3930   4.8374   4.9058   4.9410   5.8677

          k = 0.2357-0.0000 0.2357 ( 12901 PWs)   bands (ev):

    -5.5058  -3.8681  -3.8681  -3.1726  -3.1726  -2.7339  -2.7339  -1.7415
    -1.3372  -0.6394  -0.6394  -0.2816  -0.2816   0.1233   0.1233   2.3798
     3.1009   3.1009   3.2974   3.2974   3.5637   3.6237   3.6237   4.5755
     4.5755   4.6277   4.6447   4.6447   4.8156   4.8156   5.3600   6.1029

          k = 0.0000 0.4714 0.0000 ( 12907 PWs)   bands (ev):

    -5.2634  -3.8417  -3.6401  -3.6401  -3.6401  -3.6401  -1.4805  -1.4805
    -1.4805  -1.4805   0.2128   0.2128   0.2128   0.2128   1.2055   2.5807
     2.5807   2.5807   2.5807   3.1758   3.1758   3.1758   3.1758   3.8058
     3.8058   4.1756   4.9250   4.9250   4.9250   4.9250   5.0306   5.0306

          k = 0.5893-0.1179 0.5893 ( 12907 PWs)   bands (ev):

    -4.9358  -4.2650  -4.2278  -3.6244  -3.6244  -3.0796  -1.9966  -1.9966
    -0.9326  -0.9326  -0.0852   0.5505   0.5505   1.3592   1.7890   2.1418
     2.1418   2.2082   2.7108   2.7108   2.9215   2.9215   3.0908   3.3212
     3.8685   4.0871   4.5027   4.5686   4.5686   4.6822   4.6962   5.2928

          k = 0.4714-0.0000 0.4714 ( 12878 PWs)   bands (ev):

    -4.7975  -4.4472  -4.4472  -3.4563  -3.4563  -2.4811  -2.4711  -2.4711
    -0.6257  -0.6257  -0.5532   0.5732   0.5732   1.7819   1.7819   1.8131
     2.2152   2.2152   2.5002   2.6557   2.6557   3.4635   3.4635   3.8125
     3.9296   3.9296   4.1112   4.2293   4.2293   4.4773   4.4773   5.6564

          k = 0.0000-0.7071 0.0000 ( 12896 PWs)   bands (ev):

    -4.6649  -4.6649  -3.7022  -3.7022  -3.7022  -3.7022  -1.4365  -1.4365
    -1.4365  -1.4365   0.7374   0.7374   0.7374   0.7374   2.3732   2.3732
     2.3732   2.3732   2.4727   2.4727   2.4727   2.4727   2.6980   2.6980
     4.3338   4.3338   4.3338   4.3338   4.8946   4.8946   4.8946   4.8946

          k = 0.4714-0.2357 0.7071 ( 12905 PWs)   bands (ev):

    -5.1462  -4.1334  -4.1334  -3.7430  -3.0337  -3.0337  -2.5200  -1.9500
    -1.0381  -0.4260  -0.3264  -0.3264   0.9487   0.9487   1.0304   1.9755
     2.4569   2.6362   2.6362   3.0757   3.3849   3.4506   3.4897   3.7872
     3.7872   3.8124   4.2519   4.2519   4.5904   4.9134   4.9134   5.5151

          k = 0.3536-0.1179 0.5893 ( 12886 PWs)   bands (ev):

    -4.7093  -4.7093  -4.0211  -4.0211  -2.8317  -2.8317  -2.4761  -2.4761
    -0.5903  -0.5903  -0.1966  -0.1966   1.2468   1.2468   1.9880   1.9880
     2.2497   2.2497   2.3084   2.3084   3.3572   3.3572   3.5928   3.5928
     3.8019   3.8019   4.0575   4.0575   4.3080   4.3080   5.2404   5.2404

          k =-0.2357-0.7071 0.0000 ( 12912 PWs)   bands (ev):

    -4.5543  -4.5543  -4.2276  -4.2276  -3.0141  -3.0141  -2.2283  -2.2283
    -0.7026  -0.7026   0.0001   0.0001   1.5294   1.5294   2.0170   2.0170
     2.0748   2.0748   2.2963   2.2963   3.1265   3.1265   3.1465   3.1465
     3.8948   3.8948   4.1469   4.1469   4.5961   4.5961   4.9500   4.9500

     highest occupied level (ev):     6.2210

!    total energy              =    -126.09951706 Ry
     estimated scf accuracy    <          1.5E-09 Ry

     The total energy is the sum of the following terms:
     one-electron contribution =      38.04902361 Ry
     hartree contribution      =       8.75709531 Ry
     xc contribution           =     -38.53883139 Ry
     ewald contribution        =    -134.36680460 Ry

     convergence has been achieved in   8 iterations

     Forces acting on atoms (cartesian axes, Ry/au):

     atom    1 type  1   force =     0.00000000    0.00000000   -0.00000000
     atom    2 type  1   force =     0.00000023   -0.00000023   -0.00000023
     atom    3 type  1   force =     0.00000000   -0.00000215    0.00000000
     atom    4 type  1   force =    -0.00000023   -0.00000023    0.00000023
     atom    5 type  1   force =     0.00000215   -0.00000000    0.00000000
     atom    6 type  1   force =     0.00000023    0.00000023    0.00000023
     atom    7 type  1   force =    -0.00000000   -0.00000000   -0.00000215
     atom    8 type  1   force =    -0.00000023    0.00000023   -0.00000023
     atom    9 type  1   force =     0.00000000    0.00000000    0.00000215
     atom   10 type  1   force =     0.00000158   -0.00000158    0.00000158
     atom   11 type  1   force =    -0.00000215    0.00000000    0.00000000
     atom   12 type  1   force =    -0.00000158   -0.00000158   -0.00000158
     atom   13 type  1   force =    -0.00000000    0.00000215   -0.00000000
     atom   14 type  1   force =     0.00000158    0.00000158   -0.00000158
     atom   15 type  1   force =     0.00000000   -0.00000000   -0.00000000
     atom   16 type  1   force =    -0.00000158    0.00000158    0.00000158

     Total force =     0.000008     Total SCF correction =     0.000021
     SCF correction compared to forces is large: reduce conv_thr to get better values

     Writing all to output data dir ./tmp/si_sup.save/ :
     XML data file, charge density, pseudopotentials, collected wavefunctions
 
     init_run     :      1.61s CPU      1.72s WALL (       1 calls)
     electrons    :      4.43s CPU      4.49s WALL (       1 calls)
     forces       :      0.06s CPU      0.06s WALL (       1 calls)

     Called by init_run:
     wfcinit      :      1.52s CPU      1.61s WALL (       1 calls)
     potinit      :      0.01s CPU      0.02s WALL (       1 calls)
     hinit0       :      0.00s CPU      0.01s WALL (       1 calls)

     Called by electrons:
     c_bands      :      3.81s CPU      3.86s WALL (       9 calls)
     sum_band     :      0.57s CPU      0.57s WALL (       9 calls)
     v_of_rho     :      0.05s CPU      0.06s WALL (       9 calls)
     mix_rho      :      0.01s CPU      0.01s WALL (       9 calls)

     Called by c_bands:
     init_us_2    :      0.13s CPU      0.13s WALL (     320 calls)
     cegterg      :      3.47s CPU      3.52s WALL (     144 calls)

     Called by *egterg:
     cdiaghg      :      0.39s CPU      0.39s WALL (     526 calls)
     h_psi        :      3.86s CPU      3.98s WALL (     558 calls)
     g_psi        :      0.01s CPU      0.01s WALL (     398 calls)

     Called by h_psi:
     h_psi:calbec :      0.33s CPU      0.34s WALL (     558 calls)
     vloc_psi     :      3.23s CPU      3.34s WALL (     558 calls)
     add_vuspsi   :      0.28s CPU      0.29s WALL (     558 calls)

     General routines
     calbec       :      0.37s CPU      0.38s WALL (     622 calls)
     fft          :      0.01s CPU      0.02s WALL (      92 calls)
     ffts         :      0.00s CPU      0.00s WALL (       9 calls)
     fftw         :      3.11s CPU      3.21s WALL (   38560 calls)
 
     Parallel routines
 
     PWSCF        :      6.15s CPU      6.37s WALL

 
   This run was terminated on:  18:38:11  10Jun2026            

=------------------------------------------------------------------------------=
   JOB DONE.
=------------------------------------------------------------------------------=
