
     Program PWSCF v.7.4 starts on 16Jun2026 at 10:43:54 

     This program is part of the open-source Quantum ESPRESSO suite
     for quantum simulation of materials; please cite
         "P. Giannozzi et al., J. Phys.:Condens. Matter 21 395502 (2009);
         "P. Giannozzi et al., J. Phys.:Condens. Matter 29 465901 (2017);
         "P. Giannozzi et al., J. Chem. Phys. 152 154105 (2020);
          URL http://www.quantum-espresso.org", 
     in publications or presentations arising from this work. More details at
     http://www.quantum-espresso.org/quote

     Parallel version (MPI), running on    12 processors

     MPI processes distributed on     1 nodes
     99819 MiB available memory on the printing compute node when the environment starts
 
     Reading input from al_sup.scf.in

     Current dimensions of program PWSCF are:
     Max number of different atomic species (ntypx) = 10
     Max number of k-points (npk) =  40000
     Max angular momentum in pseudopotentials (lmaxx) =  4
read_pp_mesh; mismatch in mesh size, discarding the one in header
     Found identity + (  0.0000  0.0000  0.1667) symmetry
     This is a supercell, fractional translations are disabled
     Message from routine setup:
     using ibrav=0 with symmetry is DISCOURAGED, use correct ibrav instead
 
     R & G space division:  proc/nbgrp/npool/nimage =      12
     Subspace diagonalization in iterative solution of the eigenvalue problem:
     one sub-group per band group will be used
     custom distributed-memory algorithm (size of sub-group:  3*  3 procs)

 
     Parallelization info
     --------------------
     sticks:   dense  smooth     PW     G-vecs:    dense   smooth      PW
     Min        1202    1202    316                95488    95488   12760
     Max        1204    1204    317                95490    95490   12763
     Sum       14431   14431   3793              1145867  1145867  153133
 
     Using Slab Decomposition
 


     bravais-lattice index     =            0
     lattice parameter (alat)  =      32.3728  a.u.
     unit-cell volume          =   23989.6975 (a.u.)^3
     number of atoms/cell      =          216
     number of atomic types    =            1
     number of electrons       =       648.00
     number of Kohn-Sham states=          389
     kinetic-energy cutoff     =      50.0000  Ry
     charge density cutoff     =     200.0000  Ry
     scf convergence threshold =      1.0E-16
     mixing beta               =       0.7000
     number of iterations used =            8  plain     mixing
     Exchange-correlation= SLA PW PBX PBC
                           (   1   4   3   4   0   0   0)

     celldm(1)=  32.372775  celldm(2)=   0.000000  celldm(3)=   0.000000
     celldm(4)=   0.000000  celldm(5)=   0.000000  celldm(6)=   0.000000

     crystal axes: (cart. coord. in units of alat)
               a(1) = (  -0.707107   0.000000   0.707107 )  
               a(2) = (   0.000000   0.707107   0.707107 )  
               a(3) = (  -0.707107   0.707107   0.000000 )  

     reciprocal axes: (cart. coord. in units 2 pi/alat)
               b(1) = ( -0.707107 -0.707107  0.707107 )  
               b(2) = (  0.707107  0.707107  0.707107 )  
               b(3) = ( -0.707107  0.707107 -0.707107 )  


     PseudoPot. # 1 for Al read from file:
     ../../../pseudopotentzialak/Al.upf
     MD5 check sum: fd3ab6bbf4b2322b308692f0f9c61a66
     Pseudo is Projector augmented-wave + core cor, Zval =  3.0
     Generated using ATOMPAW code
     Shape of augmentation charge: SINC**2
     Using radial grid of 2342 points,  4 beta functions with: 
                l(1) =   0
                l(2) =   0
                l(3) =   1
                l(4) =   1
     Q(r) pseudized with 0 coefficients 


     atomic species   valence    mass     pseudopotential
     Al                3.00    26.98150     Al( 1.00)

     48 Sym. Ops., with inversion, found



   Cartesian axes

     site n.     atom                  positions (alat units)
         1        Al     tau(   1) = (   0.0000000   0.0000000   0.0000000  )
         2        Al     tau(   2) = (  -0.1178514   0.1178514   0.0000000  )
         3        Al     tau(   3) = (  -0.2357020   0.2357020   0.0000000  )
         4        Al     tau(   4) = (  -0.3535534   0.3535534   0.0000000  )
         5        Al     tau(   5) = (  -0.4714048   0.4714048   0.0000000  )
         6        Al     tau(   6) = (  -0.5892554   0.5892554   0.0000000  )
         7        Al     tau(   7) = (   0.0000000   0.1178514   0.1178514  )
         8        Al     tau(   8) = (  -0.1178514   0.2357027   0.1178514  )
         9        Al     tau(   9) = (  -0.2357020   0.3535534   0.1178514  )
        10        Al     tau(  10) = (  -0.3535534   0.4714048   0.1178514  )
        11        Al     tau(  11) = (  -0.4714048   0.5892561   0.1178514  )
        12        Al     tau(  12) = (  -0.5892554   0.7071068   0.1178514  )
        13        Al     tau(  13) = (   0.0000000   0.2357020   0.2357020  )
        14        Al     tau(  14) = (  -0.1178514   0.3535534   0.2357020  )
        15        Al     tau(  15) = (  -0.2357020   0.4714040   0.2357020  )
        16        Al     tau(  16) = (  -0.3535534   0.5892554   0.2357020  )
        17        Al     tau(  17) = (  -0.4714048   0.7071068   0.2357020  )
        18        Al     tau(  18) = (  -0.5892554   0.8249574   0.2357020  )
        19        Al     tau(  19) = (   0.0000000   0.3535534   0.3535534  )
        20        Al     tau(  20) = (  -0.1178514   0.4714048   0.3535534  )
        21        Al     tau(  21) = (  -0.2357020   0.5892554   0.3535534  )
        22        Al     tau(  22) = (  -0.3535534   0.7071068   0.3535534  )
        23        Al     tau(  23) = (  -0.4714048   0.8249581   0.3535534  )
        24        Al     tau(  24) = (  -0.5892554   0.9428088   0.3535534  )
        25        Al     tau(  25) = (   0.0000000   0.4714048   0.4714048  )
        26        Al     tau(  26) = (  -0.1178514   0.5892561   0.4714048  )
        27        Al     tau(  27) = (  -0.2357020   0.7071068   0.4714048  )
        28        Al     tau(  28) = (  -0.3535534   0.8249581   0.4714048  )
        29        Al     tau(  29) = (  -0.4714048   0.9428095   0.4714048  )
        30        Al     tau(  30) = (  -0.5892554   1.0606602   0.4714048  )
        31        Al     tau(  31) = (   0.0000000   0.5892554   0.5892554  )
        32        Al     tau(  32) = (  -0.1178514   0.7071068   0.5892554  )
        33        Al     tau(  33) = (  -0.2357020   0.8249574   0.5892554  )
        34        Al     tau(  34) = (  -0.3535534   0.9428088   0.5892554  )
        35        Al     tau(  35) = (  -0.4714048   1.0606602   0.5892554  )
        36        Al     tau(  36) = (  -0.5892554   1.1785108   0.5892554  )
        37        Al     tau(  37) = (  -0.1178514   0.0000000   0.1178514  )
        38        Al     tau(  38) = (  -0.2357027   0.1178514   0.1178514  )
        39        Al     tau(  39) = (  -0.3535534   0.2357020   0.1178514  )
        40        Al     tau(  40) = (  -0.4714048   0.3535534   0.1178514  )
        41        Al     tau(  41) = (  -0.5892561   0.4714048   0.1178514  )
        42        Al     tau(  42) = (  -0.7071068   0.5892554   0.1178514  )
        43        Al     tau(  43) = (  -0.1178514   0.1178514   0.2357027  )
        44        Al     tau(  44) = (  -0.2357027   0.2357027   0.2357027  )
        45        Al     tau(  45) = (  -0.3535534   0.3535534   0.2357027  )
        46        Al     tau(  46) = (  -0.4714048   0.4714048   0.2357027  )
        47        Al     tau(  47) = (  -0.5892561   0.5892561   0.2357027  )
        48        Al     tau(  48) = (  -0.7071068   0.7071068   0.2357027  )
        49        Al     tau(  49) = (  -0.1178514   0.2357020   0.3535534  )
        50        Al     tau(  50) = (  -0.2357027   0.3535534   0.3535534  )
        51        Al     tau(  51) = (  -0.3535534   0.4714040   0.3535534  )
        52        Al     tau(  52) = (  -0.4714048   0.5892554   0.3535534  )
        53        Al     tau(  53) = (  -0.5892561   0.7071068   0.3535534  )
        54        Al     tau(  54) = (  -0.7071068   0.8249574   0.3535534  )
        55        Al     tau(  55) = (  -0.1178514   0.3535534   0.4714048  )
        56        Al     tau(  56) = (  -0.2357027   0.4714048   0.4714048  )
        57        Al     tau(  57) = (  -0.3535534   0.5892554   0.4714048  )
        58        Al     tau(  58) = (  -0.4714048   0.7071068   0.4714048  )
        59        Al     tau(  59) = (  -0.5892561   0.8249581   0.4714048  )
        60        Al     tau(  60) = (  -0.7071068   0.9428088   0.4714048  )
        61        Al     tau(  61) = (  -0.1178514   0.4714048   0.5892561  )
        62        Al     tau(  62) = (  -0.2357027   0.5892561   0.5892561  )
        63        Al     tau(  63) = (  -0.3535534   0.7071068   0.5892561  )
        64        Al     tau(  64) = (  -0.4714048   0.8249581   0.5892561  )
        65        Al     tau(  65) = (  -0.5892561   0.9428095   0.5892561  )
        66        Al     tau(  66) = (  -0.7071068   1.0606602   0.5892561  )
        67        Al     tau(  67) = (  -0.1178514   0.5892554   0.7071068  )
        68        Al     tau(  68) = (  -0.2357027   0.7071068   0.7071068  )
        69        Al     tau(  69) = (  -0.3535534   0.8249574   0.7071068  )
        70        Al     tau(  70) = (  -0.4714048   0.9428088   0.7071068  )
        71        Al     tau(  71) = (  -0.5892561   1.0606602   0.7071068  )
        72        Al     tau(  72) = (  -0.7071068   1.1785108   0.7071068  )
        73        Al     tau(  73) = (  -0.2357020   0.0000000   0.2357020  )
        74        Al     tau(  74) = (  -0.3535534   0.1178514   0.2357020  )
        75        Al     tau(  75) = (  -0.4714040   0.2357020   0.2357020  )
        76        Al     tau(  76) = (  -0.5892554   0.3535534   0.2357020  )
        77        Al     tau(  77) = (  -0.7071068   0.4714048   0.2357020  )
        78        Al     tau(  78) = (  -0.8249574   0.5892554   0.2357020  )
        79        Al     tau(  79) = (  -0.2357020   0.1178514   0.3535534  )
        80        Al     tau(  80) = (  -0.3535534   0.2357027   0.3535534  )
        81        Al     tau(  81) = (  -0.4714040   0.3535534   0.3535534  )
        82        Al     tau(  82) = (  -0.5892554   0.4714048   0.3535534  )
        83        Al     tau(  83) = (  -0.7071068   0.5892561   0.3535534  )
        84        Al     tau(  84) = (  -0.8249574   0.7071068   0.3535534  )
        85        Al     tau(  85) = (  -0.2357020   0.2357020   0.4714040  )
        86        Al     tau(  86) = (  -0.3535534   0.3535534   0.4714040  )
        87        Al     tau(  87) = (  -0.4714040   0.4714040   0.4714040  )
        88        Al     tau(  88) = (  -0.5892554   0.5892554   0.4714040  )
        89        Al     tau(  89) = (  -0.7071068   0.7071068   0.4714040  )
        90        Al     tau(  90) = (  -0.8249574   0.8249574   0.4714040  )
        91        Al     tau(  91) = (  -0.2357020   0.3535534   0.5892554  )
        92        Al     tau(  92) = (  -0.3535534   0.4714048   0.5892554  )
        93        Al     tau(  93) = (  -0.4714040   0.5892554   0.5892554  )
        94        Al     tau(  94) = (  -0.5892554   0.7071068   0.5892554  )
        95        Al     tau(  95) = (  -0.7071068   0.8249581   0.5892554  )
        96        Al     tau(  96) = (  -0.8249574   0.9428088   0.5892554  )
        97        Al     tau(  97) = (  -0.2357020   0.4714048   0.7071068  )
        98        Al     tau(  98) = (  -0.3535534   0.5892561   0.7071068  )
        99        Al     tau(  99) = (  -0.4714040   0.7071068   0.7071068  )
       100        Al     tau( 100) = (  -0.5892554   0.8249581   0.7071068  )
       101        Al     tau( 101) = (  -0.7071068   0.9428095   0.7071068  )
       102        Al     tau( 102) = (  -0.8249574   1.0606602   0.7071068  )
       103        Al     tau( 103) = (  -0.2357020   0.5892554   0.8249574  )
       104        Al     tau( 104) = (  -0.3535534   0.7071068   0.8249574  )
       105        Al     tau( 105) = (  -0.4714040   0.8249574   0.8249574  )
       106        Al     tau( 106) = (  -0.5892554   0.9428088   0.8249574  )
       107        Al     tau( 107) = (  -0.7071068   1.0606602   0.8249574  )
       108        Al     tau( 108) = (  -0.8249574   1.1785108   0.8249574  )
       109        Al     tau( 109) = (  -0.3535534   0.0000000   0.3535534  )
       110        Al     tau( 110) = (  -0.4714048   0.1178514   0.3535534  )
       111        Al     tau( 111) = (  -0.5892554   0.2357020   0.3535534  )
       112        Al     tau( 112) = (  -0.7071068   0.3535534   0.3535534  )
       113        Al     tau( 113) = (  -0.8249581   0.4714048   0.3535534  )
       114        Al     tau( 114) = (  -0.9428088   0.5892554   0.3535534  )
       115        Al     tau( 115) = (  -0.3535534   0.1178514   0.4714048  )
       116        Al     tau( 116) = (  -0.4714048   0.2357027   0.4714048  )
       117        Al     tau( 117) = (  -0.5892554   0.3535534   0.4714048  )
       118        Al     tau( 118) = (  -0.7071068   0.4714048   0.4714048  )
       119        Al     tau( 119) = (  -0.8249581   0.5892561   0.4714048  )
       120        Al     tau( 120) = (  -0.9428088   0.7071068   0.4714048  )
       121        Al     tau( 121) = (  -0.3535534   0.2357020   0.5892554  )
       122        Al     tau( 122) = (  -0.4714048   0.3535534   0.5892554  )
       123        Al     tau( 123) = (  -0.5892554   0.4714040   0.5892554  )
       124        Al     tau( 124) = (  -0.7071068   0.5892554   0.5892554  )
       125        Al     tau( 125) = (  -0.8249581   0.7071068   0.5892554  )
       126        Al     tau( 126) = (  -0.9428088   0.8249574   0.5892554  )
       127        Al     tau( 127) = (  -0.3535534   0.3535534   0.7071068  )
       128        Al     tau( 128) = (  -0.4714048   0.4714048   0.7071068  )
       129        Al     tau( 129) = (  -0.5892554   0.5892554   0.7071068  )
       130        Al     tau( 130) = (  -0.7071068   0.7071068   0.7071068  )
       131        Al     tau( 131) = (  -0.8249581   0.8249581   0.7071068  )
       132        Al     tau( 132) = (  -0.9428088   0.9428088   0.7071068  )
       133        Al     tau( 133) = (  -0.3535534   0.4714048   0.8249581  )
       134        Al     tau( 134) = (  -0.4714048   0.5892561   0.8249581  )
       135        Al     tau( 135) = (  -0.5892554   0.7071068   0.8249581  )
       136        Al     tau( 136) = (  -0.7071068   0.8249581   0.8249581  )
       137        Al     tau( 137) = (  -0.8249581   0.9428095   0.8249581  )
       138        Al     tau( 138) = (  -0.9428088   1.0606602   0.8249581  )
       139        Al     tau( 139) = (  -0.3535534   0.5892554   0.9428088  )
       140        Al     tau( 140) = (  -0.4714048   0.7071068   0.9428088  )
       141        Al     tau( 141) = (  -0.5892554   0.8249574   0.9428088  )
       142        Al     tau( 142) = (  -0.7071068   0.9428088   0.9428088  )
       143        Al     tau( 143) = (  -0.8249581   1.0606602   0.9428088  )
       144        Al     tau( 144) = (  -0.9428088   1.1785108   0.9428088  )
       145        Al     tau( 145) = (  -0.4714048   0.0000000   0.4714048  )
       146        Al     tau( 146) = (  -0.5892561   0.1178514   0.4714048  )
       147        Al     tau( 147) = (  -0.7071068   0.2357020   0.4714048  )
       148        Al     tau( 148) = (  -0.8249581   0.3535534   0.4714048  )
       149        Al     tau( 149) = (  -0.9428095   0.4714048   0.4714048  )
       150        Al     tau( 150) = (  -1.0606602   0.5892554   0.4714048  )
       151        Al     tau( 151) = (  -0.4714048   0.1178514   0.5892561  )
       152        Al     tau( 152) = (  -0.5892561   0.2357027   0.5892561  )
       153        Al     tau( 153) = (  -0.7071068   0.3535534   0.5892561  )
       154        Al     tau( 154) = (  -0.8249581   0.4714048   0.5892561  )
       155        Al     tau( 155) = (  -0.9428095   0.5892561   0.5892561  )
       156        Al     tau( 156) = (  -1.0606602   0.7071068   0.5892561  )
       157        Al     tau( 157) = (  -0.4714048   0.2357020   0.7071068  )
       158        Al     tau( 158) = (  -0.5892561   0.3535534   0.7071068  )
       159        Al     tau( 159) = (  -0.7071068   0.4714040   0.7071068  )
       160        Al     tau( 160) = (  -0.8249581   0.5892554   0.7071068  )
       161        Al     tau( 161) = (  -0.9428095   0.7071068   0.7071068  )
       162        Al     tau( 162) = (  -1.0606602   0.8249574   0.7071068  )
       163        Al     tau( 163) = (  -0.4714048   0.3535534   0.8249581  )
       164        Al     tau( 164) = (  -0.5892561   0.4714048   0.8249581  )
       165        Al     tau( 165) = (  -0.7071068   0.5892554   0.8249581  )
       166        Al     tau( 166) = (  -0.8249581   0.7071068   0.8249581  )
       167        Al     tau( 167) = (  -0.9428095   0.8249581   0.8249581  )
       168        Al     tau( 168) = (  -1.0606602   0.9428088   0.8249581  )
       169        Al     tau( 169) = (  -0.4714048   0.4714048   0.9428095  )
       170        Al     tau( 170) = (  -0.5892561   0.5892561   0.9428095  )
       171        Al     tau( 171) = (  -0.7071068   0.7071068   0.9428095  )
       172        Al     tau( 172) = (  -0.8249581   0.8249581   0.9428095  )
       173        Al     tau( 173) = (  -0.9428095   0.9428095   0.9428095  )
       174        Al     tau( 174) = (  -1.0606602   1.0606602   0.9428095  )
       175        Al     tau( 175) = (  -0.4714048   0.5892554   1.0606602  )
       176        Al     tau( 176) = (  -0.5892561   0.7071068   1.0606602  )
       177        Al     tau( 177) = (  -0.7071068   0.8249574   1.0606602  )
       178        Al     tau( 178) = (  -0.8249581   0.9428088   1.0606602  )
       179        Al     tau( 179) = (  -0.9428095   1.0606602   1.0606602  )
       180        Al     tau( 180) = (  -1.0606602   1.1785108   1.0606602  )
       181        Al     tau( 181) = (  -0.5892554   0.0000000   0.5892554  )
       182        Al     tau( 182) = (  -0.7071068   0.1178514   0.5892554  )
       183        Al     tau( 183) = (  -0.8249574   0.2357020   0.5892554  )
       184        Al     tau( 184) = (  -0.9428088   0.3535534   0.5892554  )
       185        Al     tau( 185) = (  -1.0606602   0.4714048   0.5892554  )
       186        Al     tau( 186) = (  -1.1785108   0.5892554   0.5892554  )
       187        Al     tau( 187) = (  -0.5892554   0.1178514   0.7071068  )
       188        Al     tau( 188) = (  -0.7071068   0.2357027   0.7071068  )
       189        Al     tau( 189) = (  -0.8249574   0.3535534   0.7071068  )
       190        Al     tau( 190) = (  -0.9428088   0.4714048   0.7071068  )
       191        Al     tau( 191) = (  -1.0606602   0.5892561   0.7071068  )
       192        Al     tau( 192) = (  -1.1785108   0.7071068   0.7071068  )
       193        Al     tau( 193) = (  -0.5892554   0.2357020   0.8249574  )
       194        Al     tau( 194) = (  -0.7071068   0.3535534   0.8249574  )
       195        Al     tau( 195) = (  -0.8249574   0.4714040   0.8249574  )
       196        Al     tau( 196) = (  -0.9428088   0.5892554   0.8249574  )
       197        Al     tau( 197) = (  -1.0606602   0.7071068   0.8249574  )
       198        Al     tau( 198) = (  -1.1785108   0.8249574   0.8249574  )
       199        Al     tau( 199) = (  -0.5892554   0.3535534   0.9428088  )
       200        Al     tau( 200) = (  -0.7071068   0.4714048   0.9428088  )
       201        Al     tau( 201) = (  -0.8249574   0.5892554   0.9428088  )
       202        Al     tau( 202) = (  -0.9428088   0.7071068   0.9428088  )
       203        Al     tau( 203) = (  -1.0606602   0.8249581   0.9428088  )
       204        Al     tau( 204) = (  -1.1785108   0.9428088   0.9428088  )
       205        Al     tau( 205) = (  -0.5892554   0.4714048   1.0606602  )
       206        Al     tau( 206) = (  -0.7071068   0.5892561   1.0606602  )
       207        Al     tau( 207) = (  -0.8249574   0.7071068   1.0606602  )
       208        Al     tau( 208) = (  -0.9428088   0.8249581   1.0606602  )
       209        Al     tau( 209) = (  -1.0606602   0.9428095   1.0606602  )
       210        Al     tau( 210) = (  -1.1785108   1.0606602   1.0606602  )
       211        Al     tau( 211) = (  -0.5892554   0.5892554   1.1785108  )
       212        Al     tau( 212) = (  -0.7071068   0.7071068   1.1785108  )
       213        Al     tau( 213) = (  -0.8249574   0.8249574   1.1785108  )
       214        Al     tau( 214) = (  -0.9428088   0.9428088   1.1785108  )
       215        Al     tau( 215) = (  -1.0606602   1.0606602   1.1785108  )
       216        Al     tau( 216) = (  -1.1785108   1.1785108   1.1785108  )

     number of k points=     8  Methfessel-Paxton smearing, width (Ry)=  0.0200
                       cart. coord. in units 2pi/alat
        k(    1) = (   0.0000000   0.0000000   0.0000000), wk =   0.0312500
        k(    2) = (  -0.1767767   0.1767767  -0.1767767), wk =   0.2500000
        k(    3) = (   0.3535534  -0.3535534   0.3535534), wk =   0.1250000
        k(    4) = (   0.0000000   0.3535534   0.0000000), wk =   0.1875000
        k(    5) = (   0.5303301  -0.1767767   0.5303301), wk =   0.7500000
        k(    6) = (   0.3535534   0.0000000   0.3535534), wk =   0.3750000
        k(    7) = (   0.0000000  -0.7071068   0.0000000), wk =   0.0937500
        k(    8) = (  -0.3535534  -0.7071068   0.0000000), wk =   0.1875000

     Dense  grid:  1145867 G-vectors     FFT dimensions: ( 150, 150, 150)

     Estimated max dynamical RAM per process >       1.97 GB

     Estimated total dynamical RAM >      23.64 GB

     Initial potential from superposition of free atoms

     starting charge     647.4594, renormalised to     648.0000

     negative rho (up, down):  1.468E-01 0.000E+00
     Starting wfcs are 1728 randomized atomic wfcs
     Checking if some PAW data can be deallocated... 

     total cpu time spent up to now is      167.5 secs

     per-process dynamical memory:  1076.9 Mb

     Self-consistent Calculation

     iteration #  1     ecut=    50.00 Ry     beta= 0.70
     Davidson diagonalization with overlap
     ethr =  1.00E-02,  avg # of iterations =  2.1

     Threshold (ethr) on eigenvalues was too large:
     Diagonalizing with lowered threshold

     Davidson diagonalization with overlap
     ethr =  1.68E-04,  avg # of iterations =  6.2

     negative rho (up, down):  1.649E-01 0.000E+00

     total cpu time spent up to now is      427.3 secs

     total energy              =   -8532.70886485 Ry
     estimated scf accuracy    <       1.11731716 Ry

     iteration #  2     ecut=    50.00 Ry     beta= 0.70
     Davidson diagonalization with overlap
     ethr =  1.72E-04,  avg # of iterations =  1.9

     negative rho (up, down):  1.683E-01 0.000E+00

     total cpu time spent up to now is      513.4 secs

     total energy              =   -8532.16791518 Ry
     estimated scf accuracy    <       0.61256638 Ry

     iteration #  3     ecut=    50.00 Ry     beta= 0.70
     Davidson diagonalization with overlap
     ethr =  9.45E-05,  avg # of iterations = 12.5

     negative rho (up, down):  1.710E-01 0.000E+00

     total cpu time spent up to now is      741.6 secs

     total energy              =   -8530.26142287 Ry
     estimated scf accuracy    <      47.19839926 Ry

     iteration #  4     ecut=    50.00 Ry     beta= 0.70
     Davidson diagonalization with overlap
     ethr =  9.45E-05,  avg # of iterations =  7.8

     negative rho (up, down):  1.684E-01 0.000E+00

     total cpu time spent up to now is      897.8 secs

     total energy              =   -8532.34096891 Ry
     estimated scf accuracy    <       0.46712808 Ry

     iteration #  5     ecut=    50.00 Ry     beta= 0.70
     Davidson diagonalization with overlap
     ethr =  7.21E-05,  avg # of iterations =  2.5

     negative rho (up, down):  1.660E-01 0.000E+00

     total cpu time spent up to now is     1112.5 secs

     total energy              =   -8532.38814988 Ry
     estimated scf accuracy    <       0.20086228 Ry

     iteration #  6     ecut=    50.00 Ry     beta= 0.70
     Davidson diagonalization with overlap
     ethr =  3.10E-05,  avg # of iterations =  2.4

     negative rho (up, down):  1.602E-01 0.000E+00

     total cpu time spent up to now is     1226.9 secs

     total energy              =   -8532.39795489 Ry
     estimated scf accuracy    <       0.04688610 Ry

     iteration #  7     ecut=    50.00 Ry     beta= 0.70
     Davidson diagonalization with overlap
     ethr =  7.24E-06,  avg # of iterations =  9.1

     negative rho (up, down):  1.552E-01 0.000E+00

     total cpu time spent up to now is     1366.3 secs

     total energy              =   -8532.39939660 Ry
     estimated scf accuracy    <       0.01683484 Ry

     iteration #  8     ecut=    50.00 Ry     beta= 0.70
     Davidson diagonalization with overlap
     ethr =  2.60E-06,  avg # of iterations =  8.9

     negative rho (up, down):  1.518E-01 0.000E+00

     total cpu time spent up to now is     1494.7 secs

     total energy              =   -8532.40060089 Ry
     estimated scf accuracy    <       0.00126764 Ry

     iteration #  9     ecut=    50.00 Ry     beta= 0.70
     Davidson diagonalization with overlap
     ethr =  1.96E-07,  avg # of iterations =  3.5

     negative rho (up, down):  1.507E-01 0.000E+00

     total cpu time spent up to now is     1633.1 secs

     total energy              =   -8532.40082870 Ry
     estimated scf accuracy    <       0.00027193 Ry

     iteration # 10     ecut=    50.00 Ry     beta= 0.70
     Davidson diagonalization with overlap
     ethr =  4.20E-08,  avg # of iterations =  3.0

     negative rho (up, down):  1.502E-01 0.000E+00

     total cpu time spent up to now is     1768.5 secs

     total energy              =   -8532.40086699 Ry
     estimated scf accuracy    <       0.00016275 Ry

     iteration # 11     ecut=    50.00 Ry     beta= 0.70
     Davidson diagonalization with overlap
     ethr =  2.51E-08,  avg # of iterations =  2.0

     negative rho (up, down):  1.499E-01 0.000E+00

     total cpu time spent up to now is     1892.6 secs

     total energy              =   -8532.40087536 Ry
     estimated scf accuracy    <       0.00003340 Ry

     iteration # 12     ecut=    50.00 Ry     beta= 0.70
     Davidson diagonalization with overlap
     ethr =  5.15E-09,  avg # of iterations =  2.0

     negative rho (up, down):  1.497E-01 0.000E+00

     total cpu time spent up to now is     2023.5 secs

     total energy              =   -8532.40087627 Ry
     estimated scf accuracy    <       0.00000746 Ry

     iteration # 13     ecut=    50.00 Ry     beta= 0.70
     Davidson diagonalization with overlap
     ethr =  1.15E-09,  avg # of iterations =  3.6

     negative rho (up, down):  1.496E-01 0.000E+00

     total cpu time spent up to now is     2207.2 secs

     total energy              =   -8532.40087735 Ry
     estimated scf accuracy    <       0.00000204 Ry

     iteration # 14     ecut=    50.00 Ry     beta= 0.70
     Davidson diagonalization with overlap
     ethr =  3.15E-10,  avg # of iterations =  2.0

     negative rho (up, down):  1.496E-01 0.000E+00

     total cpu time spent up to now is     2396.0 secs

     total energy              =   -8532.40087737 Ry
     estimated scf accuracy    <       0.00000103 Ry

     iteration # 15     ecut=    50.00 Ry     beta= 0.70
     Davidson diagonalization with overlap
     ethr =  1.58E-10,  avg # of iterations =  1.4

     negative rho (up, down):  1.496E-01 0.000E+00

     total cpu time spent up to now is     2499.2 secs

     total energy              =   -8532.40087739 Ry
     estimated scf accuracy    <       0.00000021 Ry

     iteration # 16     ecut=    50.00 Ry     beta= 0.70
     Davidson diagonalization with overlap
     ethr =  3.17E-11,  avg # of iterations =  2.0

     negative rho (up, down):  1.496E-01 0.000E+00

     total cpu time spent up to now is     2641.1 secs

     total energy              =   -8532.40087738 Ry
     estimated scf accuracy    <       0.00000010 Ry

     iteration # 17     ecut=    50.00 Ry     beta= 0.70
     Davidson diagonalization with overlap
     ethr =  1.62E-11,  avg # of iterations =  2.9

     negative rho (up, down):  1.496E-01 0.000E+00

     total cpu time spent up to now is     2763.6 secs

     total energy              =   -8532.40087739 Ry
     estimated scf accuracy    <          9.7E-09 Ry

     iteration # 18     ecut=    50.00 Ry     beta= 0.70
     Davidson diagonalization with overlap
     ethr =  1.50E-12,  avg # of iterations =  3.9

     negative rho (up, down):  1.496E-01 0.000E+00

     total cpu time spent up to now is     2979.8 secs

     total energy              =   -8532.40087739 Ry
     estimated scf accuracy    <          4.8E-09 Ry

     iteration # 19     ecut=    50.00 Ry     beta= 0.70
     Davidson diagonalization with overlap
     ethr =  7.42E-13,  avg # of iterations =  2.0

     negative rho (up, down):  1.496E-01 0.000E+00

     total cpu time spent up to now is     3091.8 secs

     total energy              =   -8532.40087739 Ry
     estimated scf accuracy    <          3.5E-09 Ry

     iteration # 20     ecut=    50.00 Ry     beta= 0.70
     Davidson diagonalization with overlap
     ethr =  5.40E-13,  avg # of iterations =  1.0

     negative rho (up, down):  1.496E-01 0.000E+00

     total cpu time spent up to now is     3191.2 secs

     total energy              =   -8532.40087739 Ry
     estimated scf accuracy    <          2.4E-09 Ry

     iteration # 21     ecut=    50.00 Ry     beta= 0.70
     Davidson diagonalization with overlap
     ethr =  3.74E-13,  avg # of iterations =  1.2

     negative rho (up, down):  1.496E-01 0.000E+00

     total cpu time spent up to now is     3293.4 secs

     total energy              =   -8532.40087739 Ry
     estimated scf accuracy    <          4.6E-10 Ry

     iteration # 22     ecut=    50.00 Ry     beta= 0.70
     Davidson diagonalization with overlap
     ethr =  1.00E-13,  avg # of iterations =  2.0

     negative rho (up, down):  1.496E-01 0.000E+00

     total cpu time spent up to now is     3406.4 secs

     total energy              =   -8532.40087739 Ry
     estimated scf accuracy    <          2.9E-11 Ry

     iteration # 23     ecut=    50.00 Ry     beta= 0.70
     Davidson diagonalization with overlap
     ethr =  1.00E-13,  avg # of iterations =  1.0

     negative rho (up, down):  1.496E-01 0.000E+00

     total cpu time spent up to now is     3506.2 secs

     total energy              =   -8532.40087739 Ry
     estimated scf accuracy    <          1.2E-11 Ry

     iteration # 24     ecut=    50.00 Ry     beta= 0.70
     Davidson diagonalization with overlap
     ethr =  1.00E-13,  avg # of iterations =  1.0

     negative rho (up, down):  1.496E-01 0.000E+00

     total cpu time spent up to now is     3609.8 secs

     total energy              =   -8532.40087739 Ry
     estimated scf accuracy    <          5.1E-12 Ry

     iteration # 25     ecut=    50.00 Ry     beta= 0.70
     Davidson diagonalization with overlap
     ethr =  1.00E-13,  avg # of iterations =  1.0

     negative rho (up, down):  1.496E-01 0.000E+00

     total cpu time spent up to now is     3710.5 secs

     total energy              =   -8532.40087739 Ry
     estimated scf accuracy    <          4.4E-12 Ry

     iteration # 26     ecut=    50.00 Ry     beta= 0.70
     Davidson diagonalization with overlap
     ethr =  1.00E-13,  avg # of iterations =  1.0

     negative rho (up, down):  1.496E-01 0.000E+00

     total cpu time spent up to now is     3810.3 secs

     total energy              =   -8532.40087739 Ry
     estimated scf accuracy    <          1.1E-12 Ry

     iteration # 27     ecut=    50.00 Ry     beta= 0.70
     Davidson diagonalization with overlap
     ethr =  1.00E-13,  avg # of iterations =  1.0

     negative rho (up, down):  1.496E-01 0.000E+00

     total cpu time spent up to now is     3933.3 secs

     total energy              =   -8532.40087739 Ry
     estimated scf accuracy    <          3.5E-14 Ry

     iteration # 28     ecut=    50.00 Ry     beta= 0.70
     Davidson diagonalization with overlap
     ethr =  1.00E-13,  avg # of iterations =  1.0

     negative rho (up, down):  1.496E-01 0.000E+00

     total cpu time spent up to now is     4033.4 secs

     total energy              =   -8532.40087739 Ry
     estimated scf accuracy    <          1.3E-14 Ry

     iteration # 29     ecut=    50.00 Ry     beta= 0.70
     Davidson diagonalization with overlap
     ethr =  1.00E-13,  avg # of iterations =  1.0

     negative rho (up, down):  1.496E-01 0.000E+00

     total cpu time spent up to now is     4134.7 secs

     total energy              =   -8532.40087739 Ry
     estimated scf accuracy    <          2.1E-14 Ry

     iteration # 30     ecut=    50.00 Ry     beta= 0.70
     Davidson diagonalization with overlap
     ethr =  1.00E-13,  avg # of iterations =  1.0

     negative rho (up, down):  1.496E-01 0.000E+00

     total cpu time spent up to now is     4234.3 secs

     total energy              =   -8532.40087739 Ry
     estimated scf accuracy    <          3.5E-14 Ry

     iteration # 31     ecut=    50.00 Ry     beta= 0.70
     Davidson diagonalization with overlap
     ethr =  1.00E-13,  avg # of iterations =  1.0

     negative rho (up, down):  1.496E-01 0.000E+00

     total cpu time spent up to now is     4334.5 secs

     total energy              =   -8532.40087739 Ry
     estimated scf accuracy    <          1.5E-14 Ry

     iteration # 32     ecut=    50.00 Ry     beta= 0.70
     Davidson diagonalization with overlap
     ethr =  1.00E-13,  avg # of iterations =  1.1

     negative rho (up, down):  1.496E-01 0.000E+00

     total cpu time spent up to now is     4437.7 secs

     total energy              =   -8532.40087739 Ry
     estimated scf accuracy    <          2.5E-15 Ry

     iteration # 33     ecut=    50.00 Ry     beta= 0.70
     Davidson diagonalization with overlap
     ethr =  1.00E-13,  avg # of iterations =  1.0

     negative rho (up, down):  1.496E-01 0.000E+00

     total cpu time spent up to now is     4538.6 secs

     total energy              =   -8532.40087739 Ry
     estimated scf accuracy    <          8.3E-16 Ry

     iteration # 34     ecut=    50.00 Ry     beta= 0.70
     Davidson diagonalization with overlap
     ethr =  1.00E-13,  avg # of iterations =  1.0

     negative rho (up, down):  1.496E-01 0.000E+00

     total cpu time spent up to now is     4641.7 secs

     End of self-consistent calculation

          k = 0.0000 0.0000 0.0000 (143351 PWs)   bands (ev):

    -3.1912  -2.4368  -2.4368  -2.4368  -2.4368  -2.4367  -2.4367  -2.4367
    -2.4367  -2.1861  -2.1861  -2.1861  -2.1861  -2.1861  -2.1861  -1.1880
    -1.1880  -1.1880  -1.1880  -1.1880  -1.1880  -1.1880  -1.1880  -1.1880
    -1.1880  -1.1880  -1.1880  -0.4441  -0.4441  -0.4441  -0.4441  -0.4441
    -0.4441  -0.4441  -0.4441  -0.4441  -0.4441  -0.4441  -0.4441  -0.4440
    -0.4440  -0.4440  -0.4440  -0.4440  -0.4440  -0.4440  -0.4440  -0.4440
    -0.4439  -0.4439  -0.4439  -0.1966  -0.1966  -0.1966  -0.1966  -0.1966
    -0.1965  -0.1965  -0.1965   0.7855   0.7855   0.7855   0.7855   0.7855
     0.7855   1.5216   1.5216   1.5216   1.5216   1.5216   1.5216   1.5216
     1.5216   1.5216   1.5216   1.5216   1.5216   1.5216   1.5216   1.5216
     1.5216   1.5216   1.5216   1.5216   1.5216   1.5216   1.5216   1.5216
     1.5216   1.7631   1.7631   1.7631   1.7631   1.7631   1.7631   1.7631
     1.7631   1.7631   1.7631   1.7631   1.7631   1.7631   1.7631   1.7631
     1.7631   1.7631   1.7631   1.7631   1.7631   1.7631   1.7631   1.7631
     1.7631   2.7333   2.7333   2.7333   2.7333   2.7333   2.7333   2.7333
     2.7333   2.7333   2.7333   2.7333   2.7333   2.7333   2.7333   2.7333
     2.7333   2.7333   2.7333   2.7333   2.7333   2.7333   2.7333   2.7333
     2.7333   3.3568   3.3568   3.3568   3.3568   3.4377   3.4377   3.4377
     3.4377   3.4377   3.4377   3.4377   3.4377   3.4377   3.4377   3.4377
     3.4377   3.4377   3.4377   3.4377   3.4377   3.4377   3.4377   3.4377
     3.4377   3.4377   3.4377   3.4377   3.4377   3.5795   3.5795   3.5795
     3.5795   4.6497   4.6497   4.6497   4.6497   4.6497   4.6497   4.6497
     4.6497   4.6497   4.6497   4.6497   4.6497   5.0306   5.0306   5.0306
     5.2162   5.2162   5.2162   5.2162   5.2162   5.2162   5.2162   5.2162
     5.2162   5.2162   5.2162   5.2162   5.2162   5.2162   5.2162   5.2162
     5.2162   5.2162   5.2162   5.2162   5.2162   5.2162   5.2163   5.2163
     5.4930   5.4930   5.4930   5.4930   5.4930   5.4930   5.4930   5.4930
     5.4930   5.4930   5.4930   5.4930   5.4930   5.4930   5.4931   5.4931
     5.4931   5.4931   5.4931   5.4931   5.4931   5.4931   5.4931   5.4931
     5.6250   5.6250   5.6250   5.6250   5.6250   5.6250   5.6250   5.6250
     5.6250   5.6250   5.6250   5.6250   5.6250   5.6250   5.6250   5.6250
     5.6250   5.6250   5.6250   5.6250   5.6250   5.6250   5.6250   5.6250
     5.9551   5.9551   5.9551   5.9551   5.9551   5.9551   5.9551   5.9551
     5.9551   5.9551   5.9551   5.9551   6.3619   6.3619   6.3619   6.8811
     6.8811   6.8811   6.8811   6.8811   6.8811   6.8811   6.8811   6.8811
     6.8811   6.8811   6.8812   7.2581   7.2581   7.2581   7.2581   7.2581
     7.2581   7.2581   7.2581   7.2581   7.2581   7.2581   7.2581   7.2581
     7.2581   7.2581   7.2581   7.2581   7.2581   7.2581   7.2581   7.2581
     7.2581   7.2581   7.2581   7.3120   7.3120   7.3120   7.3120   7.3120
     7.3120   7.3120   7.3120   7.3120   7.3120   7.3120   7.3120   8.3605
     8.3605   8.3605   8.3605   8.3605   8.3605   8.3605   8.3605   8.3605
     8.3605   8.3605   8.3605   8.4590   8.4590   8.4590   8.4590   8.4591
     8.4591   8.4591   8.4591   8.7369   8.7369   8.7369   8.7369   8.7369
     8.7369   8.7369   8.7369   8.7369   8.7369   8.7369   8.7369   8.9908
     8.9908   8.9908   8.9908   8.9908   8.9908   8.9908   8.9908   8.9908
     8.9908   8.9908   8.9908   8.9908   8.9908   8.9908   8.9908   8.9908
     8.9908   8.9908   8.9908   8.9908   8.9908   8.9908   8.9908   9.4754
     9.4754   9.4754   9.4754   9.4754   9.4754   9.4754   9.4754   9.4754
     9.4754   9.4754   9.4754   9.4754   9.4754

          k =-0.1768 0.1768-0.1768 (143249 PWs)   bands (ev):

    -3.1440  -2.7663  -2.5151  -2.5151  -2.5151  -2.3897  -2.3897  -2.3897
    -2.2644  -2.2644  -2.2644  -2.0141  -1.8891  -1.8891  -1.8891  -1.6394
    -1.6394  -1.6394  -1.1413  -1.1413  -1.1413  -1.1413  -1.1413  -1.1413
    -1.0172  -1.0172  -1.0172  -0.8929  -0.7690  -0.7690  -0.7690  -0.7690
    -0.7690  -0.7690  -0.6450  -0.6450  -0.6450  -0.5212  -0.5212  -0.5212
    -0.3974  -0.3974  -0.3974  -0.2742  -0.2742  -0.2742  -0.0273  -0.0273
    -0.0273  -0.0273  -0.0273  -0.0273   0.0965   0.0965   0.0965   0.2191
     0.2191   0.2191   0.3412   0.3412   0.3412   0.5887   0.7111   0.7111
     0.7111   0.9564   0.9564   0.9564   1.0774   1.0774   1.0774   1.0774
     1.0774   1.0774   1.3193   1.3193   1.3193   1.4452   1.4452   1.4452
     1.4452   1.4452   1.4452   1.5662   1.5662   1.5662   1.5662   1.5662
     1.5662   1.6892   1.6892   1.6892   1.6892   1.6892   1.6892   1.8100
     1.8100   1.8100   2.0502   2.0502   2.0502   2.0502   2.0502   2.0502
     2.1754   2.1754   2.1754   2.2959   2.2959   2.2959   2.2959   2.2959
     2.2959   2.4179   2.4179   2.4179   2.4180   2.5353   2.5353   2.5353
     2.5353   2.5353   2.5353   2.6484   2.6484   2.6484   2.7770   2.7770
     2.7770   2.7793   2.7793   2.7793   2.8898   2.8898   2.8898   2.8898
     2.8898   2.8898   3.1308   3.1308   3.1308   3.1337   3.1337   3.1337
     3.2581   3.2581   3.2581   3.2581   3.2581   3.2581   3.7272   3.7272
     3.7272   3.7420   3.7420   3.7420   3.8255   3.8255   3.8255   3.8918
     3.8918   3.8918   4.0640   4.0640   4.0640   4.0640   4.0640   4.0640
     4.3018   4.3018   4.3018   4.3274   4.3274   4.3274   4.3274   4.3274
     4.3274   4.4932   4.4932   4.4932   4.5515   4.5515   4.5515   4.5515
     4.5515   4.5515   4.6014   4.6927   4.6927   4.6927   4.6927   4.6927
     4.6927   4.7577   4.7577   4.7577   4.9584   4.9584   4.9584   5.0258
     5.0258   5.0258   5.0258   5.0258   5.0258   5.3186   5.3186   5.3186
     5.3186   5.3186   5.3186   5.4318   5.4318   5.4318   5.4318   5.4318
     5.4318   5.4590   5.4590   5.4590   5.4590   5.4590   5.4590   5.4714
     5.4714   5.4714   5.4714   5.4714   5.4714   5.6227   5.6227   5.6227
     5.7610   5.7610   5.7610   5.7610   5.7610   5.7610   5.9059   5.9059
     5.9059   5.9059   5.9059   5.9059   5.9251   5.9251   5.9251   5.9251
     5.9251   5.9251   6.0149   6.0149   6.0149   6.1814   6.1814   6.1814
     6.2276   6.2276   6.2276   6.2276   6.2276   6.2276   6.3753   6.3753
     6.3753   6.4525   6.4525   6.4525   6.4525   6.4525   6.4525   6.6367
     6.6367   6.6367   6.6367   6.6368   6.6368   6.7213   6.7213   6.7213
     6.7252   6.7252   6.7252   6.7252   6.7252   6.7252   6.8493   6.8493
     6.8493   7.0945   7.1023   7.1023   7.1023   7.1597   7.1597   7.1597
     7.4254   7.4254   7.4254   7.4254   7.4254   7.4254   7.4338   7.4338
     7.4338   7.7990   7.7990   7.7990   7.7990   7.7990   7.7990   7.8436
     7.8436   7.8436   7.8652   7.8652   7.8652   7.8652   7.8652   7.8652
     8.0334   8.0334   8.0334   8.1079   8.1079   8.1079   8.1356   8.1356
     8.1356   8.1356   8.1356   8.1356   8.2195   8.2195   8.2195   8.3362
     8.3362   8.3362   8.5108   8.5108   8.5108   8.5108   8.5108   8.5108
     8.5691   8.5691   8.5691   8.6904   8.6904   8.6904   8.6904   8.6904
     8.6904   8.7319   8.7319   8.7319   8.7319   8.7319   8.7319   8.8884
     8.8884   8.8884   8.9678   8.9678   8.9678   8.9825   8.9825   8.9825
     8.9825   8.9825   8.9825   9.1114   9.1114   9.1114   9.1114   9.1114
     9.1114   9.1657   9.1657   9.1657   9.1989   9.1989   9.1989   9.1989
     9.1989   9.1989   9.2187   9.2187   9.2187

          k = 0.3536-0.3536 0.3536 (143160 PWs)   bands (ev):

    -3.0022  -3.0022  -2.4995  -2.4995  -2.4995  -2.4995  -2.4995  -2.4995
    -1.9984  -1.9984  -1.9984  -1.9984  -1.9984  -1.9984  -1.4992  -1.4992
    -1.4992  -1.4992  -1.4992  -1.4992  -1.4991  -1.4991  -1.0016  -1.0016
    -1.0016  -1.0016  -1.0016  -1.0016  -1.0016  -1.0016  -1.0016  -1.0016
    -1.0016  -1.0016  -0.5057  -0.5057  -0.5057  -0.5057  -0.5057  -0.5057
    -0.0123  -0.0123  -0.0123  -0.0123  -0.0123  -0.0123  -0.0116  -0.0116
    -0.0116  -0.0116  -0.0116  -0.0116   0.4802   0.4802   0.4802   0.4802
     0.4802   0.4802   0.4802   0.4802   0.4802   0.4802   0.4802   0.4802
     0.4810   0.4810   0.4810   0.4810   0.4810   0.4810   0.9710   0.9710
     0.9710   0.9710   0.9710   0.9710   1.4601   1.4601   1.4601   1.4601
     1.4601   1.4601   1.4601   1.4601   1.4601   1.4601   1.4601   1.4601
     1.4611   1.4611   1.9410   1.9410   1.9410   1.9410   1.9410   1.9410
     1.9475   1.9475   1.9475   1.9475   1.9475   1.9475   1.9475   1.9475
     1.9475   1.9475   1.9475   1.9475   2.4263   2.4263   2.4263   2.4263
     2.4263   2.4263   2.4263   2.4263   2.4263   2.4263   2.4263   2.4263
     2.9098   2.9098   2.9098   2.9098   2.9098   2.9098   2.9141   2.9141
     2.9141   2.9141   2.9141   2.9141   2.9162   2.9162   2.9162   2.9162
     2.9162   2.9162   3.3918   3.3918   3.3918   3.3918   3.3918   3.3918
     3.3918   3.3918   3.3918   3.3918   3.3918   3.3918   3.3943   3.3943
     3.3943   3.3943   3.3943   3.3943   3.8670   3.8670   3.8670   3.8670
     3.8670   3.8670   3.8670   3.8670   3.8670   3.8670   3.8670   3.8670
     4.2811   4.2811   4.2811   4.2811   4.2811   4.2811   4.3788   4.3788
     4.3788   4.3788   4.3788   4.3788   4.7543   4.7543   4.7543   4.7543
     4.7543   4.7543   4.7543   4.7543   4.7543   4.7543   4.7543   4.7543
     4.8205   4.8205   4.8205   4.8205   4.8205   4.8205   4.8205   4.8205
     4.8205   4.8205   4.8205   4.8205   4.8512   4.8512   4.8512   4.8512
     4.8512   4.8512   5.2216   5.2216   5.2216   5.2216   5.2216   5.2216
     5.3278   5.3278   5.3278   5.3278   5.3278   5.3278   5.3278   5.3278
     5.3278   5.3278   5.3278   5.3278   5.6929   5.6929   5.6929   5.6929
     5.6929   5.6929   5.6929   5.6929   5.6929   5.6929   5.6929   5.6929
     5.8073   5.8073   6.1897   6.1897   6.1897   6.1897   6.1897   6.1897
     6.1897   6.1897   6.1897   6.1897   6.1897   6.1897   6.2733   6.2733
     6.2733   6.2733   6.2733   6.2733   6.2733   6.2733   6.2733   6.2733
     6.2733   6.2733   6.7179   6.7179   6.7179   6.7179   6.7179   6.7179
     7.1112   7.1112   7.1112   7.1112   7.1112   7.1112   7.1112   7.1112
     7.1112   7.1112   7.1112   7.1112   7.1246   7.1246   7.1246   7.1246
     7.1246   7.1246   7.2056   7.2056   7.2056   7.2056   7.2056   7.2056
     7.4566   7.4566   7.4566   7.4566   7.4566   7.4566   7.5907   7.5907
     7.5907   7.5907   7.5907   7.5907   7.5907   7.5907   7.5907   7.5907
     7.5907   7.5907   7.6917   7.6917   7.6917   7.6917   7.6917   7.6917
     7.9061   7.9061   7.9061   7.9061   7.9061   7.9061   7.9061   7.9061
     7.9061   7.9061   7.9061   7.9061   8.1512   8.1512   8.1512   8.1512
     8.1512   8.1512   8.4658   8.4658   8.4658   8.4658   8.4658   8.4658
     8.5299   8.5299   8.5299   8.5299   8.5299   8.5299   8.5299   8.5299
     8.5299   8.5299   8.5299   8.5299   8.8701   8.8701   8.8701   8.8701
     8.8701   8.8701   8.8701   8.8701   8.8701   8.8701   8.8701   8.8701
     9.0313   9.0313   9.0313   9.0313   9.0313   9.0313   9.0313   9.0313
     9.0313   9.0313   9.0313   9.0313   9.3931   9.3931   9.3931   9.3931
     9.3931   9.3931   9.3931   9.3933   9.3934

          k = 0.0000 0.3536 0.0000 (143348 PWs)   bands (ev):

    -3.1282  -2.6250  -2.6250  -2.6250  -2.6250  -2.6250  -2.1235  -2.1235
    -2.1235  -2.1235  -2.1235  -2.1235  -2.1235  -2.1235  -1.6238  -1.6238
    -1.6238  -1.6238  -1.6238  -1.1258  -1.1258  -1.1258  -1.1258  -1.1258
    -1.1258  -1.1258  -1.1258  -0.6297  -0.6297  -0.6297  -0.6297  -0.6297
    -0.6297  -0.6297  -0.6297  -0.6295  -0.6295  -0.6295  -0.6295  -0.6295
    -0.6295  -0.6295  -0.6295  -0.1356  -0.1351  -0.1351  -0.1351  -0.1351
    -0.1351  -0.1351  -0.1351  -0.1351   0.3572   0.3572   0.3572   0.3572
     0.3581   0.3581   0.3581   0.3581   0.8468   0.8468   0.8468   0.8468
     0.8484   0.8484   0.8484   0.8484   0.8491   0.8491   0.8491   0.8491
     0.8491   0.8491   0.8491   0.8491   1.3362   1.3362   1.3362   1.3362
     1.3384   1.3384   1.3384   1.3384   1.8194   1.8240   1.8240   1.8240
     1.8240   1.8240   1.8240   1.8240   1.8240   1.8259   1.8259   1.8259
     1.8259   1.8264   1.8264   1.8264   1.8264   2.3052   2.3052   2.3052
     2.3052   2.3100   2.3100   2.3100   2.3100   2.3100   2.3100   2.3100
     2.3100   2.3100   2.3100   2.3100   2.3100   2.3117   2.3117   2.3117
     2.3117   2.3117   2.3117   2.3117   2.3117   2.7893   2.7893   2.7893
     2.7893   2.7941   2.7941   2.7941   2.7941   3.2576   3.2576   3.2576
     3.2576   3.2576   3.2576   3.2576   3.2576   3.2730   3.2730   3.2730
     3.2730   3.2730   3.2730   3.2730   3.2730   3.7372   3.7372   3.7372
     3.7372   3.7372   3.7372   3.7372   3.7372   3.7473   3.7473   3.7473
     3.7473   3.7566   3.7566   3.7566   3.7566   4.1625   4.2254   4.2254
     4.2254   4.2254   4.2254   4.2254   4.2254   4.2254   4.2591   4.2591
     4.2591   4.2591   4.6360   4.6360   4.6360   4.6360   4.6863   4.6863
     4.6863   4.6863   4.6863   4.6863   4.6863   4.6863   4.7053   4.7053
     4.7053   4.7053   4.7368   4.7368   4.7368   4.7368   4.7368   4.7368
     4.7368   4.7368   5.0883   5.0883   5.1085   5.1085   5.1085   5.1085
     5.1611   5.1611   5.1611   5.1611   5.1611   5.1611   5.1611   5.1611
     5.2127   5.2127   5.2127   5.2127   5.5505   5.5505   5.6455   5.6455
     5.6455   5.6455   5.6669   5.6669   5.6669   5.6669   5.6669   5.6669
     5.6669   5.6669   6.0130   6.0130   6.0130   6.0130   6.0723   6.0723
     6.0723   6.0723   6.1377   6.1377   6.1377   6.1377   6.1377   6.1377
     6.1377   6.1377   6.1555   6.1555   6.1555   6.1555   6.1594   6.1594
     6.1594   6.1594   6.4228   6.4228   6.4758   6.4758   6.4758   6.4758
     6.4759   6.4759   6.5402   6.5402   6.5402   6.5402   6.5402   6.5402
     6.5402   6.5402   6.6087   6.6087   6.6087   6.6087   6.6087   6.6087
     6.6087   6.6087   6.6253   6.6253   6.6253   6.6253   6.6253   6.6253
     6.6253   6.6253   6.9039   6.9039   7.3191   7.3191   7.3191   7.3191
     7.3391   7.4026   7.4026   7.4026   7.4026   7.5791   7.5791   7.5791
     7.5791   7.7873   7.7873   7.7873   7.7873   7.7965   7.7965   7.8665
     7.8665   7.9464   7.9464   7.9464   7.9464   7.9913   7.9913   7.9913
     7.9913   7.9913   7.9913   7.9913   7.9913   8.0227   8.0227   8.0227
     8.0227   8.0227   8.0227   8.0227   8.0227   8.0299   8.0299   8.0299
     8.0299   8.2534   8.2534   8.2534   8.2534   8.4139   8.4139   8.4139
     8.4139   8.7948   8.7948   8.7948   8.7948   8.7949   8.7949   8.7949
     8.7949   8.8763   8.8763   8.8763   8.8763   8.8763   8.8763   8.8763
     8.8763   8.8959   8.8959   8.8959   8.8959   8.9792   8.9792   8.9792
     8.9792   9.1431   9.1431   9.1431   9.1431   9.1431   9.1431   9.1431
     9.1431   9.2595   9.2595   9.2595   9.2595   9.2813   9.2813   9.2813
     9.2813   9.3780   9.3780   9.3780   9.3781

          k = 0.5303-0.1768 0.5303 (143227 PWs)   bands (ev):

    -3.0180  -2.8921  -2.7663  -2.6407  -2.6407  -2.3897  -2.2644  -2.2644
    -2.1392  -2.0141  -2.0141  -1.8891  -1.8891  -1.7642  -1.7642  -1.6394
    -1.6394  -1.5147  -1.5147  -1.5147  -1.3902  -1.3902  -1.2658  -1.2657
    -1.1414  -1.1414  -1.1413  -1.0171  -1.0171  -0.8930  -0.8930  -0.7689
    -0.7689  -0.5215  -0.5213  -0.5213  -0.5212  -0.3978  -0.3978  -0.3975
    -0.3975  -0.2738  -0.1507  -0.1507  -0.1504  -0.1504  -0.0270  -0.0270
     0.0963   0.0963   0.2191   0.2191   0.2196   0.3422   0.3422   0.3426
     0.3426   0.4642   0.4642   0.5870   0.5881   0.5881   0.5883   0.7098
     0.7098   0.7108   0.7108   0.7113   0.7113   0.8325   0.8325   0.8335
     0.8335   0.9562   1.0775   1.0786   1.0786   1.1998   1.1998   1.2015
     1.3230   1.3230   1.3236   1.4413   1.4413   1.4442   1.4442   1.4454
     1.4454   1.5633   1.6852   1.6852   1.6881   1.6881   1.8069   1.8069
     1.8115   1.9316   1.9316   1.9328   2.0502   2.0539   2.0543   2.0543
     2.1716   2.1716   2.1746   2.1746   2.2960   2.2960   2.4065   2.4142
     2.4142   2.5275   2.5275   2.5382   2.5382   2.5387   2.5387   2.6563
     2.6563   2.7692   2.7692   2.7800   2.8977   2.8977   2.8999   2.8999
     2.9008   2.9008   3.0213   3.0213   3.1310   3.1310   3.1393   3.1393
     3.2512   3.2512   3.2532   3.2594   3.2594   3.2610   3.2610   3.3720
     3.3720   3.4912   3.4912   3.4984   3.4984   3.5864   3.6107   3.6107
     3.6118   3.6118   3.7060   3.7060   3.7313   3.7313   3.8464   3.8464
     3.8492   3.8597   3.8597   3.8602   3.9449   3.9449   3.9689   3.9689
     3.9778   3.9778   4.0120   4.0866   4.1326   4.1326   4.2035   4.2035
     4.2099   4.2099   4.3023   4.3023   4.3139   4.3139   4.3708   4.3708
     4.4208   4.4208   4.6112   4.6112   4.6565   4.6565   4.7203   4.7203
     4.7773   4.7773   4.7967   4.7967   4.8417   4.8747   4.8747   4.8939
     4.8939   4.9223   4.9223   4.9562   4.9614   4.9614   4.9916   4.9986
     5.0754   5.0754   5.0888   5.0888   5.1086   5.1086   5.1169   5.1169
     5.2253   5.2253   5.3672   5.3672   5.4228   5.4228   5.4353   5.4580
     5.5250   5.5250   5.5534   5.5749   5.5749   5.6601   5.6601   5.6697
     5.6697   5.7348   5.7348   5.7942   5.8027   5.8027   5.9058   5.9058
     5.9822   6.0206   6.0363   6.0363   6.0609   6.0609   6.1001   6.1001
     6.1318   6.1318   6.1331   6.1331   6.2665   6.2976   6.2976   6.3821
     6.4860   6.4860   6.4994   6.4994   6.5031   6.5031   6.5706   6.5706
     6.6443   6.6443   6.6772   6.6772   6.8053   6.8053   6.8265   6.8265
     6.8410   6.8410   6.8695   6.8695   6.8859   6.8859   6.9586   6.9595
     6.9595   7.0309   7.0309   7.0683   7.0683   7.0782   7.0782   7.1871
     7.1871   7.2054   7.2054   7.2094   7.2094   7.2186   7.2186   7.2712
     7.2712   7.2767   7.2767   7.3276   7.3320   7.3320   7.4246   7.4246
     7.4406   7.4466   7.4466   7.5501   7.5501   7.5670   7.5670   7.6262
     7.6262   7.6852   7.6852   7.8842   7.8842   7.8973   7.8973   7.9133
     7.9176   7.9176   7.9395   7.9395   7.9997   7.9997   8.0975   8.0975
     8.1028   8.1028   8.1105   8.1372   8.1372   8.1475   8.2001   8.2001
     8.2260   8.2260   8.2564   8.2564   8.2682   8.3334   8.3334   8.3798
     8.3798   8.3844   8.3844   8.4067   8.4067   8.4528   8.4528   8.4673
     8.4860   8.4860   8.5582   8.5582   8.6508   8.6508   8.6846   8.6846
     8.7472   8.7472   8.9137   8.9137   8.9393   8.9399   8.9399   8.9672
     8.9672   8.9924   8.9924   9.0294   9.0294   9.0760   9.1395   9.1395
     9.1894   9.1894   9.2155   9.2155   9.2220   9.2220   9.2329   9.2329
     9.2784   9.2784   9.3012   9.3012   9.3868

          k = 0.3536 0.0000 0.3536 (143240 PWs)   bands (ev):

    -3.0652  -2.8135  -2.8135  -2.5622  -2.5622  -2.3114  -2.3114  -2.3113
    -2.3113  -2.0610  -2.0610  -2.0609  -1.8110  -1.8110  -1.5615  -1.5615
    -1.5615  -1.5615  -1.5614  -1.5614  -1.3124  -1.3124  -1.3123  -1.3123
    -1.0637  -1.0637  -1.0637  -1.0637  -0.8156  -0.8156  -0.8154  -0.8154
    -0.8154  -0.8154  -0.5676  -0.5676  -0.5676  -0.5676  -0.3204  -0.3204
    -0.3204  -0.3204  -0.0740  -0.0740  -0.0733  -0.0732  -0.0732  -0.0731
    -0.0731   0.1726   0.1726   0.1726   0.1726   0.1732   0.1732   0.1734
     0.1734   0.4187   0.4187   0.6644   0.6644   0.6645   0.6645   0.6650
     0.6650   0.6650   0.6650   0.9080   0.9080   0.9097   0.9097   0.9097
     0.9097   0.9107   0.9107   1.1554   1.1554   1.1554   1.1554   1.3973
     1.3973   1.3973   1.3973   1.3990   1.3990   1.3991   1.3991   1.3991
     1.3991   1.6431   1.6431   1.6431   1.6431   1.8802   1.8802   1.8848
     1.8848   2.1232   2.1232   2.1232   2.1232   2.1297   2.1297   2.1297
     2.1297   2.1304   2.1304   2.3658   2.3658   2.3706   2.3706   2.3706
     2.3706   2.3723   2.3723   2.3723   2.3723   2.6079   2.6079   2.6079
     2.6079   2.6142   2.6142   2.6142   2.6142   2.8496   2.8496   2.8496
     2.8497   2.8541   2.8541   2.8541   2.8541   2.8559   3.0772   3.0772
     3.0966   3.0966   3.3309   3.3309   3.3309   3.3309   3.3318   3.3318
     3.4735   3.4735   3.5577   3.5577   3.5577   3.5577   3.5712   3.5712
     3.5713   3.5713   3.7026   3.7026   3.7069   3.7069   3.8159   3.8159
     3.8159   3.8159   3.9478   3.9478   4.0353   4.0353   4.0506   4.0506
     4.0506   4.0506   4.1730   4.1730   4.1730   4.1730   4.2218   4.2218
     4.4057   4.4057   4.4332   4.4332   4.4332   4.4332   4.4587   4.4587
     4.4587   4.4587   4.5126   4.5126   4.5126   4.5126   4.6732   4.6732
     4.6954   4.6954   4.7651   4.7651   4.8692   4.8692   4.8692   4.8692
     4.9306   4.9306   4.9306   4.9306   5.0335   5.0335   5.1451   5.1451
     5.1451   5.1451   5.1461   5.1668   5.1668   5.1668   5.1668   5.2701
     5.2701   5.2701   5.2701   5.5025   5.5025   5.5025   5.5025   5.5502
     5.5502   5.5502   5.5502   5.6082   5.6082   5.6373   5.6373   5.7395
     5.7395   5.7395   5.7395   5.7814   5.7814   5.7814   5.7814   5.8160
     5.8161   5.8161   5.8161   5.9587   5.9587   6.0404   6.0404   6.0404
     6.0404   6.0708   6.2107   6.2107   6.2107   6.2107   6.2346   6.2346
     6.4300   6.4300   6.4300   6.4300   6.4601   6.4601   6.4833   6.5337
     6.5337   6.5967   6.5967   6.5967   6.5967   6.5972   6.6952   6.6952
     6.8308   6.8308   6.8308   6.8308   6.9070   6.9070   6.9248   6.9248
     6.9248   6.9248   6.9571   6.9571   6.9970   6.9970   7.0085   7.0085
     7.1580   7.1580   7.1580   7.1580   7.2951   7.2951   7.2952   7.2952
     7.3749   7.3749   7.3749   7.3749   7.3981   7.3981   7.5698   7.6202
     7.6202   7.6304   7.6304   7.6304   7.6304   7.7170   7.7170   7.7170
     7.7170   7.7696   7.7696   7.7696   7.7696   7.8638   7.8638   7.9164
     7.9164   7.9164   7.9164   7.9243   7.9245   7.9245   7.9855   7.9855
     8.0022   8.0022   8.0022   8.0022   8.2583   8.2583   8.2583   8.2583
     8.2975   8.2975   8.2975   8.2975   8.3886   8.3886   8.4412   8.4412
     8.4412   8.4412   8.4637   8.4637   8.4637   8.4637   8.4750   8.4750
     8.5709   8.5709   8.5709   8.5709   8.6603   8.6603   8.7850   8.7850
     8.7976   8.7976   8.8687   8.8687   8.8687   8.8687   8.9606   8.9606
     8.9846   8.9846   9.0796   9.0796   9.0796   9.0796   9.0873   9.0873
     9.0873   9.0873   9.1731   9.1731   9.1731   9.1731   9.2415   9.2415
     9.2415   9.2415   9.2419   9.3154   9.3172

          k = 0.0000-0.7071 0.0000 (143292 PWs)   bands (ev):

    -2.9393  -2.9393  -2.6878  -2.6878  -2.6878  -2.6878  -1.9360  -1.9360
    -1.9360  -1.9360  -1.9359  -1.9359  -1.9359  -1.9359  -1.6862  -1.6862
    -1.6862  -1.6862  -1.6862  -1.6862  -1.6862  -1.6862  -0.9397  -0.9397
    -0.9395  -0.9395  -0.9395  -0.9395  -0.9395  -0.9395  -0.9395  -0.9395
    -0.6916  -0.6916  -0.6916  -0.6916  -0.6916  -0.6916  -0.6916  -0.6916
     0.0499   0.0499   0.0499   0.0499   0.0499   0.0499   0.0499   0.0499
     0.2963   0.2963   0.2963   0.2963   0.2963   0.2963   0.2963   0.2963
     0.2963   0.2963   0.2963   0.2963   0.2963   0.2963   0.2963   0.2963
     1.0305   1.0305   1.0305   1.0305   1.0305   1.0305   1.0305   1.0305
     1.0330   1.0330   1.0330   1.0330   1.0330   1.0330   1.0330   1.0330
     1.2751   1.2751   1.2751   1.2751   1.2751   1.2751   1.2751   1.2751
     1.2773   1.2773   1.2773   1.2773   2.0064   2.0064   2.0064   2.0064
     2.0064   2.0064   2.0064   2.0064   2.0065   2.0065   2.0065   2.0065
     2.0065   2.0065   2.0065   2.0065   2.2516   2.2516   2.2516   2.2516
     2.2516   2.2516   2.2516   2.2516   2.9569   2.9569   2.9753   2.9753
     2.9753   2.9753   2.9753   2.9753   2.9753   2.9753   3.1975   3.1975
     3.1975   3.1975   3.1975   3.1975   3.1975   3.1975   3.2157   3.2157
     3.2157   3.2157   3.2157   3.2157   3.2157   3.2157   3.2157   3.2157
     3.2157   3.2157   3.2157   3.2157   3.2157   3.2157   3.8235   3.8235
     3.8235   3.8235   3.8235   3.8235   3.8235   3.8235   3.9170   3.9170
     3.9170   3.9170   3.9170   3.9170   3.9170   3.9170   4.0698   4.0698
     4.0698   4.0698   4.0698   4.0698   4.0698   4.0698   4.1548   4.1548
     4.1548   4.1548   4.1548   4.1548   4.1548   4.1548   4.1548   4.1548
     4.1548   4.1548   4.1548   4.1548   4.1548   4.1548   4.7531   4.7531
     4.7531   4.7531   4.7531   4.7531   4.7531   4.7531   5.0273   5.0273
     5.0273   5.0273   5.0273   5.0273   5.0273   5.0273   5.1059   5.1059
     5.1059   5.1059   5.1059   5.1059   5.1059   5.1059   5.1513   5.1513
     5.1513   5.1513   5.1513   5.1513   5.1513   5.1513   5.2616   5.2616
     5.2616   5.2616   5.4927   5.4927   5.4927   5.4927   6.0768   6.0768
     6.0768   6.0768   6.0768   6.0768   6.0768   6.0768   6.0768   6.0768
     6.0768   6.0768   6.0768   6.0768   6.0769   6.0769   6.1865   6.1865
     6.1865   6.1865   6.1865   6.1865   6.1865   6.1865   6.6045   6.6045
     6.6045   6.6045   6.7057   6.7057   6.7057   6.7057   6.7057   6.7057
     6.7057   6.7057   6.8115   6.8115   6.8115   6.8115   6.8115   6.8115
     6.8115   6.8115   6.8360   6.8360   6.8360   6.8360   7.0117   7.0117
     7.0118   7.0118   7.0118   7.0118   7.0118   7.0118   7.0118   7.0118
     7.0118   7.0118   7.0118   7.0118   7.0118   7.0118   7.1129   7.1129
     7.1129   7.1129   7.3447   7.3447   7.3447   7.3447   7.3447   7.3447
     7.3447   7.3447   7.6816   7.6816   7.6816   7.6816   7.6816   7.6816
     7.6816   7.6816   7.7238   7.7238   7.7238   7.7238   7.7238   7.7238
     7.7238   7.7238   7.7238   7.7238   7.7238   7.7238   7.7238   7.7238
     7.7238   7.7238   8.0404   8.0404   8.0404   8.0404   8.0404   8.0404
     8.0404   8.0404   8.1284   8.1284   8.7979   8.7979   8.7979   8.7979
     8.7979   8.7979   8.7979   8.7979   8.8718   8.8718   8.8998   8.8998
     8.8998   8.8998   8.8998   8.8998   8.8998   8.8998   8.8998   8.8998
     8.8998   8.8998   8.8998   8.8998   8.8998   8.8998   8.9065   8.9065
     8.9065   8.9065   8.9691   8.9691   8.9691   8.9691   8.9692   8.9692
     8.9692   8.9692   9.0822   9.0822   9.0984   9.0984   9.0984   9.0984
     9.0984   9.0984   9.0984   9.0984   9.2009

          k =-0.3536-0.7071 0.0000 (143120 PWs)   bands (ev):

    -2.8764  -2.8764  -2.8764  -2.8764  -2.3740  -2.3740  -2.3740  -2.3740
    -1.8734  -1.8734  -1.8734  -1.8734  -1.8734  -1.8734  -1.8734  -1.8734
    -1.3746  -1.3746  -1.3746  -1.3746  -1.3746  -1.3746  -1.3746  -1.3746
    -1.3746  -1.3746  -1.3746  -1.3746  -0.8776  -0.8776  -0.8776  -0.8776
    -0.3822  -0.3822  -0.3822  -0.3822  -0.3820  -0.3820  -0.3820  -0.3820
    -0.3820  -0.3820  -0.3820  -0.3820   0.1110   0.1110   0.1110   0.1110
     0.1116   0.1116   0.1116   0.1116   0.1116   0.1116   0.1116   0.1116
     0.6036   0.6036   0.6036   0.6036   0.6037   0.6037   0.6037   0.6037
     0.6037   0.6037   0.6037   0.6037   1.0917   1.0917   1.0917   1.0917
     1.0917   1.0917   1.0917   1.0917   1.0935   1.0935   1.0935   1.0935
     1.0935   1.0935   1.0935   1.0935   1.5803   1.5803   1.5803   1.5803
     1.5803   1.5803   1.5803   1.5803   1.5829   1.5829   1.5829   1.5829
     1.5829   1.5829   1.5829   1.5829   2.0625   2.0625   2.0625   2.0625
     2.0689   2.0689   2.0689   2.0689   2.5523   2.5523   2.5523   2.5523
     2.5523   2.5523   2.5523   2.5523   3.0171   3.0171   3.0171   3.0171
     3.0305   3.0305   3.0305   3.0305   3.0305   3.0305   3.0305   3.0305
     3.0343   3.0343   3.0343   3.0343   3.0343   3.0343   3.0343   3.0343
     3.0356   3.0356   3.0356   3.0356   3.0356   3.0356   3.0356   3.0356
     3.4978   3.4978   3.4978   3.4978   3.5130   3.5130   3.5130   3.5130
     3.5130   3.5130   3.5130   3.5130   3.9766   3.9766   3.9766   3.9766
     3.9766   3.9766   3.9766   3.9766   3.9914   3.9914   3.9914   3.9914
     3.9914   3.9914   3.9914   3.9914   3.9915   3.9915   3.9915   3.9915
     4.3996   4.3996   4.3996   4.3996   4.4483   4.4483   4.4483   4.4483
     4.4483   4.4483   4.4483   4.4483   4.4538   4.4538   4.4538   4.4538
     4.4975   4.4975   4.4975   4.4975   4.4975   4.4975   4.4975   4.4975
     4.9707   4.9707   4.9707   4.9707   4.9707   4.9707   4.9707   4.9707
     5.3193   5.3193   5.3193   5.3193   5.3396   5.3396   5.3396   5.3396
     5.3396   5.3396   5.3396   5.3396   5.4298   5.4298   5.4298   5.4298
     5.4298   5.4298   5.4298   5.4298   5.7817   5.7817   5.7817   5.7817
     5.8671   5.8671   5.8671   5.8671   5.9176   5.9176   5.9176   5.9176
     5.9176   5.9176   5.9176   5.9176   5.9244   5.9244   5.9244   5.9244
     5.9244   5.9244   5.9244   5.9244   6.2780   6.2780   6.2780   6.2780
     6.6635   6.6635   6.6635   6.6635   6.7074   6.7074   6.7074   6.7074
     6.8236   6.8236   6.8236   6.8236   6.8236   6.8236   6.8236   6.8236
     6.8435   6.8435   6.8435   6.8435   6.8435   6.8435   6.8435   6.8435
     7.0771   7.0771   7.0771   7.0771   7.1708   7.1708   7.1708   7.1708
     7.2415   7.2415   7.2415   7.2415   7.2415   7.2415   7.2415   7.2415
     7.3098   7.3098   7.3098   7.3098   7.3098   7.3098   7.3098   7.3098
     7.5743   7.5743   7.5743   7.5743   7.6345   7.6345   7.6345   7.6345
     7.8072   7.8072   7.8072   7.8072   7.8072   7.8072   7.8072   7.8072
     7.8800   7.8800   7.8800   7.8800   8.0985   8.0985   8.0985   8.0985
     8.1620   8.1620   8.1620   8.1620   8.1620   8.1620   8.1620   8.1620
     8.1718   8.1718   8.1718   8.1718   8.2541   8.2541   8.2541   8.2541
     8.2541   8.2541   8.2541   8.2541   8.5205   8.5205   8.5205   8.5205
     8.5625   8.5625   8.5625   8.5625   8.5769   8.5769   8.5769   8.5769
     8.5769   8.5769   8.5769   8.5769   8.7124   8.7124   8.7124   8.7124
     8.7124   8.7124   8.7124   8.7124   8.9290   8.9290   8.9290   8.9290
     9.1193   9.1193   9.1193   9.1193   9.3702   9.3702   9.3702   9.3702
     9.4702   9.4702   9.4702   9.4702   9.6594

     the Fermi energy is     7.9774 ev

!    total energy              =   -8532.40087739 Ry
     total all-electron energy =     -8532.400877 Ry
     estimated scf accuracy    <          9.9E-17 Ry
     smearing contrib. (-TS)   =      -0.01703008 Ry
     internal energy E=F+TS    =   -8532.38384731 Ry

     The total energy is F=E-TS. E is the sum of the following terms:
     one-electron contribution =     683.07686770 Ry
     hartree contribution      =       1.77616391 Ry
     xc contribution           =    -454.45721672 Ry
     ewald contribution        =   -1168.09688345 Ry
     one-center paw contrib.   =   -7594.68277875 Ry

     convergence has been achieved in  34 iterations

     negative rho (up, down):  1.496E-01 0.000E+00

     Forces acting on atoms (cartesian axes, Ry/au):

     atom    1 type  1   force =     0.00000000    0.00000000    0.00000000
     atom    2 type  1   force =     0.00000126   -0.00000126   -0.00000000
     atom    3 type  1   force =    -0.00000126    0.00000126    0.00000000
     atom    4 type  1   force =     0.00000000    0.00000000   -0.00000000
     atom    5 type  1   force =     0.00000126   -0.00000126    0.00000000
     atom    6 type  1   force =    -0.00000126    0.00000126    0.00000000
     atom    7 type  1   force =     0.00000000   -0.00000126   -0.00000126
     atom    8 type  1   force =    -0.00000063   -0.00000063    0.00000063
     atom    9 type  1   force =    -0.00000126   -0.00000000   -0.00000126
     atom   10 type  1   force =    -0.00000000   -0.00000126   -0.00000126
     atom   11 type  1   force =    -0.00000063   -0.00000063    0.00000063
     atom   12 type  1   force =    -0.00000126    0.00000000   -0.00000126
     atom   13 type  1   force =     0.00000000    0.00000126    0.00000126
     atom   14 type  1   force =     0.00000126   -0.00000000    0.00000126
     atom   15 type  1   force =     0.00000063    0.00000063   -0.00000063
     atom   16 type  1   force =    -0.00000000    0.00000126    0.00000126
     atom   17 type  1   force =     0.00000126    0.00000000    0.00000126
     atom   18 type  1   force =     0.00000063    0.00000063   -0.00000063
     atom   19 type  1   force =    -0.00000000   -0.00000000    0.00000000
     atom   20 type  1   force =     0.00000126   -0.00000126    0.00000000
     atom   21 type  1   force =    -0.00000126    0.00000126    0.00000000
     atom   22 type  1   force =     0.00000000    0.00000000   -0.00000000
     atom   23 type  1   force =     0.00000126   -0.00000126   -0.00000000
     atom   24 type  1   force =    -0.00000126    0.00000126   -0.00000000
     atom   25 type  1   force =    -0.00000000   -0.00000126   -0.00000126
     atom   26 type  1   force =    -0.00000063   -0.00000063    0.00000063
     atom   27 type  1   force =    -0.00000126    0.00000000   -0.00000126
     atom   28 type  1   force =     0.00000000   -0.00000126   -0.00000126
     atom   29 type  1   force =    -0.00000063   -0.00000063    0.00000063
     atom   30 type  1   force =    -0.00000126    0.00000000   -0.00000126
     atom   31 type  1   force =    -0.00000000    0.00000126    0.00000126
     atom   32 type  1   force =     0.00000126   -0.00000000    0.00000126
     atom   33 type  1   force =     0.00000063    0.00000063   -0.00000063
     atom   34 type  1   force =     0.00000000    0.00000126    0.00000126
     atom   35 type  1   force =     0.00000126    0.00000000    0.00000126
     atom   36 type  1   force =     0.00000063    0.00000063   -0.00000063
     atom   37 type  1   force =     0.00000126   -0.00000000   -0.00000126
     atom   38 type  1   force =     0.00000063    0.00000063    0.00000063
     atom   39 type  1   force =     0.00000000    0.00000126   -0.00000126
     atom   40 type  1   force =     0.00000126    0.00000000   -0.00000126
     atom   41 type  1   force =     0.00000063    0.00000063    0.00000063
     atom   42 type  1   force =     0.00000000    0.00000126   -0.00000126
     atom   43 type  1   force =    -0.00000063    0.00000063   -0.00000063
     atom   44 type  1   force =     0.00000063   -0.00000063   -0.00000063
     atom   45 type  1   force =    -0.00000000   -0.00000000   -0.00000252
     atom   46 type  1   force =    -0.00000063    0.00000063   -0.00000063
     atom   47 type  1   force =     0.00000063   -0.00000063   -0.00000063
     atom   48 type  1   force =     0.00000000    0.00000000   -0.00000252
     atom   49 type  1   force =     0.00000126    0.00000126   -0.00000000
     atom   50 type  1   force =     0.00000252    0.00000000   -0.00000000
     atom   51 type  1   force =    -0.00000000    0.00000252   -0.00000000
     atom   52 type  1   force =     0.00000126    0.00000126   -0.00000000
     atom   53 type  1   force =     0.00000252    0.00000000   -0.00000000
     atom   54 type  1   force =     0.00000000    0.00000252   -0.00000000
     atom   55 type  1   force =     0.00000126    0.00000000   -0.00000126
     atom   56 type  1   force =     0.00000063    0.00000063    0.00000063
     atom   57 type  1   force =     0.00000000    0.00000126   -0.00000126
     atom   58 type  1   force =     0.00000126    0.00000000   -0.00000126
     atom   59 type  1   force =     0.00000063    0.00000063    0.00000063
     atom   60 type  1   force =     0.00000000    0.00000126   -0.00000126
     atom   61 type  1   force =    -0.00000063    0.00000063   -0.00000063
     atom   62 type  1   force =     0.00000063   -0.00000063   -0.00000063
     atom   63 type  1   force =     0.00000000    0.00000000   -0.00000252
     atom   64 type  1   force =    -0.00000063    0.00000063   -0.00000063
     atom   65 type  1   force =     0.00000063   -0.00000063   -0.00000063
     atom   66 type  1   force =    -0.00000000    0.00000000   -0.00000252
     atom   67 type  1   force =     0.00000126    0.00000126    0.00000000
     atom   68 type  1   force =     0.00000252   -0.00000000    0.00000000
     atom   69 type  1   force =     0.00000000    0.00000252    0.00000000
     atom   70 type  1   force =     0.00000126    0.00000126   -0.00000000
     atom   71 type  1   force =     0.00000252    0.00000000   -0.00000000
     atom   72 type  1   force =     0.00000000    0.00000252    0.00000000
     atom   73 type  1   force =    -0.00000126   -0.00000000    0.00000126
     atom   74 type  1   force =     0.00000000   -0.00000126    0.00000126
     atom   75 type  1   force =    -0.00000063   -0.00000063   -0.00000063
     atom   76 type  1   force =    -0.00000126    0.00000000    0.00000126
     atom   77 type  1   force =     0.00000000   -0.00000126    0.00000126
     atom   78 type  1   force =    -0.00000063   -0.00000063   -0.00000063
     atom   79 type  1   force =    -0.00000126   -0.00000126   -0.00000000
     atom   80 type  1   force =     0.00000000   -0.00000252    0.00000000
     atom   81 type  1   force =    -0.00000252   -0.00000000    0.00000000
     atom   82 type  1   force =    -0.00000126   -0.00000126   -0.00000000
     atom   83 type  1   force =    -0.00000000   -0.00000252   -0.00000000
     atom   84 type  1   force =    -0.00000252   -0.00000000   -0.00000000
     atom   85 type  1   force =     0.00000063   -0.00000063    0.00000063
     atom   86 type  1   force =     0.00000000   -0.00000000    0.00000252
     atom   87 type  1   force =    -0.00000063    0.00000063    0.00000063
     atom   88 type  1   force =     0.00000063   -0.00000063    0.00000063
     atom   89 type  1   force =    -0.00000000   -0.00000000    0.00000252
     atom   90 type  1   force =    -0.00000063    0.00000063    0.00000063
     atom   91 type  1   force =    -0.00000126    0.00000000    0.00000126
     atom   92 type  1   force =     0.00000000   -0.00000126    0.00000126
     atom   93 type  1   force =    -0.00000063   -0.00000063   -0.00000063
     atom   94 type  1   force =    -0.00000126   -0.00000000    0.00000126
     atom   95 type  1   force =     0.00000000   -0.00000126    0.00000126
     atom   96 type  1   force =    -0.00000063   -0.00000063   -0.00000063
     atom   97 type  1   force =    -0.00000126   -0.00000126    0.00000000
     atom   98 type  1   force =     0.00000000   -0.00000252    0.00000000
     atom   99 type  1   force =    -0.00000252    0.00000000    0.00000000
     atom  100 type  1   force =    -0.00000126   -0.00000126    0.00000000
     atom  101 type  1   force =    -0.00000000   -0.00000252   -0.00000000
     atom  102 type  1   force =    -0.00000252    0.00000000    0.00000000
     atom  103 type  1   force =     0.00000063   -0.00000063    0.00000063
     atom  104 type  1   force =     0.00000000   -0.00000000    0.00000252
     atom  105 type  1   force =    -0.00000063    0.00000063    0.00000063
     atom  106 type  1   force =     0.00000063   -0.00000063    0.00000063
     atom  107 type  1   force =    -0.00000000    0.00000000    0.00000252
     atom  108 type  1   force =    -0.00000063    0.00000063    0.00000063
     atom  109 type  1   force =    -0.00000000   -0.00000000   -0.00000000
     atom  110 type  1   force =     0.00000126   -0.00000126    0.00000000
     atom  111 type  1   force =    -0.00000126    0.00000126    0.00000000
     atom  112 type  1   force =    -0.00000000   -0.00000000    0.00000000
     atom  113 type  1   force =     0.00000126   -0.00000126   -0.00000000
     atom  114 type  1   force =    -0.00000126    0.00000126   -0.00000000
     atom  115 type  1   force =    -0.00000000   -0.00000126   -0.00000126
     atom  116 type  1   force =    -0.00000063   -0.00000063    0.00000063
     atom  117 type  1   force =    -0.00000126   -0.00000000   -0.00000126
     atom  118 type  1   force =     0.00000000   -0.00000126   -0.00000126
     atom  119 type  1   force =    -0.00000063   -0.00000063    0.00000063
     atom  120 type  1   force =    -0.00000126   -0.00000000   -0.00000126
     atom  121 type  1   force =    -0.00000000    0.00000126    0.00000126
     atom  122 type  1   force =     0.00000126   -0.00000000    0.00000126
     atom  123 type  1   force =     0.00000063    0.00000063   -0.00000063
     atom  124 type  1   force =     0.00000000    0.00000126    0.00000126
     atom  125 type  1   force =     0.00000126   -0.00000000    0.00000126
     atom  126 type  1   force =     0.00000063    0.00000063   -0.00000063
     atom  127 type  1   force =    -0.00000000   -0.00000000   -0.00000000
     atom  128 type  1   force =     0.00000126   -0.00000126    0.00000000
     atom  129 type  1   force =    -0.00000126    0.00000126    0.00000000
     atom  130 type  1   force =     0.00000000    0.00000000    0.00000000
     atom  131 type  1   force =     0.00000126   -0.00000126   -0.00000000
     atom  132 type  1   force =    -0.00000126    0.00000126    0.00000000
     atom  133 type  1   force =     0.00000000   -0.00000126   -0.00000126
     atom  134 type  1   force =    -0.00000063   -0.00000063    0.00000063
     atom  135 type  1   force =    -0.00000126    0.00000000   -0.00000126
     atom  136 type  1   force =    -0.00000000   -0.00000126   -0.00000126
     atom  137 type  1   force =    -0.00000063   -0.00000063    0.00000063
     atom  138 type  1   force =    -0.00000126    0.00000000   -0.00000126
     atom  139 type  1   force =     0.00000000    0.00000126    0.00000126
     atom  140 type  1   force =     0.00000126   -0.00000000    0.00000126
     atom  141 type  1   force =     0.00000063    0.00000063   -0.00000063
     atom  142 type  1   force =     0.00000000    0.00000126    0.00000126
     atom  143 type  1   force =     0.00000126    0.00000000    0.00000126
     atom  144 type  1   force =     0.00000063    0.00000063   -0.00000063
     atom  145 type  1   force =     0.00000126    0.00000000   -0.00000126
     atom  146 type  1   force =     0.00000063    0.00000063    0.00000063
     atom  147 type  1   force =     0.00000000    0.00000126   -0.00000126
     atom  148 type  1   force =     0.00000126   -0.00000000   -0.00000126
     atom  149 type  1   force =     0.00000063    0.00000063    0.00000063
     atom  150 type  1   force =    -0.00000000    0.00000126   -0.00000126
     atom  151 type  1   force =    -0.00000063    0.00000063   -0.00000063
     atom  152 type  1   force =     0.00000063   -0.00000063   -0.00000063
     atom  153 type  1   force =     0.00000000   -0.00000000   -0.00000252
     atom  154 type  1   force =    -0.00000063    0.00000063   -0.00000063
     atom  155 type  1   force =     0.00000063   -0.00000063   -0.00000063
     atom  156 type  1   force =    -0.00000000   -0.00000000   -0.00000252
     atom  157 type  1   force =     0.00000126    0.00000126    0.00000000
     atom  158 type  1   force =     0.00000252   -0.00000000    0.00000000
     atom  159 type  1   force =    -0.00000000    0.00000252   -0.00000000
     atom  160 type  1   force =     0.00000126    0.00000126    0.00000000
     atom  161 type  1   force =     0.00000252    0.00000000   -0.00000000
     atom  162 type  1   force =    -0.00000000    0.00000252    0.00000000
     atom  163 type  1   force =     0.00000126   -0.00000000   -0.00000126
     atom  164 type  1   force =     0.00000063    0.00000063    0.00000063
     atom  165 type  1   force =     0.00000000    0.00000126   -0.00000126
     atom  166 type  1   force =     0.00000126    0.00000000   -0.00000126
     atom  167 type  1   force =     0.00000063    0.00000063    0.00000063
     atom  168 type  1   force =    -0.00000000    0.00000126   -0.00000126
     atom  169 type  1   force =    -0.00000063    0.00000063   -0.00000063
     atom  170 type  1   force =     0.00000063   -0.00000063   -0.00000063
     atom  171 type  1   force =     0.00000000    0.00000000   -0.00000252
     atom  172 type  1   force =    -0.00000063    0.00000063   -0.00000063
     atom  173 type  1   force =     0.00000063   -0.00000063   -0.00000063
     atom  174 type  1   force =     0.00000000    0.00000000   -0.00000252
     atom  175 type  1   force =     0.00000126    0.00000126    0.00000000
     atom  176 type  1   force =     0.00000252    0.00000000    0.00000000
     atom  177 type  1   force =     0.00000000    0.00000252    0.00000000
     atom  178 type  1   force =     0.00000126    0.00000126    0.00000000
     atom  179 type  1   force =     0.00000252    0.00000000    0.00000000
     atom  180 type  1   force =    -0.00000000    0.00000252   -0.00000000
     atom  181 type  1   force =    -0.00000126   -0.00000000    0.00000126
     atom  182 type  1   force =     0.00000000   -0.00000126    0.00000126
     atom  183 type  1   force =    -0.00000063   -0.00000063   -0.00000063
     atom  184 type  1   force =    -0.00000126   -0.00000000    0.00000126
     atom  185 type  1   force =    -0.00000000   -0.00000126    0.00000126
     atom  186 type  1   force =    -0.00000063   -0.00000063   -0.00000063
     atom  187 type  1   force =    -0.00000126   -0.00000126   -0.00000000
     atom  188 type  1   force =     0.00000000   -0.00000252    0.00000000
     atom  189 type  1   force =    -0.00000252   -0.00000000   -0.00000000
     atom  190 type  1   force =    -0.00000126   -0.00000126    0.00000000
     atom  191 type  1   force =    -0.00000000   -0.00000252    0.00000000
     atom  192 type  1   force =    -0.00000252    0.00000000    0.00000000
     atom  193 type  1   force =     0.00000063   -0.00000063    0.00000063
     atom  194 type  1   force =     0.00000000   -0.00000000    0.00000252
     atom  195 type  1   force =    -0.00000063    0.00000063    0.00000063
     atom  196 type  1   force =     0.00000063   -0.00000063    0.00000063
     atom  197 type  1   force =    -0.00000000    0.00000000    0.00000252
     atom  198 type  1   force =    -0.00000063    0.00000063    0.00000063
     atom  199 type  1   force =    -0.00000126   -0.00000000    0.00000126
     atom  200 type  1   force =    -0.00000000   -0.00000126    0.00000126
     atom  201 type  1   force =    -0.00000063   -0.00000063   -0.00000063
     atom  202 type  1   force =    -0.00000126    0.00000000    0.00000126
     atom  203 type  1   force =    -0.00000000   -0.00000126    0.00000126
     atom  204 type  1   force =    -0.00000063   -0.00000063   -0.00000063
     atom  205 type  1   force =    -0.00000126   -0.00000126    0.00000000
     atom  206 type  1   force =    -0.00000000   -0.00000252    0.00000000
     atom  207 type  1   force =    -0.00000252   -0.00000000    0.00000000
     atom  208 type  1   force =    -0.00000126   -0.00000126    0.00000000
     atom  209 type  1   force =     0.00000000   -0.00000252    0.00000000
     atom  210 type  1   force =    -0.00000252    0.00000000    0.00000000
     atom  211 type  1   force =     0.00000063   -0.00000063    0.00000063
     atom  212 type  1   force =    -0.00000000   -0.00000000    0.00000252
     atom  213 type  1   force =    -0.00000063    0.00000063    0.00000063
     atom  214 type  1   force =     0.00000063   -0.00000063    0.00000063
     atom  215 type  1   force =    -0.00000000   -0.00000000    0.00000252
     atom  216 type  1   force =    -0.00000063    0.00000063    0.00000063

     Total force =     0.000026     Total SCF correction =     0.000000

     Writing all to output data dir ./tmp/al.save/ :
     XML data file, charge density, pseudopotentials, collected wavefunctions
 
     init_run     :    163.09s CPU    167.31s WALL (       1 calls)
     electrons    :   4339.76s CPU   4474.22s WALL (       1 calls)
     forces       :     30.10s CPU     30.80s WALL (       1 calls)

     Called by init_run:
     wfcinit      :    161.44s CPU    165.21s WALL (       1 calls)
     potinit      :      1.17s CPU      1.43s WALL (       1 calls)
     hinit0       :      0.09s CPU      0.10s WALL (       1 calls)

     Called by electrons:
     c_bands      :   3728.31s CPU   3840.99s WALL (      35 calls)
     sum_band     :    557.23s CPU    572.39s WALL (      35 calls)
     v_of_rho     :      4.36s CPU      4.52s WALL (      35 calls)
     newd         :      5.89s CPU     12.48s WALL (      35 calls)
     PAW_pot      :     43.62s CPU     43.88s WALL (      35 calls)
     mix_rho      :      1.41s CPU      1.42s WALL (      35 calls)

     Called by c_bands:
     init_us_2    :     85.33s CPU     85.46s WALL (     576 calls)
     cegterg      :   3603.96s CPU   3716.53s WALL (     280 calls)

     Called by *egterg:
     cdiaghg      :    189.94s CPU    194.25s WALL (    1056 calls)
     h_psi        :   2106.32s CPU   2150.27s WALL (    1072 calls)
     s_psi        :    557.68s CPU    557.88s WALL (    1072 calls)
     g_psi        :      5.45s CPU      5.46s WALL (     784 calls)

     Called by h_psi:
     h_psi:calbec :    565.07s CPU    565.21s WALL (    1072 calls)
     vloc_psi     :    971.41s CPU    998.34s WALL (    1072 calls)
     add_vuspsi   :    562.73s CPU    562.94s WALL (    1072 calls)

     General routines
     calbec       :    824.08s CPU    824.30s WALL (    1384 calls)
     fft          :      1.99s CPU      2.16s WALL (     397 calls)
     ffts         :      0.16s CPU      0.17s WALL (      35 calls)
     fftw         :    895.19s CPU    927.65s WALL (  619640 calls)
 
     Parallel routines
 
     PWSCF        :      1h15m CPU      1h17m WALL

 
   This run was terminated on:  12: 1:52  16Jun2026            

=------------------------------------------------------------------------------=
   JOB DONE.
=------------------------------------------------------------------------------=
