
     Program PWSCF v.7.4 starts on 16Jun2026 at 20:25:47 

     This program is part of the open-source Quantum ESPRESSO suite
     for quantum simulation of materials; please cite
         "P. Giannozzi et al., J. Phys.:Condens. Matter 21 395502 (2009);
         "P. Giannozzi et al., J. Phys.:Condens. Matter 29 465901 (2017);
         "P. Giannozzi et al., J. Chem. Phys. 152 154105 (2020);
          URL http://www.quantum-espresso.org", 
     in publications or presentations arising from this work. More details at
     http://www.quantum-espresso.org/quote

     Parallel version (MPI), running on    12 processors

     MPI processes distributed on     1 nodes
     83362 MiB available memory on the printing compute node when the environment starts
 
     Reading input from ./scratch_runs/atom01_y_plus/atom01_y_plus.in

     Current dimensions of program PWSCF are:
     Max number of different atomic species (ntypx) = 10
     Max number of k-points (npk) =  40000
     Max angular momentum in pseudopotentials (lmaxx) =  4
read_pp_mesh; mismatch in mesh size, discarding the one in header
     Message from routine setup:
     using ibrav=0 with symmetry is DISCOURAGED, use correct ibrav instead
 
     R & G space division:  proc/nbgrp/npool/nimage =      12
     Subspace diagonalization in iterative solution of the eigenvalue problem:
     one sub-group per band group will be used
     custom distributed-memory algorithm (size of sub-group:  3*  3 procs)

 
     Parallelization info
     --------------------
     sticks:   dense  smooth     PW     G-vecs:    dense   smooth      PW
     Min        1202    1202    316                95488    95488   12760
     Max        1204    1204    317                95490    95490   12763
     Sum       14431   14431   3793              1145867  1145867  153133
 
     Using Slab Decomposition
 


     bravais-lattice index     =            0
     lattice parameter (alat)  =      32.3728  a.u.
     unit-cell volume          =   23989.6975 (a.u.)^3
     number of atoms/cell      =          216
     number of atomic types    =            1
     number of electrons       =       648.00
     number of Kohn-Sham states=          389
     kinetic-energy cutoff     =      50.0000  Ry
     charge density cutoff     =     200.0000  Ry
     scf convergence threshold =      1.0E-16
     mixing beta               =       0.7000
     number of iterations used =            8  plain     mixing
     Exchange-correlation= SLA PW PBX PBC
                           (   1   4   3   4   0   0   0)

     celldm(1)=  32.372775  celldm(2)=   0.000000  celldm(3)=   0.000000
     celldm(4)=   0.000000  celldm(5)=   0.000000  celldm(6)=   0.000000

     crystal axes: (cart. coord. in units of alat)
               a(1) = (  -0.707107   0.000000   0.707107 )  
               a(2) = (   0.000000   0.707107   0.707107 )  
               a(3) = (  -0.707107   0.707107   0.000000 )  

     reciprocal axes: (cart. coord. in units 2 pi/alat)
               b(1) = ( -0.707107 -0.707107  0.707107 )  
               b(2) = (  0.707107  0.707107  0.707107 )  
               b(3) = ( -0.707107  0.707107 -0.707107 )  


     PseudoPot. # 1 for Al read from file:
     ../../../pseudopotentzialak/Al.upf
     MD5 check sum: fd3ab6bbf4b2322b308692f0f9c61a66
     Pseudo is Projector augmented-wave + core cor, Zval =  3.0
     Generated using ATOMPAW code
     Shape of augmentation charge: SINC**2
     Using radial grid of 2342 points,  4 beta functions with: 
                l(1) =   0
                l(2) =   0
                l(3) =   1
                l(4) =   1
     Q(r) pseudized with 0 coefficients 


     atomic species   valence    mass     pseudopotential
     Al                3.00    26.98150     Al( 1.00)

      8 Sym. Ops. (no inversion) found



   Cartesian axes

     site n.     atom                  positions (alat units)
         1        Al     tau(   1) = (   0.0000000   0.0005837   0.0000000  )
         2        Al     tau(   2) = (  -0.1178514   0.1178514   0.0000000  )
         3        Al     tau(   3) = (  -0.2357020   0.2357020   0.0000000  )
         4        Al     tau(   4) = (  -0.3535534   0.3535534   0.0000000  )
         5        Al     tau(   5) = (  -0.4714048   0.4714048   0.0000000  )
         6        Al     tau(   6) = (  -0.5892554   0.5892554   0.0000000  )
         7        Al     tau(   7) = (   0.0000000   0.1178514   0.1178514  )
         8        Al     tau(   8) = (  -0.1178514   0.2357027   0.1178514  )
         9        Al     tau(   9) = (  -0.2357020   0.3535534   0.1178514  )
        10        Al     tau(  10) = (  -0.3535534   0.4714048   0.1178514  )
        11        Al     tau(  11) = (  -0.4714048   0.5892561   0.1178514  )
        12        Al     tau(  12) = (  -0.5892554   0.7071068   0.1178514  )
        13        Al     tau(  13) = (   0.0000000   0.2357020   0.2357020  )
        14        Al     tau(  14) = (  -0.1178514   0.3535534   0.2357020  )
        15        Al     tau(  15) = (  -0.2357020   0.4714041   0.2357020  )
        16        Al     tau(  16) = (  -0.3535534   0.5892554   0.2357020  )
        17        Al     tau(  17) = (  -0.4714048   0.7071068   0.2357020  )
        18        Al     tau(  18) = (  -0.5892554   0.8249574   0.2357020  )
        19        Al     tau(  19) = (   0.0000000   0.3535534   0.3535534  )
        20        Al     tau(  20) = (  -0.1178514   0.4714048   0.3535534  )
        21        Al     tau(  21) = (  -0.2357020   0.5892554   0.3535534  )
        22        Al     tau(  22) = (  -0.3535534   0.7071068   0.3535534  )
        23        Al     tau(  23) = (  -0.4714048   0.8249581   0.3535534  )
        24        Al     tau(  24) = (  -0.5892554   0.9428088   0.3535534  )
        25        Al     tau(  25) = (   0.0000000   0.4714048   0.4714048  )
        26        Al     tau(  26) = (  -0.1178514   0.5892561   0.4714048  )
        27        Al     tau(  27) = (  -0.2357020   0.7071068   0.4714048  )
        28        Al     tau(  28) = (  -0.3535534   0.8249581   0.4714048  )
        29        Al     tau(  29) = (  -0.4714048   0.9428095   0.4714048  )
        30        Al     tau(  30) = (  -0.5892554   1.0606602   0.4714048  )
        31        Al     tau(  31) = (   0.0000000   0.5892554   0.5892554  )
        32        Al     tau(  32) = (  -0.1178514   0.7071068   0.5892554  )
        33        Al     tau(  33) = (  -0.2357020   0.8249574   0.5892554  )
        34        Al     tau(  34) = (  -0.3535534   0.9428088   0.5892554  )
        35        Al     tau(  35) = (  -0.4714048   1.0606602   0.5892554  )
        36        Al     tau(  36) = (  -0.5892554   1.1785108   0.5892554  )
        37        Al     tau(  37) = (  -0.1178514   0.0000000   0.1178514  )
        38        Al     tau(  38) = (  -0.2357027   0.1178514   0.1178514  )
        39        Al     tau(  39) = (  -0.3535534   0.2357020   0.1178514  )
        40        Al     tau(  40) = (  -0.4714048   0.3535534   0.1178514  )
        41        Al     tau(  41) = (  -0.5892561   0.4714048   0.1178514  )
        42        Al     tau(  42) = (  -0.7071068   0.5892554   0.1178514  )
        43        Al     tau(  43) = (  -0.1178514   0.1178514   0.2357027  )
        44        Al     tau(  44) = (  -0.2357027   0.2357027   0.2357027  )
        45        Al     tau(  45) = (  -0.3535534   0.3535534   0.2357027  )
        46        Al     tau(  46) = (  -0.4714048   0.4714048   0.2357027  )
        47        Al     tau(  47) = (  -0.5892561   0.5892561   0.2357027  )
        48        Al     tau(  48) = (  -0.7071068   0.7071068   0.2357027  )
        49        Al     tau(  49) = (  -0.1178514   0.2357020   0.3535534  )
        50        Al     tau(  50) = (  -0.2357027   0.3535534   0.3535534  )
        51        Al     tau(  51) = (  -0.3535534   0.4714041   0.3535534  )
        52        Al     tau(  52) = (  -0.4714048   0.5892554   0.3535534  )
        53        Al     tau(  53) = (  -0.5892561   0.7071068   0.3535534  )
        54        Al     tau(  54) = (  -0.7071068   0.8249574   0.3535534  )
        55        Al     tau(  55) = (  -0.1178514   0.3535534   0.4714048  )
        56        Al     tau(  56) = (  -0.2357027   0.4714048   0.4714048  )
        57        Al     tau(  57) = (  -0.3535534   0.5892554   0.4714048  )
        58        Al     tau(  58) = (  -0.4714048   0.7071068   0.4714048  )
        59        Al     tau(  59) = (  -0.5892561   0.8249581   0.4714048  )
        60        Al     tau(  60) = (  -0.7071068   0.9428088   0.4714048  )
        61        Al     tau(  61) = (  -0.1178514   0.4714048   0.5892561  )
        62        Al     tau(  62) = (  -0.2357027   0.5892561   0.5892561  )
        63        Al     tau(  63) = (  -0.3535534   0.7071068   0.5892561  )
        64        Al     tau(  64) = (  -0.4714048   0.8249581   0.5892561  )
        65        Al     tau(  65) = (  -0.5892561   0.9428095   0.5892561  )
        66        Al     tau(  66) = (  -0.7071068   1.0606602   0.5892561  )
        67        Al     tau(  67) = (  -0.1178514   0.5892554   0.7071068  )
        68        Al     tau(  68) = (  -0.2357027   0.7071068   0.7071068  )
        69        Al     tau(  69) = (  -0.3535534   0.8249574   0.7071068  )
        70        Al     tau(  70) = (  -0.4714048   0.9428088   0.7071068  )
        71        Al     tau(  71) = (  -0.5892561   1.0606602   0.7071068  )
        72        Al     tau(  72) = (  -0.7071068   1.1785108   0.7071068  )
        73        Al     tau(  73) = (  -0.2357020   0.0000000   0.2357020  )
        74        Al     tau(  74) = (  -0.3535534   0.1178514   0.2357020  )
        75        Al     tau(  75) = (  -0.4714041   0.2357020   0.2357020  )
        76        Al     tau(  76) = (  -0.5892554   0.3535534   0.2357020  )
        77        Al     tau(  77) = (  -0.7071068   0.4714048   0.2357020  )
        78        Al     tau(  78) = (  -0.8249574   0.5892554   0.2357020  )
        79        Al     tau(  79) = (  -0.2357020   0.1178514   0.3535534  )
        80        Al     tau(  80) = (  -0.3535534   0.2357027   0.3535534  )
        81        Al     tau(  81) = (  -0.4714041   0.3535534   0.3535534  )
        82        Al     tau(  82) = (  -0.5892554   0.4714048   0.3535534  )
        83        Al     tau(  83) = (  -0.7071068   0.5892561   0.3535534  )
        84        Al     tau(  84) = (  -0.8249574   0.7071068   0.3535534  )
        85        Al     tau(  85) = (  -0.2357020   0.2357020   0.4714041  )
        86        Al     tau(  86) = (  -0.3535534   0.3535534   0.4714041  )
        87        Al     tau(  87) = (  -0.4714041   0.4714041   0.4714041  )
        88        Al     tau(  88) = (  -0.5892554   0.5892554   0.4714041  )
        89        Al     tau(  89) = (  -0.7071068   0.7071068   0.4714041  )
        90        Al     tau(  90) = (  -0.8249574   0.8249574   0.4714041  )
        91        Al     tau(  91) = (  -0.2357020   0.3535534   0.5892554  )
        92        Al     tau(  92) = (  -0.3535534   0.4714048   0.5892554  )
        93        Al     tau(  93) = (  -0.4714041   0.5892554   0.5892554  )
        94        Al     tau(  94) = (  -0.5892554   0.7071068   0.5892554  )
        95        Al     tau(  95) = (  -0.7071068   0.8249581   0.5892554  )
        96        Al     tau(  96) = (  -0.8249574   0.9428088   0.5892554  )
        97        Al     tau(  97) = (  -0.2357020   0.4714048   0.7071068  )
        98        Al     tau(  98) = (  -0.3535534   0.5892561   0.7071068  )
        99        Al     tau(  99) = (  -0.4714041   0.7071068   0.7071068  )
       100        Al     tau( 100) = (  -0.5892554   0.8249581   0.7071068  )
       101        Al     tau( 101) = (  -0.7071068   0.9428095   0.7071068  )
       102        Al     tau( 102) = (  -0.8249574   1.0606602   0.7071068  )
       103        Al     tau( 103) = (  -0.2357020   0.5892554   0.8249574  )
       104        Al     tau( 104) = (  -0.3535534   0.7071068   0.8249574  )
       105        Al     tau( 105) = (  -0.4714041   0.8249574   0.8249574  )
       106        Al     tau( 106) = (  -0.5892554   0.9428088   0.8249574  )
       107        Al     tau( 107) = (  -0.7071068   1.0606602   0.8249574  )
       108        Al     tau( 108) = (  -0.8249574   1.1785108   0.8249574  )
       109        Al     tau( 109) = (  -0.3535534   0.0000000   0.3535534  )
       110        Al     tau( 110) = (  -0.4714048   0.1178514   0.3535534  )
       111        Al     tau( 111) = (  -0.5892554   0.2357020   0.3535534  )
       112        Al     tau( 112) = (  -0.7071068   0.3535534   0.3535534  )
       113        Al     tau( 113) = (  -0.8249581   0.4714048   0.3535534  )
       114        Al     tau( 114) = (  -0.9428088   0.5892554   0.3535534  )
       115        Al     tau( 115) = (  -0.3535534   0.1178514   0.4714048  )
       116        Al     tau( 116) = (  -0.4714048   0.2357027   0.4714048  )
       117        Al     tau( 117) = (  -0.5892554   0.3535534   0.4714048  )
       118        Al     tau( 118) = (  -0.7071068   0.4714048   0.4714048  )
       119        Al     tau( 119) = (  -0.8249581   0.5892561   0.4714048  )
       120        Al     tau( 120) = (  -0.9428088   0.7071068   0.4714048  )
       121        Al     tau( 121) = (  -0.3535534   0.2357020   0.5892554  )
       122        Al     tau( 122) = (  -0.4714048   0.3535534   0.5892554  )
       123        Al     tau( 123) = (  -0.5892554   0.4714041   0.5892554  )
       124        Al     tau( 124) = (  -0.7071068   0.5892554   0.5892554  )
       125        Al     tau( 125) = (  -0.8249581   0.7071068   0.5892554  )
       126        Al     tau( 126) = (  -0.9428088   0.8249574   0.5892554  )
       127        Al     tau( 127) = (  -0.3535534   0.3535534   0.7071068  )
       128        Al     tau( 128) = (  -0.4714048   0.4714048   0.7071068  )
       129        Al     tau( 129) = (  -0.5892554   0.5892554   0.7071068  )
       130        Al     tau( 130) = (  -0.7071068   0.7071068   0.7071068  )
       131        Al     tau( 131) = (  -0.8249581   0.8249581   0.7071068  )
       132        Al     tau( 132) = (  -0.9428088   0.9428088   0.7071068  )
       133        Al     tau( 133) = (  -0.3535534   0.4714048   0.8249581  )
       134        Al     tau( 134) = (  -0.4714048   0.5892561   0.8249581  )
       135        Al     tau( 135) = (  -0.5892554   0.7071068   0.8249581  )
       136        Al     tau( 136) = (  -0.7071068   0.8249581   0.8249581  )
       137        Al     tau( 137) = (  -0.8249581   0.9428095   0.8249581  )
       138        Al     tau( 138) = (  -0.9428088   1.0606602   0.8249581  )
       139        Al     tau( 139) = (  -0.3535534   0.5892554   0.9428088  )
       140        Al     tau( 140) = (  -0.4714048   0.7071068   0.9428088  )
       141        Al     tau( 141) = (  -0.5892554   0.8249574   0.9428088  )
       142        Al     tau( 142) = (  -0.7071068   0.9428088   0.9428088  )
       143        Al     tau( 143) = (  -0.8249581   1.0606602   0.9428088  )
       144        Al     tau( 144) = (  -0.9428088   1.1785108   0.9428088  )
       145        Al     tau( 145) = (  -0.4714048   0.0000000   0.4714048  )
       146        Al     tau( 146) = (  -0.5892561   0.1178514   0.4714048  )
       147        Al     tau( 147) = (  -0.7071068   0.2357020   0.4714048  )
       148        Al     tau( 148) = (  -0.8249581   0.3535534   0.4714048  )
       149        Al     tau( 149) = (  -0.9428095   0.4714048   0.4714048  )
       150        Al     tau( 150) = (  -1.0606602   0.5892554   0.4714048  )
       151        Al     tau( 151) = (  -0.4714048   0.1178514   0.5892561  )
       152        Al     tau( 152) = (  -0.5892561   0.2357027   0.5892561  )
       153        Al     tau( 153) = (  -0.7071068   0.3535534   0.5892561  )
       154        Al     tau( 154) = (  -0.8249581   0.4714048   0.5892561  )
       155        Al     tau( 155) = (  -0.9428095   0.5892561   0.5892561  )
       156        Al     tau( 156) = (  -1.0606602   0.7071068   0.5892561  )
       157        Al     tau( 157) = (  -0.4714048   0.2357020   0.7071068  )
       158        Al     tau( 158) = (  -0.5892561   0.3535534   0.7071068  )
       159        Al     tau( 159) = (  -0.7071068   0.4714041   0.7071068  )
       160        Al     tau( 160) = (  -0.8249581   0.5892554   0.7071068  )
       161        Al     tau( 161) = (  -0.9428095   0.7071068   0.7071068  )
       162        Al     tau( 162) = (  -1.0606602   0.8249574   0.7071068  )
       163        Al     tau( 163) = (  -0.4714048   0.3535534   0.8249581  )
       164        Al     tau( 164) = (  -0.5892561   0.4714048   0.8249581  )
       165        Al     tau( 165) = (  -0.7071068   0.5892554   0.8249581  )
       166        Al     tau( 166) = (  -0.8249581   0.7071068   0.8249581  )
       167        Al     tau( 167) = (  -0.9428095   0.8249581   0.8249581  )
       168        Al     tau( 168) = (  -1.0606602   0.9428088   0.8249581  )
       169        Al     tau( 169) = (  -0.4714048   0.4714048   0.9428095  )
       170        Al     tau( 170) = (  -0.5892561   0.5892561   0.9428095  )
       171        Al     tau( 171) = (  -0.7071068   0.7071068   0.9428095  )
       172        Al     tau( 172) = (  -0.8249581   0.8249581   0.9428095  )
       173        Al     tau( 173) = (  -0.9428095   0.9428095   0.9428095  )
       174        Al     tau( 174) = (  -1.0606602   1.0606602   0.9428095  )
       175        Al     tau( 175) = (  -0.4714048   0.5892554   1.0606602  )
       176        Al     tau( 176) = (  -0.5892561   0.7071068   1.0606602  )
       177        Al     tau( 177) = (  -0.7071068   0.8249574   1.0606602  )
       178        Al     tau( 178) = (  -0.8249581   0.9428088   1.0606602  )
       179        Al     tau( 179) = (  -0.9428095   1.0606602   1.0606602  )
       180        Al     tau( 180) = (  -1.0606602   1.1785108   1.0606602  )
       181        Al     tau( 181) = (  -0.5892554   0.0000000   0.5892554  )
       182        Al     tau( 182) = (  -0.7071068   0.1178514   0.5892554  )
       183        Al     tau( 183) = (  -0.8249574   0.2357020   0.5892554  )
       184        Al     tau( 184) = (  -0.9428088   0.3535534   0.5892554  )
       185        Al     tau( 185) = (  -1.0606602   0.4714048   0.5892554  )
       186        Al     tau( 186) = (  -1.1785108   0.5892554   0.5892554  )
       187        Al     tau( 187) = (  -0.5892554   0.1178514   0.7071068  )
       188        Al     tau( 188) = (  -0.7071068   0.2357027   0.7071068  )
       189        Al     tau( 189) = (  -0.8249574   0.3535534   0.7071068  )
       190        Al     tau( 190) = (  -0.9428088   0.4714048   0.7071068  )
       191        Al     tau( 191) = (  -1.0606602   0.5892561   0.7071068  )
       192        Al     tau( 192) = (  -1.1785108   0.7071068   0.7071068  )
       193        Al     tau( 193) = (  -0.5892554   0.2357020   0.8249574  )
       194        Al     tau( 194) = (  -0.7071068   0.3535534   0.8249574  )
       195        Al     tau( 195) = (  -0.8249574   0.4714041   0.8249574  )
       196        Al     tau( 196) = (  -0.9428088   0.5892554   0.8249574  )
       197        Al     tau( 197) = (  -1.0606602   0.7071068   0.8249574  )
       198        Al     tau( 198) = (  -1.1785108   0.8249574   0.8249574  )
       199        Al     tau( 199) = (  -0.5892554   0.3535534   0.9428088  )
       200        Al     tau( 200) = (  -0.7071068   0.4714048   0.9428088  )
       201        Al     tau( 201) = (  -0.8249574   0.5892554   0.9428088  )
       202        Al     tau( 202) = (  -0.9428088   0.7071068   0.9428088  )
       203        Al     tau( 203) = (  -1.0606602   0.8249581   0.9428088  )
       204        Al     tau( 204) = (  -1.1785108   0.9428088   0.9428088  )
       205        Al     tau( 205) = (  -0.5892554   0.4714048   1.0606602  )
       206        Al     tau( 206) = (  -0.7071068   0.5892561   1.0606602  )
       207        Al     tau( 207) = (  -0.8249574   0.7071068   1.0606602  )
       208        Al     tau( 208) = (  -0.9428088   0.8249581   1.0606602  )
       209        Al     tau( 209) = (  -1.0606602   0.9428095   1.0606602  )
       210        Al     tau( 210) = (  -1.1785108   1.0606602   1.0606602  )
       211        Al     tau( 211) = (  -0.5892554   0.5892554   1.1785108  )
       212        Al     tau( 212) = (  -0.7071068   0.7071068   1.1785108  )
       213        Al     tau( 213) = (  -0.8249574   0.8249574   1.1785108  )
       214        Al     tau( 214) = (  -0.9428088   0.9428088   1.1785108  )
       215        Al     tau( 215) = (  -1.0606602   1.0606602   1.1785108  )
       216        Al     tau( 216) = (  -1.1785108   1.1785108   1.1785108  )

     number of k points=    13  Methfessel-Paxton smearing, width (Ry)=  0.0200
                       cart. coord. in units 2pi/alat
        k(    1) = (   0.0000000   0.0000000   0.0000000), wk =   0.0312500
        k(    2) = (  -0.1767767   0.1767767  -0.1767767), wk =   0.2500000
        k(    3) = (   0.3535534  -0.3535534   0.3535534), wk =   0.1250000
        k(    4) = (   0.0000000   0.3535534   0.0000000), wk =   0.0625000
        k(    5) = (   0.5303301  -0.1767767   0.5303301), wk =   0.2500000
        k(    6) = (   0.3535534   0.0000000   0.3535534), wk =   0.1250000
        k(    7) = (   0.0000000  -0.7071068   0.0000000), wk =   0.0312500
        k(    8) = (  -0.3535534  -0.7071068   0.0000000), wk =   0.1250000
        k(    9) = (   0.0000000   0.0000000   0.3535534), wk =   0.1250000
        k(   10) = (  -0.5303301   0.5303301  -0.1767767), wk =   0.5000000
        k(   11) = (  -0.3535534   0.3535534   0.0000000), wk =   0.2500000
        k(   12) = (   0.0000000   0.0000000  -0.7071068), wk =   0.0625000
        k(   13) = (   0.0000000  -0.3535534  -0.7071068), wk =   0.0625000

     Dense  grid:  1145867 G-vectors     FFT dimensions: ( 150, 150, 150)

     Estimated max dynamical RAM per process >       2.32 GB

     Estimated total dynamical RAM >      27.79 GB

     Initial potential from superposition of free atoms

     starting charge     647.4594, renormalised to     648.0000

     negative rho (up, down):  1.468E-01 0.000E+00
     Starting wfcs are 1728 randomized atomic wfcs
     Checking if some PAW data can be deallocated... 

     total cpu time spent up to now is      273.8 secs

     per-process dynamical memory:  1441.3 Mb

     Self-consistent Calculation

     iteration #  1     ecut=    50.00 Ry     beta= 0.70
     Davidson diagonalization with overlap
     ethr =  1.00E-02,  avg # of iterations =  2.2

     Threshold (ethr) on eigenvalues was too large:
     Diagonalizing with lowered threshold

     Davidson diagonalization with overlap
     ethr =  1.63E-04,  avg # of iterations =  6.0

     negative rho (up, down):  1.669E-01 0.000E+00

     total cpu time spent up to now is      672.5 secs

     total energy              =   -8533.37935280 Ry
     estimated scf accuracy    <       1.08285073 Ry

     iteration #  2     ecut=    50.00 Ry     beta= 0.70
     Davidson diagonalization with overlap
     ethr =  1.67E-04,  avg # of iterations =  1.2

     negative rho (up, down):  1.792E-01 0.000E+00

     total cpu time spent up to now is      805.6 secs

     total energy              =   -8532.39306251 Ry
     estimated scf accuracy    <       0.14553590 Ry

     iteration #  3     ecut=    50.00 Ry     beta= 0.70
     Davidson diagonalization with overlap
     c_bands:  3 eigenvalues not converged
     c_bands:  3 eigenvalues not converged
     ethr =  2.25E-05,  avg # of iterations = 15.1

     negative rho (up, down):  1.793E-01 0.000E+00

     total cpu time spent up to now is     1131.5 secs

     total energy              =   -8531.83089783 Ry
     estimated scf accuracy    <       9.45151217 Ry

     iteration #  4     ecut=    50.00 Ry     beta= 0.70
     Davidson diagonalization with overlap
     ethr =  2.25E-05,  avg # of iterations =  9.5

     negative rho (up, down):  1.764E-01 0.000E+00

     total cpu time spent up to now is     1377.8 secs

     total energy              =   -8532.36025660 Ry
     estimated scf accuracy    <       0.36548755 Ry

     iteration #  5     ecut=    50.00 Ry     beta= 0.70
     Davidson diagonalization with overlap
     ethr =  2.25E-05,  avg # of iterations =  3.1

     negative rho (up, down):  1.711E-01 0.000E+00

     total cpu time spent up to now is     1553.3 secs

     total energy              =   -8532.38248956 Ry
     estimated scf accuracy    <       0.33690839 Ry

     iteration #  6     ecut=    50.00 Ry     beta= 0.70
     Davidson diagonalization with overlap
     ethr =  2.25E-05,  avg # of iterations =  2.0

     negative rho (up, down):  1.631E-01 0.000E+00

     total cpu time spent up to now is     1706.3 secs

     total energy              =   -8532.39789540 Ry
     estimated scf accuracy    <       0.02280422 Ry

     iteration #  7     ecut=    50.00 Ry     beta= 0.70
     Davidson diagonalization with overlap
     ethr =  3.52E-06,  avg # of iterations =  3.0

     negative rho (up, down):  1.572E-01 0.000E+00

     total cpu time spent up to now is     1876.3 secs

     total energy              =   -8532.39853821 Ry
     estimated scf accuracy    <       0.01084629 Ry

     iteration #  8     ecut=    50.00 Ry     beta= 0.70
     Davidson diagonalization with overlap
     c_bands:  1 eigenvalues not converged
     ethr =  1.67E-06,  avg # of iterations =  4.8

     negative rho (up, down):  1.541E-01 0.000E+00

     total cpu time spent up to now is     2059.7 secs

     total energy              =   -8532.39703667 Ry
     estimated scf accuracy    <       0.05349799 Ry

     iteration #  9     ecut=    50.00 Ry     beta= 0.70
     Davidson diagonalization with overlap
     ethr =  1.67E-06,  avg # of iterations =  3.0

     negative rho (up, down):  1.515E-01 0.000E+00

     total cpu time spent up to now is     2230.9 secs

     total energy              =   -8532.39982187 Ry
     estimated scf accuracy    <       0.01088007 Ry

     iteration # 10     ecut=    50.00 Ry     beta= 0.70
     Davidson diagonalization with overlap
     ethr =  1.67E-06,  avg # of iterations =  2.1

     negative rho (up, down):  1.519E-01 0.000E+00

     total cpu time spent up to now is     2387.7 secs

     total energy              =   -8532.40016180 Ry
     estimated scf accuracy    <       0.00807576 Ry

     iteration # 11     ecut=    50.00 Ry     beta= 0.70
     Davidson diagonalization with overlap
     ethr =  1.25E-06,  avg # of iterations =  2.1

     negative rho (up, down):  1.508E-01 0.000E+00

     total cpu time spent up to now is     2540.3 secs

     total energy              =   -8532.40077283 Ry
     estimated scf accuracy    <       0.00062623 Ry

     iteration # 12     ecut=    50.00 Ry     beta= 0.70
     Davidson diagonalization with overlap
     ethr =  9.66E-08,  avg # of iterations =  2.0

     negative rho (up, down):  1.505E-01 0.000E+00

     total cpu time spent up to now is     2702.5 secs

     total energy              =   -8532.40084446 Ry
     estimated scf accuracy    <       0.00006103 Ry

     iteration # 13     ecut=    50.00 Ry     beta= 0.70
     Davidson diagonalization with overlap
     ethr =  9.42E-09,  avg # of iterations =  3.5

     negative rho (up, down):  1.499E-01 0.000E+00

     total cpu time spent up to now is     2882.1 secs

     total energy              =   -8532.40085034 Ry
     estimated scf accuracy    <       0.00005711 Ry

     iteration # 14     ecut=    50.00 Ry     beta= 0.70
     Davidson diagonalization with overlap
     ethr =  8.81E-09,  avg # of iterations =  3.0

     negative rho (up, down):  1.498E-01 0.000E+00

     total cpu time spent up to now is     3050.7 secs

     total energy              =   -8532.40084662 Ry
     estimated scf accuracy    <       0.00020572 Ry

     iteration # 15     ecut=    50.00 Ry     beta= 0.70
     Davidson diagonalization with overlap
     ethr =  8.81E-09,  avg # of iterations =  2.4

     negative rho (up, down):  1.498E-01 0.000E+00

     total cpu time spent up to now is     3218.1 secs

     total energy              =   -8532.40085656 Ry
     estimated scf accuracy    <       0.00004771 Ry

     iteration # 16     ecut=    50.00 Ry     beta= 0.70
     Davidson diagonalization with overlap
     ethr =  7.36E-09,  avg # of iterations =  2.1

     negative rho (up, down):  1.498E-01 0.000E+00

     total cpu time spent up to now is     3365.8 secs

     total energy              =   -8532.40085929 Ry
     estimated scf accuracy    <       0.00000768 Ry

     iteration # 17     ecut=    50.00 Ry     beta= 0.70
     Davidson diagonalization with overlap
     ethr =  1.18E-09,  avg # of iterations =  2.2

     negative rho (up, down):  1.497E-01 0.000E+00

     total cpu time spent up to now is     3526.5 secs

     total energy              =   -8532.40085960 Ry
     estimated scf accuracy    <       0.00000650 Ry

     iteration # 18     ecut=    50.00 Ry     beta= 0.70
     Davidson diagonalization with overlap
     ethr =  1.00E-09,  avg # of iterations =  2.1

     negative rho (up, down):  1.497E-01 0.000E+00

     total cpu time spent up to now is     3685.7 secs

     total energy              =   -8532.40085973 Ry
     estimated scf accuracy    <       0.00000533 Ry

     iteration # 19     ecut=    50.00 Ry     beta= 0.70
     Davidson diagonalization with overlap
     c_bands:  1 eigenvalues not converged
     ethr =  8.23E-10,  avg # of iterations =  4.5

     negative rho (up, down):  1.496E-01 0.000E+00

     total cpu time spent up to now is     3850.5 secs

     total energy              =   -8532.40085980 Ry
     estimated scf accuracy    <       0.00000862 Ry

     iteration # 20     ecut=    50.00 Ry     beta= 0.70
     Davidson diagonalization with overlap
     ethr =  8.23E-10,  avg # of iterations =  2.2

     negative rho (up, down):  1.496E-01 0.000E+00

     total cpu time spent up to now is     4014.5 secs

     total energy              =   -8532.40085968 Ry
     estimated scf accuracy    <       0.00000815 Ry

     iteration # 21     ecut=    50.00 Ry     beta= 0.70
     Davidson diagonalization with overlap
     ethr =  8.23E-10,  avg # of iterations =  2.0

     negative rho (up, down):  1.496E-01 0.000E+00

     total cpu time spent up to now is     4169.2 secs

     total energy              =   -8532.40086021 Ry
     estimated scf accuracy    <       0.00000108 Ry

     iteration # 22     ecut=    50.00 Ry     beta= 0.70
     Davidson diagonalization with overlap
     ethr =  1.66E-10,  avg # of iterations =  2.0

     negative rho (up, down):  1.496E-01 0.000E+00

     total cpu time spent up to now is     4322.3 secs

     total energy              =   -8532.40086030 Ry
     estimated scf accuracy    <       0.00000011 Ry

     iteration # 23     ecut=    50.00 Ry     beta= 0.70
     Davidson diagonalization with overlap
     ethr =  1.72E-11,  avg # of iterations =  3.2

     negative rho (up, down):  1.496E-01 0.000E+00

     total cpu time spent up to now is     4492.6 secs

     total energy              =   -8532.40086030 Ry
     estimated scf accuracy    <       0.00000013 Ry

     iteration # 24     ecut=    50.00 Ry     beta= 0.70
     Davidson diagonalization with overlap
     ethr =  1.72E-11,  avg # of iterations =  2.0

     negative rho (up, down):  1.496E-01 0.000E+00

     total cpu time spent up to now is     4646.6 secs

     total energy              =   -8532.40086031 Ry
     estimated scf accuracy    <       0.00000002 Ry

     iteration # 25     ecut=    50.00 Ry     beta= 0.70
     Davidson diagonalization with overlap
     ethr =  3.24E-12,  avg # of iterations =  4.6

     negative rho (up, down):  1.496E-01 0.000E+00

     total cpu time spent up to now is     4835.1 secs

     total energy              =   -8532.40086029 Ry
     estimated scf accuracy    <       0.00000027 Ry

     iteration # 26     ecut=    50.00 Ry     beta= 0.70
     Davidson diagonalization with overlap
     ethr =  3.24E-12,  avg # of iterations =  4.4

     negative rho (up, down):  1.496E-01 0.000E+00

     total cpu time spent up to now is     5013.0 secs

     total energy              =   -8532.40086031 Ry
     estimated scf accuracy    <       0.00000002 Ry

     iteration # 27     ecut=    50.00 Ry     beta= 0.70
     Davidson diagonalization with overlap
     ethr =  3.24E-12,  avg # of iterations =  2.0

     negative rho (up, down):  1.496E-01 0.000E+00

     total cpu time spent up to now is     5165.9 secs

     total energy              =   -8532.40086031 Ry
     estimated scf accuracy    <       0.00000001 Ry

     iteration # 28     ecut=    50.00 Ry     beta= 0.70
     Davidson diagonalization with overlap
     ethr =  1.56E-12,  avg # of iterations =  2.0

     negative rho (up, down):  1.496E-01 0.000E+00

     total cpu time spent up to now is     5315.1 secs

     total energy              =   -8532.40086031 Ry
     estimated scf accuracy    <          1.8E-09 Ry

     iteration # 29     ecut=    50.00 Ry     beta= 0.70
     Davidson diagonalization with overlap
     ethr =  2.71E-13,  avg # of iterations =  3.1

     negative rho (up, down):  1.496E-01 0.000E+00

     total cpu time spent up to now is     5482.4 secs

     total energy              =   -8532.40086031 Ry
     estimated scf accuracy    <          4.1E-09 Ry

     iteration # 30     ecut=    50.00 Ry     beta= 0.70
     Davidson diagonalization with overlap
     ethr =  2.71E-13,  avg # of iterations =  2.0

     negative rho (up, down):  1.496E-01 0.000E+00

     total cpu time spent up to now is     5636.4 secs

     total energy              =   -8532.40086031 Ry
     estimated scf accuracy    <          5.2E-10 Ry

     iteration # 31     ecut=    50.00 Ry     beta= 0.70
     Davidson diagonalization with overlap
     ethr =  1.00E-13,  avg # of iterations =  2.0

     negative rho (up, down):  1.496E-01 0.000E+00

     total cpu time spent up to now is     5784.9 secs

     total energy              =   -8532.40086031 Ry
     estimated scf accuracy    <          1.9E-11 Ry

     iteration # 32     ecut=    50.00 Ry     beta= 0.70
     Davidson diagonalization with overlap
     ethr =  1.00E-13,  avg # of iterations =  1.0

     negative rho (up, down):  1.496E-01 0.000E+00

     total cpu time spent up to now is     5915.6 secs

     total energy              =   -8532.40086031 Ry
     estimated scf accuracy    <          1.4E-10 Ry

     iteration # 33     ecut=    50.00 Ry     beta= 0.70
     Davidson diagonalization with overlap
     ethr =  1.00E-13,  avg # of iterations =  1.2

     negative rho (up, down):  1.496E-01 0.000E+00

     total cpu time spent up to now is     6048.6 secs

     total energy              =   -8532.40086031 Ry
     estimated scf accuracy    <          7.3E-11 Ry

     iteration # 34     ecut=    50.00 Ry     beta= 0.70
     Davidson diagonalization with overlap
     ethr =  1.00E-13,  avg # of iterations =  1.9

     negative rho (up, down):  1.496E-01 0.000E+00

     total cpu time spent up to now is     6182.4 secs

     total energy              =   -8532.40086031 Ry
     estimated scf accuracy    <          1.3E-11 Ry

     iteration # 35     ecut=    50.00 Ry     beta= 0.70
     Davidson diagonalization with overlap
     ethr =  1.00E-13,  avg # of iterations =  1.0

     negative rho (up, down):  1.496E-01 0.000E+00

     total cpu time spent up to now is     6313.1 secs

     total energy              =   -8532.40086031 Ry
     estimated scf accuracy    <          2.7E-11 Ry

     iteration # 36     ecut=    50.00 Ry     beta= 0.70
     Davidson diagonalization with overlap
     ethr =  1.00E-13,  avg # of iterations =  1.2

     negative rho (up, down):  1.496E-01 0.000E+00

     total cpu time spent up to now is     6444.4 secs

     total energy              =   -8532.40086031 Ry
     estimated scf accuracy    <          1.7E-12 Ry

     iteration # 37     ecut=    50.00 Ry     beta= 0.70
     Davidson diagonalization with overlap
     ethr =  1.00E-13,  avg # of iterations =  1.0

     negative rho (up, down):  1.496E-01 0.000E+00

     total cpu time spent up to now is     6576.4 secs

     total energy              =   -8532.40086031 Ry
     estimated scf accuracy    <          1.4E-12 Ry

     iteration # 38     ecut=    50.00 Ry     beta= 0.70
     Davidson diagonalization with overlap
     ethr =  1.00E-13,  avg # of iterations =  1.1

     negative rho (up, down):  1.496E-01 0.000E+00

     total cpu time spent up to now is     6708.1 secs

     total energy              =   -8532.40086031 Ry
     estimated scf accuracy    <          1.7E-12 Ry

     iteration # 39     ecut=    50.00 Ry     beta= 0.70
     Davidson diagonalization with overlap
     ethr =  1.00E-13,  avg # of iterations =  1.1

     negative rho (up, down):  1.496E-01 0.000E+00

     total cpu time spent up to now is     6838.3 secs

     total energy              =   -8532.40086031 Ry
     estimated scf accuracy    <          2.6E-12 Ry

     iteration # 40     ecut=    50.00 Ry     beta= 0.70
     Davidson diagonalization with overlap
     ethr =  1.00E-13,  avg # of iterations =  1.1

     negative rho (up, down):  1.496E-01 0.000E+00

     total cpu time spent up to now is     6970.3 secs

     total energy              =   -8532.40086031 Ry
     estimated scf accuracy    <          1.7E-12 Ry

     iteration # 41     ecut=    50.00 Ry     beta= 0.70
     Davidson diagonalization with overlap
     ethr =  1.00E-13,  avg # of iterations =  2.1

     negative rho (up, down):  1.496E-01 0.000E+00

     total cpu time spent up to now is     7102.9 secs

     total energy              =   -8532.40086031 Ry
     estimated scf accuracy    <          3.0E-13 Ry

     iteration # 42     ecut=    50.00 Ry     beta= 0.70
     Davidson diagonalization with overlap
     ethr =  1.00E-13,  avg # of iterations =  1.0

     negative rho (up, down):  1.496E-01 0.000E+00

     total cpu time spent up to now is     7232.0 secs

     total energy              =   -8532.40086031 Ry
     estimated scf accuracy    <          1.0E-13 Ry

     iteration # 43     ecut=    50.00 Ry     beta= 0.70
     Davidson diagonalization with overlap
     ethr =  1.00E-13,  avg # of iterations =  1.0

     negative rho (up, down):  1.496E-01 0.000E+00

     total cpu time spent up to now is     7355.7 secs

     total energy              =   -8532.40086031 Ry
     estimated scf accuracy    <          1.1E-13 Ry

     iteration # 44     ecut=    50.00 Ry     beta= 0.70
     Davidson diagonalization with overlap
     ethr =  1.00E-13,  avg # of iterations =  1.0

     negative rho (up, down):  1.496E-01 0.000E+00

     total cpu time spent up to now is     7491.1 secs

     total energy              =   -8532.40086031 Ry
     estimated scf accuracy    <          1.6E-14 Ry

     iteration # 45     ecut=    50.00 Ry     beta= 0.70
     Davidson diagonalization with overlap
     ethr =  1.00E-13,  avg # of iterations =  1.2

     negative rho (up, down):  1.496E-01 0.000E+00

     total cpu time spent up to now is     7625.2 secs

     total energy              =   -8532.40086031 Ry
     estimated scf accuracy    <          9.1E-13 Ry

     iteration # 46     ecut=    50.00 Ry     beta= 0.70
     Davidson diagonalization with overlap
     ethr =  1.00E-13,  avg # of iterations =  1.2

     negative rho (up, down):  1.496E-01 0.000E+00

     total cpu time spent up to now is     7755.4 secs

     total energy              =   -8532.40086031 Ry
     estimated scf accuracy    <          6.5E-14 Ry

     iteration # 47     ecut=    50.00 Ry     beta= 0.70
     Davidson diagonalization with overlap
     ethr =  1.00E-13,  avg # of iterations =  1.1

     negative rho (up, down):  1.496E-01 0.000E+00

     total cpu time spent up to now is     7885.1 secs

     total energy              =   -8532.40086031 Ry
     estimated scf accuracy    <          1.5E-14 Ry

     iteration # 48     ecut=    50.00 Ry     beta= 0.70
     Davidson diagonalization with overlap
     ethr =  1.00E-13,  avg # of iterations =  1.0

     negative rho (up, down):  1.496E-01 0.000E+00

     total cpu time spent up to now is     8008.4 secs

     total energy              =   -8532.40086031 Ry
     estimated scf accuracy    <          1.9E-15 Ry

     iteration # 49     ecut=    50.00 Ry     beta= 0.70
     Davidson diagonalization with overlap
     ethr =  1.00E-13,  avg # of iterations =  1.1

     negative rho (up, down):  1.496E-01 0.000E+00

     total cpu time spent up to now is     8145.3 secs

     total energy              =   -8532.40086031 Ry
     estimated scf accuracy    <          1.1E-15 Ry

     iteration # 50     ecut=    50.00 Ry     beta= 0.70
     Davidson diagonalization with overlap
     ethr =  1.00E-13,  avg # of iterations =  1.9

     negative rho (up, down):  1.496E-01 0.000E+00

     total cpu time spent up to now is     8280.7 secs

     total energy              =   -8532.40086031 Ry
     estimated scf accuracy    <          5.3E-16 Ry

     iteration # 51     ecut=    50.00 Ry     beta= 0.70
     Davidson diagonalization with overlap
     ethr =  1.00E-13,  avg # of iterations =  1.0

     negative rho (up, down):  1.496E-01 0.000E+00

     total cpu time spent up to now is     8409.7 secs

     total energy              =   -8532.40086031 Ry
     estimated scf accuracy    <          2.1E-16 Ry

     iteration # 52     ecut=    50.00 Ry     beta= 0.70
     Davidson diagonalization with overlap
     ethr =  1.00E-13,  avg # of iterations =  1.0

     negative rho (up, down):  1.496E-01 0.000E+00

     total cpu time spent up to now is     8538.3 secs

     total energy              =   -8532.40086031 Ry
     estimated scf accuracy    <          4.3E-16 Ry

     iteration # 53     ecut=    50.00 Ry     beta= 0.70
     Davidson diagonalization with overlap
     ethr =  1.00E-13,  avg # of iterations =  1.0

     negative rho (up, down):  1.496E-01 0.000E+00

     total cpu time spent up to now is     8661.6 secs

     total energy              =   -8532.40086031 Ry
     estimated scf accuracy    <          3.9E-16 Ry

     iteration # 54     ecut=    50.00 Ry     beta= 0.70
     Davidson diagonalization with overlap
     ethr =  1.00E-13,  avg # of iterations =  1.0

     negative rho (up, down):  1.496E-01 0.000E+00

     total cpu time spent up to now is     8798.5 secs

     End of self-consistent calculation

          k = 0.0000 0.0000 0.0000 (143351 PWs)   bands (ev):

    -3.1912  -2.4373  -2.4368  -2.4368  -2.4368  -2.4367  -2.4367  -2.4367
    -2.4362  -2.1866  -2.1861  -2.1861  -2.1861  -2.1861  -2.1856  -1.1890
    -1.1881  -1.1881  -1.1880  -1.1880  -1.1880  -1.1880  -1.1880  -1.1880
    -1.1878  -1.1878  -1.1869  -0.4462  -0.4443  -0.4443  -0.4441  -0.4441
    -0.4441  -0.4441  -0.4441  -0.4441  -0.4441  -0.4440  -0.4440  -0.4440
    -0.4440  -0.4440  -0.4440  -0.4440  -0.4440  -0.4440  -0.4439  -0.4439
    -0.4438  -0.4437  -0.4419  -0.1973  -0.1967  -0.1967  -0.1966  -0.1965
    -0.1964  -0.1964  -0.1959   0.7850   0.7855   0.7855   0.7855   0.7855
     0.7860   1.5198   1.5210   1.5210   1.5215   1.5216   1.5216   1.5216
     1.5216   1.5216   1.5216   1.5216   1.5216   1.5216   1.5216   1.5216
     1.5216   1.5216   1.5216   1.5216   1.5217   1.5217   1.5222   1.5222
     1.5234   1.7613   1.7626   1.7626   1.7630   1.7630   1.7631   1.7631
     1.7631   1.7631   1.7631   1.7631   1.7631   1.7631   1.7631   1.7631
     1.7631   1.7631   1.7631   1.7631   1.7631   1.7632   1.7636   1.7636
     1.7649   2.7318   2.7327   2.7327   2.7332   2.7333   2.7333   2.7333
     2.7333   2.7333   2.7333   2.7333   2.7333   2.7333   2.7333   2.7333
     2.7334   2.7334   2.7334   2.7334   2.7334   2.7335   2.7340   2.7340
     2.7348   3.3568   3.3568   3.3568   3.3568   3.4363   3.4372   3.4372
     3.4376   3.4376   3.4377   3.4377   3.4377   3.4377   3.4377   3.4377
     3.4377   3.4377   3.4377   3.4377   3.4377   3.4377   3.4377   3.4377
     3.4378   3.4378   3.4382   3.4382   3.4391   3.5795   3.5795   3.5795
     3.5795   4.6492   4.6493   4.6493   4.6497   4.6497   4.6497   4.6497
     4.6497   4.6498   4.6501   4.6501   4.6503   5.0306   5.0306   5.0306
     5.2150   5.2155   5.2155   5.2160   5.2162   5.2162   5.2162   5.2162
     5.2162   5.2162   5.2162   5.2162   5.2162   5.2162   5.2162   5.2162
     5.2162   5.2162   5.2163   5.2163   5.2164   5.2169   5.2169   5.2174
     5.4921   5.4921   5.4923   5.4930   5.4930   5.4930   5.4930   5.4930
     5.4930   5.4930   5.4930   5.4930   5.4930   5.4930   5.4931   5.4931
     5.4931   5.4931   5.4931   5.4931   5.4931   5.4938   5.4940   5.4940
     5.6241   5.6241   5.6242   5.6246   5.6249   5.6249   5.6249   5.6249
     5.6250   5.6250   5.6250   5.6250   5.6250   5.6250   5.6250   5.6250
     5.6250   5.6250   5.6250   5.6250   5.6253   5.6257   5.6258   5.6258
     5.9546   5.9546   5.9551   5.9551   5.9551   5.9551   5.9551   5.9551
     5.9551   5.9551   5.9557   5.9557   6.3619   6.3619   6.3619   6.8805
     6.8805   6.8810   6.8811   6.8811   6.8811   6.8811   6.8811   6.8811
     6.8813   6.8818   6.8818   7.2572   7.2572   7.2576   7.2577   7.2580
     7.2580   7.2581   7.2581   7.2581   7.2581   7.2581   7.2581   7.2581
     7.2581   7.2581   7.2581   7.2581   7.2581   7.2582   7.2582   7.2585
     7.2586   7.2590   7.2590   7.3113   7.3118   7.3120   7.3120   7.3120
     7.3120   7.3120   7.3120   7.3120   7.3120   7.3122   7.3128   8.3599
     8.3602   8.3604   8.3604   8.3605   8.3605   8.3605   8.3605   8.3606
     8.3606   8.3608   8.3611   8.4588   8.4588   8.4589   8.4590   8.4591
     8.4592   8.4593   8.4593   8.7362   8.7362   8.7369   8.7369   8.7369
     8.7369   8.7369   8.7369   8.7369   8.7369   8.7375   8.7375   8.9897
     8.9900   8.9900   8.9906   8.9906   8.9908   8.9908   8.9908   8.9908
     8.9908   8.9908   8.9908   8.9908   8.9908   8.9908   8.9908   8.9909
     8.9909   8.9909   8.9910   8.9911   8.9917   8.9917   8.9920   9.4751
     9.4752   9.4752   9.4753   9.4754   9.4754   9.4754   9.4754   9.4754
     9.4754   9.4754   9.4755   9.4755   9.4756

          k =-0.1768 0.1768-0.1768 (143249 PWs)   bands (ev):

    -3.1440  -2.7663  -2.5153  -2.5151  -2.5149  -2.3899  -2.3897  -2.3895
    -2.2646  -2.2644  -2.2642  -2.0141  -1.8893  -1.8891  -1.8889  -1.6396
    -1.6394  -1.6392  -1.1419  -1.1414  -1.1413  -1.1413  -1.1413  -1.1408
    -1.0174  -1.0172  -1.0170  -0.8929  -0.7695  -0.7691  -0.7690  -0.7690
    -0.7689  -0.7685  -0.6452  -0.6450  -0.6448  -0.5215  -0.5212  -0.5210
    -0.3976  -0.3974  -0.3972  -0.2745  -0.2742  -0.2740  -0.0279  -0.0274
    -0.0273  -0.0273  -0.0273  -0.0268   0.0962   0.0965   0.0967   0.2189
     0.2191   0.2194   0.3410   0.3412   0.3415   0.5887   0.7109   0.7111
     0.7113   0.9562   0.9564   0.9567   1.0769   1.0774   1.0774   1.0774
     1.0775   1.0779   1.3190   1.3193   1.3195   1.4448   1.4451   1.4452
     1.4452   1.4453   1.4456   1.5658   1.5660   1.5662   1.5662   1.5663
     1.5665   1.6888   1.6891   1.6892   1.6892   1.6894   1.6896   1.8098
     1.8100   1.8102   2.0498   2.0500   2.0502   2.0502   2.0503   2.0506
     2.1751   2.1754   2.1756   2.2956   2.2958   2.2959   2.2959   2.2961
     2.2963   2.4177   2.4179   2.4180   2.4181   2.5348   2.5353   2.5353
     2.5353   2.5354   2.5359   2.6481   2.6484   2.6486   2.7768   2.7769
     2.7771   2.7792   2.7793   2.7794   2.8895   2.8897   2.8898   2.8898
     2.8900   2.8902   3.1307   3.1308   3.1309   3.1336   3.1337   3.1338
     3.2577   3.2579   3.2581   3.2581   3.2582   3.2584   3.7270   3.7272
     3.7274   3.7417   3.7420   3.7422   3.8254   3.8255   3.8256   3.8917
     3.8918   3.8919   4.0636   4.0638   4.0640   4.0640   4.0642   4.0644
     4.3015   4.3018   4.3020   4.3269   4.3273   4.3274   4.3274   4.3275
     4.3279   4.4930   4.4932   4.4934   4.5511   4.5514   4.5515   4.5515
     4.5517   4.5519   4.6014   4.6925   4.6925   4.6927   4.6927   4.6930
     4.6930   4.7577   4.7577   4.7578   4.9583   4.9584   4.9586   5.0256
     5.0256   5.0258   5.0258   5.0261   5.0261   5.3183   5.3184   5.3185
     5.3186   5.3187   5.3188   5.4316   5.4316   5.4318   5.4318   5.4319
     5.4320   5.4586   5.4588   5.4590   5.4590   5.4592   5.4593   5.4712
     5.4712   5.4714   5.4714   5.4716   5.4716   5.6224   5.6227   5.6229
     5.7607   5.7608   5.7610   5.7610   5.7612   5.7613   5.9057   5.9058
     5.9059   5.9059   5.9061   5.9061   5.9249   5.9249   5.9251   5.9251
     5.9252   5.9253   6.0147   6.0149   6.0152   6.1812   6.1814   6.1817
     6.2273   6.2275   6.2276   6.2276   6.2278   6.2280   6.3752   6.3753
     6.3754   6.4520   6.4525   6.4525   6.4525   6.4526   6.4531   6.6364
     6.6365   6.6368   6.6368   6.6369   6.6371   6.7212   6.7213   6.7214
     6.7250   6.7251   6.7252   6.7252   6.7254   6.7254   6.8491   6.8493
     6.8495   7.0945   7.1022   7.1022   7.1024   7.1597   7.1597   7.1598
     7.4251   7.4253   7.4254   7.4254   7.4255   7.4257   7.4337   7.4338
     7.4339   7.7985   7.7989   7.7990   7.7990   7.7991   7.7995   7.8434
     7.8436   7.8439   7.8649   7.8650   7.8652   7.8652   7.8653   7.8654
     8.0333   8.0334   8.0335   8.1077   8.1079   8.1080   8.1352   8.1353
     8.1356   8.1356   8.1358   8.1359   8.2194   8.2195   8.2196   8.3360
     8.3362   8.3363   8.5104   8.5106   8.5108   8.5108   8.5109   8.5111
     8.5689   8.5691   8.5693   8.6901   8.6903   8.6904   8.6904   8.6905
     8.6907   8.7313   8.7317   8.7319   8.7319   8.7320   8.7324   8.8883
     8.8884   8.8884   8.9677   8.9678   8.9678   8.9821   8.9823   8.9825
     8.9825   8.9827   8.9828   9.1111   9.1113   9.1114   9.1114   9.1115
     9.1117   9.1655   9.1657   9.1659   9.1987   9.1988   9.1990   9.1993
     9.1998   9.2005   9.2184   9.2187   9.2188

          k = 0.3536-0.3536 0.3536 (143160 PWs)   bands (ev):

    -3.0023  -3.0022  -2.4999  -2.4995  -2.4995  -2.4995  -2.4994  -2.4990
    -1.9989  -1.9985  -1.9985  -1.9984  -1.9984  -1.9979  -1.4998  -1.4992
    -1.4992  -1.4992  -1.4991  -1.4991  -1.4991  -1.4985  -1.0027  -1.0017
    -1.0016  -1.0016  -1.0016  -1.0016  -1.0016  -1.0016  -1.0016  -1.0016
    -1.0014  -1.0006  -0.5062  -0.5058  -0.5057  -0.5057  -0.5056  -0.5052
    -0.0131  -0.0123  -0.0123  -0.0123  -0.0123  -0.0121  -0.0117  -0.0116
    -0.0116  -0.0115  -0.0115  -0.0108   0.4789   0.4800   0.4800   0.4802
     0.4802   0.4802   0.4802   0.4802   0.4802   0.4803   0.4803   0.4806
     0.4809   0.4809   0.4810   0.4811   0.4812   0.4821   0.9707   0.9709
     0.9710   0.9710   0.9711   0.9714   1.4592   1.4597   1.4600   1.4601
     1.4601   1.4601   1.4601   1.4601   1.4601   1.4601   1.4604   1.4606
     1.4612   1.4615   1.9405   1.9409   1.9410   1.9410   1.9410   1.9414
     1.9468   1.9471   1.9474   1.9475   1.9475   1.9475   1.9475   1.9476
     1.9476   1.9477   1.9480   1.9484   2.4255   2.4261   2.4262   2.4263
     2.4263   2.4263   2.4263   2.4264   2.4264   2.4265   2.4266   2.4271
     2.9094   2.9096   2.9097   2.9099   2.9100   2.9101   2.9137   2.9138
     2.9141   2.9141   2.9143   2.9144   2.9159   2.9160   2.9161   2.9163
     2.9164   2.9166   3.3911   3.3913   3.3916   3.3918   3.3918   3.3918
     3.3918   3.3918   3.3918   3.3919   3.3922   3.3923   3.3941   3.3942
     3.3943   3.3943   3.3945   3.3946   3.8664   3.8666   3.8668   3.8670
     3.8670   3.8670   3.8670   3.8670   3.8671   3.8672   3.8674   3.8676
     4.2808   4.2810   4.2810   4.2811   4.2812   4.2814   4.3786   4.3786
     4.3788   4.3789   4.3791   4.3791   4.7538   4.7540   4.7540   4.7543
     4.7543   4.7543   4.7543   4.7543   4.7544   4.7546   4.7546   4.7548
     4.8200   4.8200   4.8204   4.8205   4.8205   4.8205   4.8205   4.8205
     4.8206   4.8207   4.8210   4.8211   4.8510   4.8511   4.8512   4.8512
     4.8514   4.8515   5.2214   5.2214   5.2216   5.2217   5.2219   5.2219
     5.3273   5.3274   5.3277   5.3278   5.3278   5.3278   5.3278   5.3278
     5.3278   5.3279   5.3283   5.3284   5.6924   5.6925   5.6926   5.6929
     5.6929   5.6929   5.6929   5.6929   5.6930   5.6932   5.6934   5.6934
     5.8073   5.8074   6.1891   6.1893   6.1894   6.1897   6.1897   6.1897
     6.1897   6.1897   6.1898   6.1900   6.1901   6.1903   6.2728   6.2730
     6.2732   6.2733   6.2733   6.2733   6.2734   6.2734   6.2734   6.2735
     6.2737   6.2739   6.7175   6.7177   6.7178   6.7180   6.7181   6.7182
     7.1106   7.1108   7.1110   7.1111   7.1112   7.1112   7.1112   7.1112
     7.1113   7.1114   7.1115   7.1118   7.1244   7.1244   7.1246   7.1247
     7.1249   7.1249   7.2054   7.2055   7.2055   7.2056   7.2057   7.2057
     7.4565   7.4566   7.4566   7.4567   7.4567   7.4568   7.5899   7.5903
     7.5905   7.5907   7.5907   7.5907   7.5907   7.5907   7.5907   7.5909
     7.5910   7.5915   7.6914   7.6915   7.6916   7.6918   7.6918   7.6920
     7.9055   7.9060   7.9060   7.9061   7.9061   7.9061   7.9061   7.9062
     7.9062   7.9062   7.9063   7.9067   8.1508   8.1511   8.1512   8.1512
     8.1513   8.1515   8.4656   8.4657   8.4658   8.4658   8.4658   8.4660
     8.5294   8.5297   8.5297   8.5298   8.5298   8.5299   8.5299   8.5299
     8.5299   8.5300   8.5301   8.5304   8.8695   8.8698   8.8699   8.8701
     8.8701   8.8701   8.8701   8.8702   8.8702   8.8704   8.8705   8.8708
     9.0306   9.0310   9.0312   9.0312   9.0312   9.0313   9.0313   9.0313
     9.0313   9.0313   9.0315   9.0319   9.3928   9.3929   9.3929   9.3930
     9.3931   9.3932   9.3932   9.3932   9.3933

          k = 0.0000 0.3536 0.0000 (143348 PWs)   bands (ev):

    -3.1282  -2.6251  -2.6250  -2.6250  -2.6250  -2.6248  -2.1238  -2.1235
    -2.1235  -2.1235  -2.1235  -2.1235  -2.1235  -2.1232  -1.6243  -1.6238
    -1.6238  -1.6238  -1.6234  -1.1265  -1.1259  -1.1259  -1.1258  -1.1258
    -1.1258  -1.1258  -1.1251  -0.6308  -0.6298  -0.6298  -0.6297  -0.6297
    -0.6297  -0.6297  -0.6297  -0.6296  -0.6295  -0.6295  -0.6295  -0.6295
    -0.6294  -0.6294  -0.6284  -0.1360  -0.1351  -0.1351  -0.1351  -0.1351
    -0.1351  -0.1351  -0.1351  -0.1347   0.3571   0.3572   0.3572   0.3572
     0.3581   0.3581   0.3581   0.3582   0.8464   0.8467   0.8467   0.8468
     0.8484   0.8484   0.8484   0.8485   0.8491   0.8491   0.8491   0.8491
     0.8491   0.8491   0.8491   0.8494   1.3362   1.3362   1.3362   1.3362
     1.3384   1.3384   1.3384   1.3384   1.8193   1.8237   1.8239   1.8239
     1.8240   1.8240   1.8240   1.8240   1.8240   1.8258   1.8259   1.8259
     1.8259   1.8264   1.8265   1.8265   1.8269   2.3049   2.3051   2.3051
     2.3052   2.3092   2.3096   2.3096   2.3099   2.3100   2.3100   2.3100
     2.3100   2.3100   2.3103   2.3103   2.3104   2.3117   2.3117   2.3117
     2.3117   2.3117   2.3118   2.3118   2.3123   2.7892   2.7893   2.7893
     2.7893   2.7941   2.7941   2.7941   2.7941   3.2576   3.2576   3.2576
     3.2576   3.2576   3.2576   3.2576   3.2576   3.2730   3.2730   3.2730
     3.2730   3.2730   3.2730   3.2730   3.2730   3.7371   3.7372   3.7372
     3.7372   3.7372   3.7372   3.7372   3.7372   3.7473   3.7473   3.7473
     3.7474   3.7566   3.7566   3.7566   3.7566   4.1625   4.2254   4.2254
     4.2254   4.2254   4.2254   4.2254   4.2255   4.2255   4.2591   4.2591
     4.2591   4.2591   4.6360   4.6360   4.6360   4.6360   4.6863   4.6863
     4.6863   4.6863   4.6863   4.6863   4.6864   4.6864   4.7053   4.7053
     4.7053   4.7053   4.7368   4.7368   4.7368   4.7368   4.7368   4.7368
     4.7368   4.7368   5.0883   5.0883   5.1085   5.1085   5.1085   5.1085
     5.1610   5.1610   5.1611   5.1611   5.1611   5.1611   5.1611   5.1611
     5.2127   5.2127   5.2127   5.2127   5.5504   5.5504   5.6454   5.6455
     5.6455   5.6455   5.6668   5.6668   5.6669   5.6669   5.6669   5.6669
     5.6669   5.6669   6.0130   6.0130   6.0130   6.0130   6.0723   6.0723
     6.0723   6.0723   6.1376   6.1376   6.1377   6.1377   6.1377   6.1377
     6.1378   6.1378   6.1555   6.1555   6.1555   6.1555   6.1594   6.1594
     6.1594   6.1594   6.4228   6.4228   6.4755   6.4755   6.4758   6.4758
     6.4762   6.4762   6.5402   6.5402   6.5402   6.5402   6.5402   6.5402
     6.5403   6.5403   6.6087   6.6087   6.6087   6.6087   6.6087   6.6087
     6.6087   6.6087   6.6253   6.6253   6.6253   6.6253   6.6253   6.6253
     6.6253   6.6253   6.9039   6.9039   7.3191   7.3191   7.3191   7.3191
     7.3391   7.4026   7.4026   7.4026   7.4026   7.5791   7.5791   7.5791
     7.5791   7.7873   7.7873   7.7873   7.7873   7.7965   7.7965   7.8665
     7.8665   7.9463   7.9464   7.9464   7.9464   7.9912   7.9912   7.9913
     7.9913   7.9913   7.9913   7.9914   7.9914   8.0227   8.0227   8.0227
     8.0227   8.0227   8.0227   8.0227   8.0227   8.0299   8.0299   8.0299
     8.0299   8.2534   8.2534   8.2534   8.2534   8.4139   8.4139   8.4139
     8.4139   8.7945   8.7945   8.7946   8.7948   8.7949   8.7951   8.7953
     8.7953   8.8762   8.8762   8.8762   8.8762   8.8762   8.8763   8.8763
     8.8763   8.8959   8.8959   8.8959   8.8959   8.9792   8.9792   8.9792
     8.9792   9.1431   9.1431   9.1431   9.1431   9.1431   9.1431   9.1432
     9.1432   9.2595   9.2595   9.2595   9.2595   9.2813   9.2813   9.2813
     9.2813   9.3780   9.3780   9.3780   9.3780

          k = 0.5303-0.1768 0.5303 (143227 PWs)   bands (ev):

    -3.0180  -2.8921  -2.7663  -2.6407  -2.6407  -2.3897  -2.2644  -2.2644
    -2.1392  -2.0141  -2.0141  -1.8891  -1.8891  -1.7642  -1.7642  -1.6396
    -1.6392  -1.5149  -1.5147  -1.5146  -1.3902  -1.3902  -1.2659  -1.2655
    -1.1415  -1.1414  -1.1412  -1.0171  -1.0171  -0.8930  -0.8930  -0.7689
    -0.7689  -0.5218  -0.5213  -0.5212  -0.5209  -0.3979  -0.3978  -0.3975
    -0.3975  -0.2738  -0.1508  -0.1507  -0.1504  -0.1503  -0.0270  -0.0270
     0.0963   0.0963   0.2190   0.2191   0.2197   0.3421   0.3422   0.3427
     0.3428   0.4642   0.4642   0.5870   0.5881   0.5881   0.5884   0.7097
     0.7098   0.7107   0.7108   0.7114   0.7116   0.8323   0.8324   0.8335
     0.8336   0.9562   1.0774   1.0786   1.0787   1.1998   1.1998   1.2015
     1.3230   1.3230   1.3236   1.4413   1.4413   1.4442   1.4442   1.4454
     1.4455   1.5633   1.6852   1.6852   1.6881   1.6881   1.8069   1.8069
     1.8115   1.9316   1.9316   1.9328   2.0501   2.0539   2.0543   2.0543
     2.1716   2.1716   2.1746   2.1746   2.2960   2.2960   2.4065   2.4142
     2.4142   2.5275   2.5275   2.5381   2.5381   2.5388   2.5388   2.6563
     2.6563   2.7692   2.7692   2.7800   2.8977   2.8977   2.8998   2.8999
     2.9009   2.9010   3.0213   3.0213   3.1310   3.1310   3.1393   3.1393
     3.2512   3.2512   3.2532   3.2594   3.2594   3.2610   3.2610   3.3720
     3.3720   3.4912   3.4912   3.4984   3.4984   3.5864   3.6107   3.6107
     3.6118   3.6118   3.7060   3.7060   3.7313   3.7313   3.8464   3.8464
     3.8492   3.8597   3.8597   3.8602   3.9449   3.9449   3.9689   3.9689
     3.9778   3.9778   4.0120   4.0866   4.1326   4.1326   4.2035   4.2035
     4.2099   4.2099   4.3023   4.3023   4.3139   4.3139   4.3708   4.3708
     4.4208   4.4208   4.6112   4.6112   4.6565   4.6565   4.7203   4.7203
     4.7773   4.7773   4.7967   4.7967   4.8417   4.8747   4.8747   4.8939
     4.8939   4.9223   4.9223   4.9562   4.9614   4.9614   4.9917   4.9986
     5.0754   5.0754   5.0888   5.0888   5.1086   5.1086   5.1169   5.1169
     5.2253   5.2253   5.3672   5.3672   5.4228   5.4228   5.4353   5.4580
     5.5250   5.5250   5.5534   5.5749   5.5749   5.6601   5.6601   5.6697
     5.6697   5.7348   5.7348   5.7942   5.8027   5.8027   5.9058   5.9058
     5.9822   6.0206   6.0363   6.0363   6.0609   6.0609   6.1001   6.1001
     6.1317   6.1318   6.1331   6.1331   6.2665   6.2976   6.2976   6.3821
     6.4860   6.4860   6.4994   6.4994   6.5031   6.5031   6.5706   6.5706
     6.6443   6.6443   6.6772   6.6772   6.8053   6.8053   6.8265   6.8265
     6.8410   6.8410   6.8695   6.8695   6.8859   6.8859   6.9586   6.9595
     6.9595   7.0309   7.0309   7.0683   7.0683   7.0782   7.0782   7.1871
     7.1871   7.2054   7.2054   7.2094   7.2094   7.2186   7.2187   7.2712
     7.2712   7.2767   7.2768   7.3276   7.3320   7.3320   7.4246   7.4246
     7.4406   7.4466   7.4466   7.5501   7.5501   7.5670   7.5670   7.6262
     7.6262   7.6852   7.6852   7.8842   7.8842   7.8973   7.8973   7.9133
     7.9176   7.9176   7.9395   7.9395   7.9997   7.9997   8.0975   8.0975
     8.1028   8.1028   8.1105   8.1372   8.1372   8.1475   8.2001   8.2001
     8.2260   8.2260   8.2564   8.2564   8.2682   8.3334   8.3334   8.3798
     8.3798   8.3844   8.3844   8.4067   8.4067   8.4528   8.4528   8.4673
     8.4860   8.4860   8.5582   8.5582   8.6508   8.6508   8.6846   8.6846
     8.7472   8.7472   8.9137   8.9137   8.9393   8.9399   8.9399   8.9672
     8.9672   8.9924   8.9924   9.0294   9.0294   9.0760   9.1395   9.1395
     9.1894   9.1894   9.2155   9.2155   9.2219   9.2220   9.2329   9.2329
     9.2784   9.2784   9.3012   9.3012   9.3866

          k = 0.3536 0.0000 0.3536 (143240 PWs)   bands (ev):

    -3.0652  -2.8136  -2.8133  -2.5622  -2.5622  -2.3117  -2.3114  -2.3113
    -2.3111  -2.0612  -2.0610  -2.0606  -1.8112  -1.8109  -1.5620  -1.5615
    -1.5615  -1.5615  -1.5614  -1.5609  -1.3127  -1.3124  -1.3124  -1.3121
    -1.0640  -1.0637  -1.0637  -1.0633  -0.8161  -0.8156  -0.8155  -0.8155
    -0.8154  -0.8149  -0.5681  -0.5677  -0.5676  -0.5672  -0.3208  -0.3204
    -0.3203  -0.3199  -0.0741  -0.0740  -0.0735  -0.0733  -0.0732  -0.0730
    -0.0727   0.1722   0.1725   0.1726   0.1727   0.1731   0.1732   0.1734
     0.1737   0.4187   0.4187   0.6640   0.6644   0.6644   0.6646   0.6648
     0.6650   0.6651   0.6655   0.9078   0.9081   0.9094   0.9096   0.9099
     0.9101   0.9105   0.9110   1.1550   1.1552   1.1555   1.1557   1.3968
     1.3972   1.3973   1.3974   1.3988   1.3990   1.3990   1.3991   1.3992
     1.3998   1.6429   1.6430   1.6432   1.6433   1.8802   1.8802   1.8847
     1.8850   2.1229   2.1231   2.1233   2.1234   2.1293   2.1295   2.1298
     2.1300   2.1302   2.1307   2.3657   2.3658   2.3703   2.3706   2.3707
     2.3709   2.3721   2.3721   2.3725   2.3726   2.6077   2.6078   2.6080
     2.6081   2.6138   2.6142   2.6143   2.6147   2.8493   2.8495   2.8498
     2.8500   2.8539   2.8540   2.8542   2.8543   2.8559   3.0772   3.0773
     3.0964   3.0967   3.3306   3.3306   3.3311   3.3311   3.3318   3.3319
     3.4735   3.4735   3.5576   3.5577   3.5577   3.5577   3.5709   3.5712
     3.5713   3.5715   3.7026   3.7026   3.7068   3.7069   3.8158   3.8158
     3.8161   3.8161   3.9478   3.9478   4.0353   4.0354   4.0503   4.0504
     4.0507   4.0509   4.1728   4.1729   4.1730   4.1731   4.2218   4.2218
     4.4057   4.4057   4.4331   4.4332   4.4332   4.4332   4.4586   4.4586
     4.4589   4.4589   4.5126   4.5126   4.5126   4.5127   4.6732   4.6732
     4.6954   4.6954   4.7651   4.7651   4.8690   4.8691   4.8694   4.8695
     4.9304   4.9306   4.9307   4.9309   5.0332   5.0337   5.1448   5.1449
     5.1453   5.1454   5.1461   5.1665   5.1665   5.1670   5.1671   5.2699
     5.2700   5.2702   5.2703   5.5021   5.5025   5.5026   5.5030   5.5501
     5.5501   5.5503   5.5504   5.6082   5.6082   5.6373   5.6373   5.7392
     5.7393   5.7397   5.7398   5.7811   5.7813   5.7816   5.7817   5.8160
     5.8160   5.8161   5.8162   5.9586   5.9587   6.0402   6.0403   6.0406
     6.0407   6.0708   6.2105   6.2106   6.2109   6.2109   6.2346   6.2346
     6.4299   6.4300   6.4300   6.4301   6.4601   6.4601   6.4833   6.5337
     6.5337   6.5964   6.5965   6.5969   6.5970   6.5972   6.6951   6.6954
     6.8304   6.8306   6.8309   6.8311   6.9068   6.9071   6.9245   6.9247
     6.9250   6.9252   6.9571   6.9571   6.9970   6.9970   7.0085   7.0085
     7.1577   7.1580   7.1581   7.1583   7.2948   7.2951   7.2951   7.2954
     7.3748   7.3749   7.3749   7.3750   7.3981   7.3981   7.5698   7.6200
     7.6205   7.6302   7.6303   7.6305   7.6306   7.7168   7.7168   7.7172
     7.7172   7.7693   7.7694   7.7698   7.7699   7.8638   7.8638   7.9162
     7.9163   7.9164   7.9165   7.9244   7.9245   7.9245   7.9855   7.9855
     8.0017   8.0022   8.0023   8.0027   8.2580   8.2582   8.2584   8.2586
     8.2973   8.2974   8.2975   8.2976   8.3886   8.3886   8.4410   8.4411
     8.4413   8.4414   8.4635   8.4636   8.4639   8.4639   8.4750   8.4750
     8.5707   8.5708   8.5710   8.5712   8.6603   8.6603   8.7850   8.7851
     8.7973   8.7978   8.8684   8.8685   8.8688   8.8690   8.9606   8.9606
     8.9845   8.9847   9.0794   9.0795   9.0797   9.0798   9.0871   9.0872
     9.0874   9.0876   9.1726   9.1730   9.1731   9.1735   9.2414   9.2414
     9.2415   9.2415   9.2419   9.2419   9.3172

          k = 0.0000-0.7071 0.0000 (143292 PWs)   bands (ev):

    -2.9394  -2.9391  -2.6878  -2.6878  -2.6878  -2.6878  -1.9365  -1.9360
    -1.9360  -1.9360  -1.9359  -1.9359  -1.9358  -1.9354  -1.6871  -1.6862
    -1.6862  -1.6862  -1.6862  -1.6861  -1.6861  -1.6853  -0.9404  -0.9397
    -0.9396  -0.9396  -0.9395  -0.9395  -0.9395  -0.9394  -0.9394  -0.9387
    -0.6916  -0.6916  -0.6916  -0.6916  -0.6916  -0.6916  -0.6916  -0.6916
     0.0491   0.0498   0.0498   0.0499   0.0499   0.0500   0.0500   0.0507
     0.2950   0.2960   0.2960   0.2963   0.2963   0.2963   0.2963   0.2963
     0.2963   0.2963   0.2963   0.2964   0.2964   0.2966   0.2966   0.2976
     1.0299   1.0303   1.0303   1.0305   1.0305   1.0306   1.0306   1.0307
     1.0326   1.0329   1.0329   1.0330   1.0331   1.0332   1.0332   1.0338
     1.2744   1.2751   1.2751   1.2751   1.2751   1.2751   1.2751   1.2755
     1.2773   1.2773   1.2773   1.2776   2.0059   2.0062   2.0062   2.0064
     2.0064   2.0064   2.0064   2.0064   2.0064   2.0065   2.0065   2.0065
     2.0065   2.0067   2.0067   2.0070   2.2511   2.2513   2.2513   2.2515
     2.2516   2.2518   2.2518   2.2520   2.9568   2.9569   2.9749   2.9751
     2.9751   2.9753   2.9754   2.9756   2.9756   2.9758   3.1974   3.1975
     3.1975   3.1975   3.1975   3.1975   3.1975   3.1975   3.2152   3.2154
     3.2154   3.2157   3.2157   3.2157   3.2157   3.2157   3.2157   3.2157
     3.2157   3.2157   3.2158   3.2160   3.2160   3.2163   3.8233   3.8233
     3.8235   3.8235   3.8235   3.8235   3.8236   3.8236   3.9169   3.9169
     3.9170   3.9170   3.9170   3.9170   3.9171   3.9171   4.0696   4.0696
     4.0698   4.0698   4.0698   4.0698   4.0700   4.0700   4.1542   4.1542
     4.1542   4.1547   4.1548   4.1548   4.1548   4.1548   4.1548   4.1548
     4.1548   4.1549   4.1550   4.1554   4.1554   4.1555   4.7526   4.7529
     4.7529   4.7530   4.7532   4.7533   4.7533   4.7536   5.0270   5.0270
     5.0270   5.0273   5.0273   5.0275   5.0275   5.0276   5.1059   5.1059
     5.1059   5.1059   5.1059   5.1059   5.1059   5.1059   5.1511   5.1511
     5.1512   5.1512   5.1514   5.1515   5.1515   5.1515   5.2614   5.2614
     5.2617   5.2617   5.4927   5.4927   5.4927   5.4927   6.0762   6.0762
     6.0765   6.0766   6.0768   6.0768   6.0768   6.0768   6.0769   6.0769
     6.0769   6.0769   6.0771   6.0772   6.0775   6.0775   6.1862   6.1862
     6.1864   6.1865   6.1865   6.1866   6.1868   6.1868   6.6043   6.6044
     6.6046   6.6047   6.7053   6.7055   6.7055   6.7056   6.7058   6.7059
     6.7059   6.7061   6.8112   6.8112   6.8113   6.8114   6.8117   6.8117
     6.8119   6.8119   6.8360   6.8360   6.8360   6.8360   7.0112   7.0112
     7.0116   7.0117   7.0117   7.0117   7.0117   7.0118   7.0118   7.0118
     7.0118   7.0118   7.0118   7.0119   7.0123   7.0123   7.1126   7.1126
     7.1132   7.1132   7.3447   7.3447   7.3447   7.3447   7.3447   7.3447
     7.3447   7.3447   7.6814   7.6815   7.6815   7.6816   7.6817   7.6817
     7.6817   7.6818   7.7235   7.7236   7.7236   7.7237   7.7238   7.7238
     7.7238   7.7238   7.7238   7.7238   7.7238   7.7239   7.7239   7.7241
     7.7241   7.7241   8.0399   8.0399   8.0402   8.0404   8.0404   8.0405
     8.0409   8.0409   8.1284   8.1284   8.7978   8.7979   8.7979   8.7979
     8.7979   8.7979   8.7979   8.7979   8.8717   8.8719   8.8992   8.8992
     8.8994   8.8997   8.8998   8.8998   8.8998   8.8998   8.8998   8.8998
     8.8998   8.8998   8.8998   8.9001   8.9002   8.9002   8.9065   8.9065
     8.9065   8.9065   8.9689   8.9689   8.9689   8.9691   8.9692   8.9693
     8.9694   8.9694   9.0821   9.0822   9.0984   9.0984   9.0984   9.0984
     9.0984   9.0984   9.0984   9.0984   9.2009

          k =-0.3536-0.7071 0.0000 (143120 PWs)   bands (ev):

    -2.8766  -2.8764  -2.8764  -2.8762  -2.3742  -2.3740  -2.3740  -2.3738
    -1.8742  -1.8735  -1.8734  -1.8734  -1.8734  -1.8734  -1.8734  -1.8727
    -1.3755  -1.3747  -1.3747  -1.3746  -1.3746  -1.3746  -1.3746  -1.3746
    -1.3746  -1.3745  -1.3745  -1.3737  -0.8780  -0.8776  -0.8776  -0.8772
    -0.3831  -0.3822  -0.3822  -0.3821  -0.3821  -0.3821  -0.3821  -0.3820
    -0.3820  -0.3819  -0.3819  -0.3811   0.1103   0.1109   0.1110   0.1111
     0.1113   0.1113   0.1116   0.1116   0.1116   0.1116   0.1118   0.1125
     0.6027   0.6034   0.6035   0.6037   0.6037   0.6037   0.6037   0.6037
     0.6038   0.6039   0.6040   0.6047   1.0908   1.0915   1.0916   1.0917
     1.0917   1.0917   1.0919   1.0921   1.0931   1.0933   1.0934   1.0934
     1.0935   1.0935   1.0937   1.0942   1.5796   1.5801   1.5802   1.5803
     1.5803   1.5804   1.5805   1.5808   1.5825   1.5828   1.5828   1.5829
     1.5830   1.5831   1.5832   1.5836   2.0623   2.0625   2.0625   2.0626
     2.0687   2.0689   2.0689   2.0692   2.5518   2.5521   2.5522   2.5523
     2.5523   2.5524   2.5524   2.5527   3.0168   3.0170   3.0171   3.0173
     3.0299   3.0301   3.0304   3.0305   3.0305   3.0305   3.0307   3.0309
     3.0339   3.0341   3.0341   3.0343   3.0344   3.0345   3.0346   3.0347
     3.0352   3.0353   3.0355   3.0355   3.0356   3.0356   3.0360   3.0362
     3.4976   3.4978   3.4978   3.4980   3.5126   3.5126   3.5129   3.5129
     3.5130   3.5130   3.5133   3.5133   3.9761   3.9762   3.9765   3.9766
     3.9766   3.9767   3.9770   3.9770   3.9909   3.9912   3.9913   3.9914
     3.9914   3.9915   3.9915   3.9915   3.9915   3.9916   3.9917   3.9920
     4.3994   4.3996   4.3996   4.3998   4.4479   4.4480   4.4483   4.4483
     4.4484   4.4484   4.4487   4.4487   4.4537   4.4539   4.4539   4.4540
     4.4972   4.4972   4.4974   4.4974   4.4976   4.4977   4.4978   4.4978
     4.9702   4.9704   4.9705   4.9706   4.9708   4.9709   4.9710   4.9712
     5.3191   5.3193   5.3193   5.3196   5.3390   5.3394   5.3395   5.3396
     5.3396   5.3396   5.3398   5.3402   5.4294   5.4295   5.4297   5.4297
     5.4298   5.4298   5.4300   5.4301   5.7815   5.7817   5.7817   5.7819
     5.8670   5.8671   5.8671   5.8671   5.9172   5.9174   5.9175   5.9176
     5.9176   5.9177   5.9177   5.9179   5.9242   5.9242   5.9243   5.9243
     5.9246   5.9246   5.9247   5.9247   6.2777   6.2780   6.2780   6.2783
     6.6633   6.6635   6.6635   6.6637   6.7072   6.7074   6.7074   6.7076
     6.8231   6.8234   6.8235   6.8235   6.8236   6.8236   6.8237   6.8240
     6.8432   6.8433   6.8435   6.8435   6.8435   6.8435   6.8437   6.8438
     7.0769   7.0771   7.0771   7.0774   7.1704   7.1708   7.1708   7.1712
     7.2408   7.2413   7.2413   7.2414   7.2416   7.2416   7.2417   7.2422
     7.3094   7.3097   7.3097   7.3098   7.3098   7.3098   7.3099   7.3102
     7.5741   7.5743   7.5743   7.5745   7.6341   7.6345   7.6345   7.6349
     7.8068   7.8069   7.8070   7.8071   7.8073   7.8073   7.8075   7.8076
     7.8798   7.8800   7.8800   7.8802   8.0983   8.0985   8.0985   8.0987
     8.1615   8.1619   8.1620   8.1620   8.1620   8.1621   8.1622   8.1626
     8.1717   8.1718   8.1718   8.1720   8.2538   8.2540   8.2540   8.2540
     8.2541   8.2542   8.2542   8.2544   8.5202   8.5205   8.5205   8.5208
     8.5622   8.5625   8.5625   8.5628   8.5764   8.5767   8.5768   8.5768
     8.5769   8.5770   8.5770   8.5773   8.7121   8.7121   8.7124   8.7124
     8.7124   8.7125   8.7127   8.7128   8.9289   8.9290   8.9290   8.9291
     9.1190   9.1193   9.1193   9.1196   9.3701   9.3702   9.3702   9.3703
     9.4700   9.4702   9.4702   9.4704   9.6913

          k = 0.0000 0.0000 0.3536 (143348 PWs)   bands (ev):

    -3.1282  -2.6253  -2.6250  -2.6250  -2.6250  -2.6247  -2.1242  -2.1235
    -2.1235  -2.1235  -2.1235  -2.1235  -2.1235  -2.1228  -1.6242  -1.6238
    -1.6238  -1.6238  -1.6234  -1.1265  -1.1259  -1.1259  -1.1258  -1.1258
    -1.1258  -1.1257  -1.1251  -0.6311  -0.6299  -0.6297  -0.6297  -0.6297
    -0.6297  -0.6297  -0.6296  -0.6296  -0.6296  -0.6295  -0.6295  -0.6295
    -0.6294  -0.6293  -0.6281  -0.1360  -0.1356  -0.1352  -0.1351  -0.1351
    -0.1351  -0.1351  -0.1350  -0.1342   0.3567   0.3572   0.3572   0.3574
     0.3579   0.3581   0.3582   0.3587   0.8462   0.8468   0.8468   0.8470
     0.8477   0.8484   0.8484   0.8486   0.8488   0.8490   0.8491   0.8491
     0.8491   0.8491   0.8492   0.8503   1.3358   1.3362   1.3362   1.3365
     1.3382   1.3383   1.3386   1.3388   1.8193   1.8232   1.8236   1.8239
     1.8240   1.8240   1.8240   1.8243   1.8244   1.8255   1.8258   1.8260
     1.8261   1.8262   1.8263   1.8266   1.8269   2.3048   2.3051   2.3052
     2.3054   2.3090   2.3096   2.3098   2.3099   2.3100   2.3100   2.3100
     2.3100   2.3100   2.3101   2.3103   2.3107   2.3111   2.3116   2.3117
     2.3117   2.3117   2.3117   2.3118   2.3128   2.7889   2.7893   2.7893
     2.7897   2.7938   2.7939   2.7943   2.7944   3.2571   3.2574   3.2576
     3.2576   3.2576   3.2577   3.2578   3.2581   3.2724   3.2727   3.2730
     3.2730   3.2730   3.2730   3.2733   3.2736   3.7367   3.7370   3.7371
     3.7372   3.7372   3.7372   3.7374   3.7377   3.7469   3.7473   3.7474
     3.7478   3.7562   3.7566   3.7566   3.7570   4.1625   4.2246   4.2253
     4.2254   4.2254   4.2254   4.2254   4.2255   4.2263   4.2588   4.2589
     4.2592   4.2594   4.6357   4.6360   4.6360   4.6363   4.6858   4.6861
     4.6863   4.6863   4.6863   4.6864   4.6866   4.6868   4.7050   4.7052
     4.7053   4.7055   4.7362   4.7364   4.7368   4.7368   4.7368   4.7368
     4.7371   4.7374   5.0883   5.0883   5.1081   5.1085   5.1085   5.1089
     5.1606   5.1608   5.1610   5.1610   5.1611   5.1611   5.1614   5.1616
     5.2125   5.2126   5.2128   5.2129   5.5504   5.5505   5.6451   5.6454
     5.6455   5.6458   5.6664   5.6666   5.6668   5.6669   5.6669   5.6669
     5.6672   5.6674   6.0126   6.0130   6.0130   6.0133   6.0719   6.0722
     6.0724   6.0727   6.1372   6.1374   6.1377   6.1377   6.1377   6.1377
     6.1379   6.1382   6.1552   6.1554   6.1557   6.1559   6.1592   6.1593
     6.1595   6.1596   6.4228   6.4228   6.4754   6.4758   6.4758   6.4759
     6.4759   6.4763   6.5393   6.5401   6.5402   6.5402   6.5402   6.5402
     6.5404   6.5411   6.6082   6.6084   6.6087   6.6087   6.6087   6.6088
     6.6090   6.6092   6.6247   6.6250   6.6253   6.6253   6.6253   6.6253
     6.6257   6.6260   6.9039   6.9039   7.3187   7.3191   7.3191   7.3194
     7.3391   7.4022   7.4026   7.4026   7.4029   7.5789   7.5790   7.5792
     7.5793   7.7870   7.7873   7.7873   7.7876   7.7965   7.7965   7.8665
     7.8665   7.9461   7.9464   7.9464   7.9466   7.9907   7.9910   7.9912
     7.9913   7.9913   7.9913   7.9915   7.9918   8.0222   8.0224   8.0226
     8.0227   8.0227   8.0227   8.0230   8.0232   8.0296   8.0299   8.0299
     8.0303   8.2530   8.2534   8.2534   8.2538   8.4135   8.4137   8.4141
     8.4143   8.7942   8.7948   8.7948   8.7948   8.7949   8.7949   8.7950
     8.7956   8.8755   8.8759   8.8762   8.8762   8.8763   8.8763   8.8766
     8.8770   8.8956   8.8959   8.8959   8.8962   8.9790   8.9791   8.9792
     8.9793   9.1428   9.1430   9.1431   9.1431   9.1432   9.1432   9.1433
     9.1435   9.2591   9.2595   9.2595   9.2598   9.2809   9.2812   9.2814
     9.2817   9.3778   9.3780   9.3781   9.3782

          k =-0.5303 0.5303-0.1768 (143227 PWs)   bands (ev):

    -3.0180  -2.8921  -2.7663  -2.6408  -2.6405  -2.3897  -2.2645  -2.2642
    -2.1392  -2.0142  -2.0139  -1.8892  -1.8889  -1.7643  -1.7640  -1.6395
    -1.6393  -1.5150  -1.5147  -1.5145  -1.3903  -1.3900  -1.2658  -1.2656
    -1.1417  -1.1414  -1.1411  -1.0173  -1.0169  -0.8932  -0.8929  -0.7691
    -0.7687  -0.5216  -0.5214  -0.5212  -0.5209  -0.3981  -0.3978  -0.3976
    -0.3973  -0.2738  -0.1510  -0.1507  -0.1505  -0.1501  -0.0272  -0.0269
     0.0961   0.0964   0.2190   0.2193   0.2196   0.3420   0.3423   0.3425
     0.3428   0.4640   0.4644   0.5870   0.5880   0.5882   0.5885   0.7096
     0.7099   0.7107   0.7110   0.7112   0.7115   0.8323   0.8326   0.8334
     0.8337   0.9562   1.0775   1.0785   1.0787   1.1996   1.1999   1.2015
     1.3229   1.3231   1.3237   1.4411   1.4415   1.4440   1.4443   1.4453
     1.4456   1.5633   1.6850   1.6853   1.6880   1.6882   1.8068   1.8071
     1.8115   1.9315   1.9317   1.9329   2.0502   2.0538   2.0542   2.0544
     2.1715   2.1717   2.1744   2.1748   2.2958   2.2961   2.4065   2.4141
     2.4142   2.5273   2.5276   2.5380   2.5384   2.5386   2.5388   2.6562
     2.6565   2.7691   2.7693   2.7800   2.8976   2.8979   2.8997   2.9000
     2.9007   2.9010   3.0211   3.0215   3.1308   3.1311   3.1391   3.1394
     3.2511   3.2514   3.2532   3.2593   3.2595   3.2608   3.2611   3.3719
     3.3721   3.4912   3.4913   3.4982   3.4986   3.5864   3.6105   3.6108
     3.6116   3.6119   3.7059   3.7061   3.7311   3.7314   3.8463   3.8465
     3.8493   3.8596   3.8599   3.8602   3.9447   3.9450   3.9689   3.9690
     3.9776   3.9779   4.0120   4.0866   4.1325   4.1327   4.2034   4.2036
     4.2098   4.2101   4.3022   4.3025   4.3137   4.3141   4.3707   4.3710
     4.4207   4.4209   4.6111   4.6112   4.6563   4.6566   4.7202   4.7204
     4.7771   4.7774   4.7966   4.7968   4.8417   4.8747   4.8748   4.8938
     4.8940   4.9222   4.9223   4.9562   4.9612   4.9615   4.9916   4.9986
     5.0753   5.0756   5.0888   5.0889   5.1085   5.1087   5.1168   5.1171
     5.2251   5.2254   5.3672   5.3673   5.4226   5.4229   5.4353   5.4580
     5.5248   5.5251   5.5534   5.5747   5.5750   5.6600   5.6601   5.6696
     5.6698   5.7346   5.7350   5.7942   5.8026   5.8029   5.9057   5.9060
     5.9822   6.0206   6.0362   6.0364   6.0608   6.0610   6.1001   6.1002
     6.1317   6.1319   6.1330   6.1331   6.2665   6.2976   6.2977   6.3821
     6.4859   6.4862   6.4993   6.4994   6.5031   6.5032   6.5705   6.5706
     6.6441   6.6444   6.6770   6.6774   6.8051   6.8054   6.8263   6.8267
     6.8409   6.8411   6.8693   6.8697   6.8857   6.8860   6.9586   6.9594
     6.9596   7.0308   7.0310   7.0682   7.0684   7.0781   7.0782   7.1870
     7.1873   7.2054   7.2055   7.2093   7.2094   7.2185   7.2188   7.2711
     7.2714   7.2766   7.2769   7.3276   7.3318   7.3322   7.4245   7.4247
     7.4406   7.4464   7.4467   7.5500   7.5503   7.5668   7.5671   7.6261
     7.6264   7.6851   7.6853   7.8842   7.8843   7.8972   7.8975   7.9133
     7.9174   7.9177   7.9394   7.9396   7.9996   7.9998   8.0974   8.0976
     8.1027   8.1030   8.1105   8.1371   8.1374   8.1475   8.1999   8.2003
     8.2259   8.2261   8.2563   8.2564   8.2682   8.3332   8.3335   8.3796
     8.3799   8.3843   8.3844   8.4067   8.4067   8.4528   8.4529   8.4673
     8.4859   8.4862   8.5581   8.5583   8.6506   8.6509   8.6846   8.6847
     8.7471   8.7474   8.9136   8.9139   8.9393   8.9399   8.9400   8.9671
     8.9673   8.9924   8.9925   9.0292   9.0295   9.0760   9.1394   9.1395
     9.1893   9.1894   9.2155   9.2155   9.2218   9.2221   9.2327   9.2330
     9.2784   9.2785   9.3011   9.3014   9.4234

          k =-0.3536 0.3536 0.0000 (143240 PWs)   bands (ev):

    -3.0652  -2.8135  -2.8135  -2.5623  -2.5621  -2.3116  -2.3114  -2.3113
    -2.3111  -2.0612  -2.0610  -2.0608  -1.8110  -1.8110  -1.5620  -1.5615
    -1.5615  -1.5614  -1.5614  -1.5610  -1.3127  -1.3124  -1.3123  -1.3121
    -1.0640  -1.0637  -1.0637  -1.0633  -0.8159  -0.8156  -0.8156  -0.8155
    -0.8154  -0.8150  -0.5679  -0.5677  -0.5676  -0.5674  -0.3206  -0.3205
    -0.3203  -0.3202  -0.0743  -0.0739  -0.0735  -0.0732  -0.0732  -0.0731
    -0.0727   0.1721   0.1726   0.1726   0.1727   0.1731   0.1732   0.1734
     0.1738   0.4186   0.4188   0.6640   0.6644   0.6645   0.6645   0.6649
     0.6650   0.6651   0.6654   0.9080   0.9080   0.9094   0.9097   0.9098
     0.9099   0.9107   0.9109   1.1551   1.1552   1.1555   1.1556   1.3970
     1.3971   1.3974   1.3974   1.3987   1.3990   1.3991   1.3991   1.3992
     1.3997   1.6430   1.6431   1.6431   1.6432   1.8800   1.8804   1.8848
     1.8848   2.1228   2.1232   2.1232   2.1235   2.1294   2.1295   2.1297
     2.1298   2.1304   2.1305   2.3657   2.3658   2.3704   2.3705   2.3707
     2.3708   2.3722   2.3723   2.3723   2.3725   2.6077   2.6079   2.6079
     2.6080   2.6140   2.6141   2.6143   2.6144   2.8493   2.8496   2.8497
     2.8499   2.8539   2.8539   2.8543   2.8543   2.8559   3.0772   3.0772
     3.0966   3.0966   3.3306   3.3308   3.3309   3.3309   3.3317   3.3320
     3.4735   3.4735   3.5575   3.5576   3.5578   3.5579   3.5710   3.5712
     3.5713   3.5715   3.7026   3.7026   3.7069   3.7069   3.8157   3.8158
     3.8161   3.8161   3.9478   3.9478   4.0353   4.0353   4.0504   4.0505
     4.0507   4.0508   4.1728   4.1729   4.1731   4.1731   4.2218   4.2219
     4.4057   4.4057   4.4329   4.4331   4.4332   4.4334   4.4586   4.4587
     4.4588   4.4589   4.5125   4.5125   4.5127   4.5128   4.6732   4.6732
     4.6952   4.6956   4.7650   4.7652   4.8690   4.8692   4.8693   4.8695
     4.9303   4.9306   4.9307   4.9310   5.0335   5.0335   5.1449   5.1451
     5.1451   5.1452   5.1461   5.1667   5.1667   5.1668   5.1669   5.2700
     5.2701   5.2701   5.2702   5.5023   5.5025   5.5026   5.5027   5.5500
     5.5501   5.5504   5.5505   5.6081   5.6084   5.6372   5.6374   5.7394
     5.7395   5.7395   5.7396   5.7812   5.7814   5.7815   5.7817   5.8158
     5.8160   5.8162   5.8163   5.9587   5.9587   6.0402   6.0404   6.0405
     6.0406   6.0708   6.2106   6.2107   6.2108   6.2109   6.2346   6.2346
     6.4298   6.4299   6.4301   6.4302   6.4601   6.4601   6.4833   6.5336
     6.5339   6.5966   6.5967   6.5967   6.5968   6.5972   6.6952   6.6952
     6.8305   6.8307   6.8309   6.8310   6.9070   6.9070   6.9247   6.9248
     6.9249   6.9250   6.9570   6.9573   6.9968   6.9972   7.0083   7.0086
     7.1578   7.1579   7.1581   7.1582   7.2948   7.2951   7.2952   7.2954
     7.3748   7.3749   7.3749   7.3751   7.3980   7.3982   7.5698   7.6202
     7.6202   7.6303   7.6304   7.6304   7.6305   7.7167   7.7168   7.7171
     7.7172   7.7695   7.7696   7.7696   7.7697   7.8637   7.8639   7.9162
     7.9162   7.9165   7.9165   7.9241   7.9244   7.9248   7.9853   7.9857
     8.0020   8.0022   8.0023   8.0025   8.2582   8.2583   8.2583   8.2584
     8.2973   8.2974   8.2975   8.2976   8.3884   8.3887   8.4411   8.4411
     8.4412   8.4412   8.4635   8.4636   8.4639   8.4639   8.4749   8.4751
     8.5708   8.5709   8.5710   8.5711   8.6601   8.6605   8.7850   8.7850
     8.7976   8.7976   8.8686   8.8687   8.8687   8.8687   8.9605   8.9607
     8.9846   8.9846   9.0794   9.0795   9.0797   9.0799   9.0870   9.0873
     9.0873   9.0876   9.1729   9.1730   9.1732   9.1733   9.2413   9.2413
     9.2415   9.2417   9.2419   9.2421   9.3172

          k = 0.0000 0.0000-0.7071 (143292 PWs)   bands (ev):

    -2.9393  -2.9393  -2.6881  -2.6878  -2.6878  -2.6875  -1.9366  -1.9360
    -1.9360  -1.9359  -1.9359  -1.9359  -1.9359  -1.9352  -1.6867  -1.6863
    -1.6862  -1.6862  -1.6862  -1.6862  -1.6861  -1.6857  -0.9404  -0.9397
    -0.9397  -0.9396  -0.9395  -0.9395  -0.9395  -0.9394  -0.9393  -0.9386
    -0.6925  -0.6918  -0.6916  -0.6916  -0.6916  -0.6916  -0.6915  -0.6908
     0.0494   0.0497   0.0499   0.0499   0.0499   0.0499   0.0502   0.0505
     0.2949   0.2961   0.2961   0.2963   0.2963   0.2963   0.2963   0.2963
     0.2963   0.2963   0.2963   0.2964   0.2964   0.2965   0.2966   0.2977
     1.0296   1.0304   1.0305   1.0305   1.0305   1.0305   1.0305   1.0310
     1.0326   1.0328   1.0329   1.0330   1.0331   1.0331   1.0333   1.0338
     1.2747   1.2748   1.2751   1.2751   1.2751   1.2751   1.2754   1.2754
     1.2771   1.2771   1.2775   1.2777   2.0053   2.0058   2.0064   2.0064
     2.0064   2.0064   2.0064   2.0064   2.0064   2.0065   2.0065   2.0065
     2.0065   2.0065   2.0071   2.0076   2.2511   2.2513   2.2514   2.2515
     2.2516   2.2517   2.2518   2.2521   2.9568   2.9568   2.9748   2.9751
     2.9753   2.9753   2.9753   2.9753   2.9756   2.9758   3.1970   3.1973
     3.1975   3.1975   3.1975   3.1976   3.1978   3.1980   3.2148   3.2149
     3.2156   3.2156   3.2157   3.2157   3.2157   3.2157   3.2157   3.2157
     3.2157   3.2157   3.2158   3.2159   3.2165   3.2166   3.8232   3.8233
     3.8234   3.8235   3.8235   3.8236   3.8236   3.8238   3.9165   3.9167
     3.9170   3.9170   3.9170   3.9170   3.9173   3.9175   4.0696   4.0696
     4.0697   4.0698   4.0698   4.0699   4.0701   4.0701   4.1540   4.1544
     4.1546   4.1547   4.1548   4.1548   4.1548   4.1548   4.1548   4.1548
     4.1548   4.1549   4.1549   4.1551   4.1552   4.1557   4.7528   4.7529
     4.7529   4.7530   4.7531   4.7533   4.7533   4.7534   5.0269   5.0271
     5.0272   5.0273   5.0273   5.0274   5.0275   5.0276   5.1054   5.1056
     5.1058   5.1058   5.1059   5.1059   5.1062   5.1063   5.1509   5.1511
     5.1511   5.1512   5.1515   5.1515   5.1516   5.1517   5.2616   5.2616
     5.2616   5.2616   5.4923   5.4926   5.4927   5.4930   6.0760   6.0764
     6.0767   6.0767   6.0768   6.0768   6.0768   6.0768   6.0769   6.0769
     6.0769   6.0769   6.0770   6.0770   6.0773   6.0777   6.1858   6.1865
     6.1865   6.1865   6.1865   6.1865   6.1865   6.1872   6.6045   6.6045
     6.6045   6.6045   6.7052   6.7053   6.7057   6.7057   6.7057   6.7057
     6.7061   6.7062   6.8112   6.8114   6.8114   6.8115   6.8116   6.8117
     6.8117   6.8118   6.8357   6.8360   6.8360   6.8364   7.0111   7.0113
     7.0114   7.0116   7.0117   7.0117   7.0117   7.0117   7.0118   7.0118
     7.0118   7.0118   7.0119   7.0121   7.0122   7.0124   7.1129   7.1129
     7.1129   7.1129   7.3437   7.3446   7.3447   7.3447   7.3447   7.3447
     7.3448   7.3456   7.6812   7.6815   7.6816   7.6816   7.6816   7.6816
     7.6817   7.6821   7.7228   7.7235   7.7235   7.7235   7.7238   7.7238
     7.7238   7.7238   7.7238   7.7238   7.7238   7.7239   7.7242   7.7242
     7.7242   7.7248   8.0398   8.0402   8.0404   8.0404   8.0404   8.0404
     8.0406   8.0409   8.1284   8.1284   8.7971   8.7976   8.7979   8.7979
     8.7979   8.7979   8.7981   8.7986   8.8718   8.8718   8.8991   8.8993
     8.8994   8.8995   8.8997   8.8998   8.8998   8.8998   8.8998   8.8998
     8.8998   8.8998   8.9001   8.9002   8.9003   8.9004   8.9064   8.9065
     8.9065   8.9066   8.9685   8.9691   8.9691   8.9691   8.9691   8.9692
     8.9692   8.9698   9.0822   9.0822   9.0981   9.0983   9.0984   9.0984
     9.0985   9.0985   9.0988   9.2004   9.2008

          k = 0.0000-0.3536-0.7071 (143120 PWs)   bands (ev):

    -2.8765  -2.8764  -2.8764  -2.8762  -2.3744  -2.3740  -2.3740  -2.3736
    -1.8737  -1.8735  -1.8735  -1.8734  -1.8734  -1.8734  -1.8734  -1.8732
    -1.3758  -1.3747  -1.3747  -1.3746  -1.3746  -1.3746  -1.3746  -1.3746
    -1.3746  -1.3745  -1.3745  -1.3734  -0.8777  -0.8776  -0.8776  -0.8775
    -0.3832  -0.3822  -0.3822  -0.3822  -0.3821  -0.3821  -0.3821  -0.3820
    -0.3820  -0.3819  -0.3819  -0.3809   0.1101   0.1110   0.1110   0.1111
     0.1115   0.1115   0.1115   0.1116   0.1116   0.1116   0.1116   0.1123
     0.6028   0.6034   0.6034   0.6036   0.6037   0.6037   0.6037   0.6037
     0.6038   0.6040   0.6040   0.6046   1.0910   1.0916   1.0916   1.0917
     1.0917   1.0917   1.0917   1.0917   1.0931   1.0934   1.0934   1.0934
     1.0935   1.0936   1.0936   1.0944   1.5798   1.5802   1.5802   1.5803
     1.5803   1.5804   1.5804   1.5806   1.5825   1.5828   1.5828   1.5829
     1.5830   1.5831   1.5831   1.5836   2.0623   2.0625   2.0625   2.0626
     2.0687   2.0689   2.0689   2.0691   2.5519   2.5522   2.5522   2.5523
     2.5523   2.5524   2.5524   2.5527   3.0170   3.0170   3.0170   3.0171
     3.0301   3.0304   3.0304   3.0305   3.0305   3.0305   3.0305   3.0306
     3.0338   3.0341   3.0341   3.0343   3.0344   3.0345   3.0345   3.0345
     3.0355   3.0355   3.0355   3.0355   3.0356   3.0357   3.0357   3.0362
     3.4977   3.4978   3.4978   3.4979   3.5126   3.5128   3.5128   3.5129
     3.5131   3.5131   3.5131   3.5133   3.9765   3.9765   3.9765   3.9766
     3.9766   3.9766   3.9766   3.9767   3.9912   3.9913   3.9913   3.9914
     3.9914   3.9915   3.9915   3.9915   3.9915   3.9916   3.9916   3.9918
     4.3995   4.3996   4.3996   4.3996   4.4481   4.4482   4.4482   4.4483
     4.4484   4.4484   4.4484   4.4486   4.4537   4.4539   4.4539   4.4540
     4.4972   4.4972   4.4972   4.4974   4.4976   4.4978   4.4978   4.4978
     4.9706   4.9706   4.9706   4.9706   4.9707   4.9708   4.9708   4.9708
     5.3193   5.3193   5.3193   5.3193   5.3394   5.3395   5.3395   5.3396
     5.3396   5.3397   5.3397   5.3398   5.4295   5.4295   5.4296   5.4297
     5.4298   5.4299   5.4300   5.4300   5.7816   5.7816   5.7816   5.7817
     5.8671   5.8671   5.8671   5.8671   5.9176   5.9176   5.9176   5.9176
     5.9176   5.9176   5.9176   5.9176   5.9242   5.9242   5.9243   5.9243
     5.9246   5.9246   5.9247   5.9247   6.2778   6.2780   6.2780   6.2781
     6.6634   6.6635   6.6635   6.6636   6.7074   6.7074   6.7074   6.7074
     6.8234   6.8234   6.8235   6.8235   6.8236   6.8236   6.8237   6.8237
     6.8433   6.8433   6.8434   6.8434   6.8436   6.8436   6.8437   6.8437
     7.0769   7.0771   7.0771   7.0774   7.1708   7.1708   7.1708   7.1709
     7.2413   7.2414   7.2414   7.2415   7.2415   7.2415   7.2415   7.2417
     7.3095   7.3095   7.3096   7.3097   7.3099   7.3100   7.3101   7.3101
     7.5741   7.5743   7.5743   7.5745   7.6344   7.6345   7.6345   7.6346
     7.8070   7.8070   7.8071   7.8071   7.8073   7.8073   7.8074   7.8074
     7.8799   7.8800   7.8800   7.8801   8.0985   8.0985   8.0985   8.0985
     8.1617   8.1620   8.1620   8.1620   8.1620   8.1621   8.1621   8.1623
     8.1718   8.1718   8.1718   8.1719   8.2538   8.2538   8.2538   8.2540
     8.2542   8.2543   8.2544   8.2544   8.5205   8.5205   8.5205   8.5206
     8.5624   8.5625   8.5625   8.5626   8.5765   8.5768   8.5768   8.5768
     8.5769   8.5769   8.5769   8.5772   8.7123   8.7123   8.7123   8.7123
     8.7125   8.7125   8.7125   8.7126   8.9289   8.9290   8.9290   8.9290
     9.1192   9.1193   9.1193   9.1194   9.3701   9.3702   9.3702   9.3703
     9.4700   9.4702   9.4702   9.4704   9.6596

     the Fermi energy is     7.9774 ev

!    total energy              =   -8532.40086031 Ry
     total all-electron energy =     -8532.400860 Ry
     estimated scf accuracy    <          5.4E-17 Ry
     smearing contrib. (-TS)   =      -0.01702996 Ry
     internal energy E=F+TS    =   -8532.38383034 Ry

     The total energy is F=E-TS. E is the sum of the following terms:
     one-electron contribution =     683.07671775 Ry
     hartree contribution      =       1.77623927 Ry
     xc contribution           =    -454.45723424 Ry
     ewald contribution        =   -1168.09676280 Ry
     one-center paw contrib.   =   -7594.68279032 Ry

     convergence has been achieved in  54 iterations

     negative rho (up, down):  1.496E-01 0.000E+00

     Forces acting on atoms (cartesian axes, Ry/au):

     atom    1 type  1   force =     0.00000000   -0.00180750    0.00000000
     atom    2 type  1   force =    -0.00025914    0.00024481    0.00000000
     atom    3 type  1   force =    -0.00001101    0.00000869    0.00000000
     atom    4 type  1   force =     0.00000505   -0.00000539    0.00000000
     atom    5 type  1   force =    -0.00000862    0.00000631    0.00000000
     atom    6 type  1   force =    -0.00025330    0.00024118    0.00000000
     atom    7 type  1   force =    -0.00000000    0.00024481    0.00025914
     atom    8 type  1   force =     0.00000667   -0.00001026   -0.00000667
     atom    9 type  1   force =    -0.00000204    0.00000097    0.00000059
     atom   10 type  1   force =    -0.00000083   -0.00000093   -0.00000191
     atom   11 type  1   force =     0.00000668   -0.00000241    0.00000286
     atom   12 type  1   force =    -0.00000196   -0.00004387   -0.00000196
     atom   13 type  1   force =    -0.00000000    0.00000869    0.00001101
     atom   14 type  1   force =    -0.00000059    0.00000097    0.00000204
     atom   15 type  1   force =     0.00000029    0.00000293   -0.00000029
     atom   16 type  1   force =    -0.00000182   -0.00000123    0.00000052
     atom   17 type  1   force =     0.00000120   -0.00000020    0.00000120
     atom   18 type  1   force =    -0.00000158   -0.00000118   -0.00000787
     atom   19 type  1   force =     0.00000000   -0.00000539   -0.00000505
     atom   20 type  1   force =     0.00000191   -0.00000093    0.00000083
     atom   21 type  1   force =    -0.00000052   -0.00000123    0.00000182
     atom   22 type  1   force =    -0.00000000    0.00000166   -0.00000000
     atom   23 type  1   force =     0.00000192   -0.00000368    0.00000183
     atom   24 type  1   force =    -0.00000052    0.00000152    0.00000081
     atom   25 type  1   force =     0.00000000    0.00000631    0.00000862
     atom   26 type  1   force =    -0.00000286   -0.00000241   -0.00000668
     atom   27 type  1   force =    -0.00000120   -0.00000020   -0.00000120
     atom   28 type  1   force =    -0.00000183   -0.00000368   -0.00000192
     atom   29 type  1   force =    -0.00000093    0.00000171    0.00000093
     atom   30 type  1   force =    -0.00000306    0.00000102   -0.00000041
     atom   31 type  1   force =     0.00000000    0.00024118    0.00025330
     atom   32 type  1   force =     0.00000196   -0.00004387    0.00000196
     atom   33 type  1   force =     0.00000787   -0.00000118    0.00000158
     atom   34 type  1   force =    -0.00000081    0.00000152    0.00000052
     atom   35 type  1   force =     0.00000041    0.00000102    0.00000306
     atom   36 type  1   force =     0.00000788   -0.00000928   -0.00000788
     atom   37 type  1   force =     0.00000196   -0.00004387   -0.00000196
     atom   38 type  1   force =     0.00000787   -0.00000118   -0.00000158
     atom   39 type  1   force =    -0.00000081    0.00000152   -0.00000052
     atom   40 type  1   force =     0.00000041    0.00000102   -0.00000306
     atom   41 type  1   force =     0.00000788   -0.00000928    0.00000788
     atom   42 type  1   force =    -0.00000000    0.00024118   -0.00025330
     atom   43 type  1   force =     0.00000158   -0.00000118   -0.00000787
     atom   44 type  1   force =     0.00000514   -0.00000412   -0.00000514
     atom   45 type  1   force =    -0.00000084   -0.00000145   -0.00000246
     atom   46 type  1   force =     0.00000389   -0.00000288    0.00000389
     atom   47 type  1   force =     0.00000286   -0.00000241    0.00000668
     atom   48 type  1   force =     0.00000000   -0.00000098   -0.00000253
     atom   49 type  1   force =     0.00000052    0.00000152    0.00000081
     atom   50 type  1   force =     0.00000246   -0.00000145    0.00000084
     atom   51 type  1   force =     0.00000000    0.00000909    0.00000000
     atom   52 type  1   force =     0.00000052   -0.00000123   -0.00000182
     atom   53 type  1   force =     0.00000245   -0.00000021   -0.00000001
     atom   54 type  1   force =    -0.00000000    0.00000392   -0.00000172
     atom   55 type  1   force =     0.00000306    0.00000102   -0.00000041
     atom   56 type  1   force =    -0.00000389   -0.00000288   -0.00000389
     atom   57 type  1   force =     0.00000182   -0.00000123   -0.00000052
     atom   58 type  1   force =     0.00000123    0.00000100   -0.00000123
     atom   59 type  1   force =    -0.00000005    0.00000183   -0.00000023
     atom   60 type  1   force =    -0.00000000    0.00000021   -0.00000198
     atom   61 type  1   force =    -0.00000788   -0.00000928   -0.00000788
     atom   62 type  1   force =    -0.00000668   -0.00000241   -0.00000286
     atom   63 type  1   force =     0.00000001   -0.00000021   -0.00000245
     atom   64 type  1   force =     0.00000023    0.00000183    0.00000005
     atom   65 type  1   force =     0.00000145   -0.00000524   -0.00000145
     atom   66 type  1   force =     0.00000000    0.00000684   -0.00000415
     atom   67 type  1   force =     0.00025330    0.00024118    0.00000000
     atom   68 type  1   force =     0.00000253   -0.00000098    0.00000000
     atom   69 type  1   force =     0.00000172    0.00000392    0.00000000
     atom   70 type  1   force =     0.00000198    0.00000021    0.00000000
     atom   71 type  1   force =     0.00000415    0.00000684   -0.00000000
     atom   72 type  1   force =    -0.00000000    0.00004939   -0.00000000
     atom   73 type  1   force =    -0.00000120   -0.00000020    0.00000120
     atom   74 type  1   force =    -0.00000183   -0.00000368    0.00000192
     atom   75 type  1   force =    -0.00000093    0.00000171   -0.00000093
     atom   76 type  1   force =    -0.00000306    0.00000102    0.00000041
     atom   77 type  1   force =    -0.00000000    0.00000631   -0.00000862
     atom   78 type  1   force =    -0.00000286   -0.00000241    0.00000668
     atom   79 type  1   force =    -0.00000192   -0.00000368    0.00000183
     atom   80 type  1   force =     0.00000000    0.00000415    0.00000000
     atom   81 type  1   force =    -0.00000246   -0.00000145   -0.00000084
     atom   82 type  1   force =    -0.00000191   -0.00000093   -0.00000083
     atom   83 type  1   force =     0.00000000   -0.00000092    0.00000168
     atom   84 type  1   force =    -0.00000245   -0.00000021   -0.00000001
     atom   85 type  1   force =     0.00000093    0.00000171    0.00000093
     atom   86 type  1   force =     0.00000084   -0.00000145    0.00000246
     atom   87 type  1   force =    -0.00000029    0.00000293    0.00000029
     atom   88 type  1   force =     0.00000128    0.00000060    0.00000145
     atom   89 type  1   force =    -0.00000000   -0.00000173    0.00000246
     atom   90 type  1   force =     0.00000005    0.00000183   -0.00000023
     atom   91 type  1   force =    -0.00000041    0.00000102    0.00000306
     atom   92 type  1   force =     0.00000083   -0.00000093    0.00000191
     atom   93 type  1   force =    -0.00000145    0.00000060   -0.00000128
     atom   94 type  1   force =    -0.00000122   -0.00000078    0.00000122
     atom   95 type  1   force =    -0.00000000   -0.00000335    0.00000207
     atom   96 type  1   force =    -0.00000145   -0.00000524   -0.00000145
     atom   97 type  1   force =     0.00000862    0.00000631   -0.00000000
     atom   98 type  1   force =    -0.00000168   -0.00000092    0.00000000
     atom   99 type  1   force =    -0.00000246   -0.00000173    0.00000000
     atom  100 type  1   force =    -0.00000207   -0.00000335    0.00000000
     atom  101 type  1   force =     0.00000000   -0.00000133    0.00000000
     atom  102 type  1   force =    -0.00000415    0.00000684    0.00000000
     atom  103 type  1   force =    -0.00000668   -0.00000241    0.00000286
     atom  104 type  1   force =     0.00000001   -0.00000021    0.00000245
     atom  105 type  1   force =     0.00000023    0.00000183   -0.00000005
     atom  106 type  1   force =     0.00000145   -0.00000524    0.00000145
     atom  107 type  1   force =     0.00000000    0.00000684    0.00000415
     atom  108 type  1   force =    -0.00000788   -0.00000928    0.00000788
     atom  109 type  1   force =     0.00000000    0.00000166    0.00000000
     atom  110 type  1   force =     0.00000192   -0.00000368   -0.00000183
     atom  111 type  1   force =    -0.00000052    0.00000152   -0.00000081
     atom  112 type  1   force =     0.00000000   -0.00000539    0.00000505
     atom  113 type  1   force =     0.00000191   -0.00000093   -0.00000083
     atom  114 type  1   force =    -0.00000052   -0.00000123   -0.00000182
     atom  115 type  1   force =     0.00000183   -0.00000368   -0.00000192
     atom  116 type  1   force =    -0.00000514   -0.00000412    0.00000514
     atom  117 type  1   force =     0.00000059    0.00000097   -0.00000204
     atom  118 type  1   force =     0.00000000   -0.00000224   -0.00000043
     atom  119 type  1   force =    -0.00000128    0.00000060    0.00000145
     atom  120 type  1   force =    -0.00000123    0.00000100   -0.00000123
     atom  121 type  1   force =     0.00000081    0.00000152    0.00000052
     atom  122 type  1   force =     0.00000204    0.00000097   -0.00000059
     atom  123 type  1   force =    -0.00000024   -0.00000395    0.00000024
     atom  124 type  1   force =     0.00000000   -0.00000089    0.00000037
     atom  125 type  1   force =     0.00000122   -0.00000078    0.00000122
     atom  126 type  1   force =    -0.00000023    0.00000183    0.00000005
     atom  127 type  1   force =    -0.00000505   -0.00000539    0.00000000
     atom  128 type  1   force =     0.00000043   -0.00000224    0.00000000
     atom  129 type  1   force =    -0.00000037   -0.00000089   -0.00000000
     atom  130 type  1   force =     0.00000000    0.00000833    0.00000000
     atom  131 type  1   force =     0.00000207   -0.00000335    0.00000000
     atom  132 type  1   force =    -0.00000198    0.00000021    0.00000000
     atom  133 type  1   force =     0.00000083   -0.00000093   -0.00000191
     atom  134 type  1   force =    -0.00000145    0.00000060    0.00000128
     atom  135 type  1   force =    -0.00000122   -0.00000078   -0.00000122
     atom  136 type  1   force =     0.00000000   -0.00000335   -0.00000207
     atom  137 type  1   force =    -0.00000145   -0.00000524    0.00000145
     atom  138 type  1   force =    -0.00000041    0.00000102   -0.00000306
     atom  139 type  1   force =     0.00000182   -0.00000123    0.00000052
     atom  140 type  1   force =     0.00000123    0.00000100    0.00000123
     atom  141 type  1   force =    -0.00000005    0.00000183    0.00000023
     atom  142 type  1   force =     0.00000000    0.00000021    0.00000198
     atom  143 type  1   force =     0.00000306    0.00000102    0.00000041
     atom  144 type  1   force =    -0.00000389   -0.00000288    0.00000389
     atom  145 type  1   force =     0.00000120   -0.00000020   -0.00000120
     atom  146 type  1   force =    -0.00000158   -0.00000118    0.00000787
     atom  147 type  1   force =     0.00000000    0.00000869   -0.00001101
     atom  148 type  1   force =    -0.00000059    0.00000097   -0.00000204
     atom  149 type  1   force =     0.00000029    0.00000293    0.00000029
     atom  150 type  1   force =    -0.00000182   -0.00000123   -0.00000052
     atom  151 type  1   force =    -0.00000787   -0.00000118    0.00000158
     atom  152 type  1   force =    -0.00000667   -0.00001026    0.00000667
     atom  153 type  1   force =    -0.00000000    0.00000702   -0.00000076
     atom  154 type  1   force =     0.00000024   -0.00000395    0.00000024
     atom  155 type  1   force =     0.00000145    0.00000060   -0.00000128
     atom  156 type  1   force =    -0.00000001   -0.00000021   -0.00000245
     atom  157 type  1   force =     0.00001101    0.00000869    0.00000000
     atom  158 type  1   force =     0.00000076    0.00000702   -0.00000000
     atom  159 type  1   force =     0.00000000    0.00000358    0.00000000
     atom  160 type  1   force =     0.00000037   -0.00000089    0.00000000
     atom  161 type  1   force =     0.00000246   -0.00000173   -0.00000000
     atom  162 type  1   force =    -0.00000172    0.00000392    0.00000000
     atom  163 type  1   force =     0.00000204    0.00000097    0.00000059
     atom  164 type  1   force =    -0.00000024   -0.00000395   -0.00000024
     atom  165 type  1   force =    -0.00000000   -0.00000089   -0.00000037
     atom  166 type  1   force =     0.00000122   -0.00000078   -0.00000122
     atom  167 type  1   force =    -0.00000023    0.00000183   -0.00000005
     atom  168 type  1   force =     0.00000081    0.00000152   -0.00000052
     atom  169 type  1   force =    -0.00000029    0.00000293   -0.00000029
     atom  170 type  1   force =     0.00000128    0.00000060   -0.00000145
     atom  171 type  1   force =     0.00000000   -0.00000173   -0.00000246
     atom  172 type  1   force =     0.00000005    0.00000183    0.00000023
     atom  173 type  1   force =     0.00000093    0.00000171   -0.00000093
     atom  174 type  1   force =     0.00000084   -0.00000145   -0.00000246
     atom  175 type  1   force =     0.00000052   -0.00000123    0.00000182
     atom  176 type  1   force =     0.00000245   -0.00000021    0.00000001
     atom  177 type  1   force =     0.00000000    0.00000392    0.00000172
     atom  178 type  1   force =     0.00000052    0.00000152   -0.00000081
     atom  179 type  1   force =     0.00000246   -0.00000145   -0.00000084
     atom  180 type  1   force =     0.00000000    0.00000909    0.00000000
     atom  181 type  1   force =    -0.00000196   -0.00004387    0.00000196
     atom  182 type  1   force =     0.00000000    0.00024481   -0.00025914
     atom  183 type  1   force =     0.00000667   -0.00001026    0.00000667
     atom  184 type  1   force =    -0.00000204    0.00000097   -0.00000059
     atom  185 type  1   force =    -0.00000083   -0.00000093    0.00000191
     atom  186 type  1   force =     0.00000668   -0.00000241   -0.00000286
     atom  187 type  1   force =     0.00025914    0.00024481    0.00000000
     atom  188 type  1   force =     0.00000000    0.00004479    0.00000000
     atom  189 type  1   force =    -0.00000076    0.00000702   -0.00000000
     atom  190 type  1   force =    -0.00000043   -0.00000224    0.00000000
     atom  191 type  1   force =     0.00000168   -0.00000092   -0.00000000
     atom  192 type  1   force =    -0.00000253   -0.00000098    0.00000000
     atom  193 type  1   force =    -0.00000667   -0.00001026   -0.00000667
     atom  194 type  1   force =     0.00000000    0.00000702    0.00000076
     atom  195 type  1   force =     0.00000024   -0.00000395   -0.00000024
     atom  196 type  1   force =     0.00000145    0.00000060    0.00000128
     atom  197 type  1   force =    -0.00000001   -0.00000021    0.00000245
     atom  198 type  1   force =    -0.00000787   -0.00000118   -0.00000158
     atom  199 type  1   force =     0.00000059    0.00000097    0.00000204
     atom  200 type  1   force =     0.00000000   -0.00000224    0.00000043
     atom  201 type  1   force =    -0.00000128    0.00000060   -0.00000145
     atom  202 type  1   force =    -0.00000123    0.00000100    0.00000123
     atom  203 type  1   force =     0.00000183   -0.00000368    0.00000192
     atom  204 type  1   force =    -0.00000514   -0.00000412   -0.00000514
     atom  205 type  1   force =    -0.00000191   -0.00000093    0.00000083
     atom  206 type  1   force =     0.00000000   -0.00000092   -0.00000168
     atom  207 type  1   force =    -0.00000245   -0.00000021    0.00000001
     atom  208 type  1   force =    -0.00000192   -0.00000368   -0.00000183
     atom  209 type  1   force =     0.00000000    0.00000415    0.00000000
     atom  210 type  1   force =    -0.00000246   -0.00000145    0.00000084
     atom  211 type  1   force =     0.00000286   -0.00000241   -0.00000668
     atom  212 type  1   force =     0.00000000   -0.00000098    0.00000253
     atom  213 type  1   force =     0.00000158   -0.00000118    0.00000787
     atom  214 type  1   force =     0.00000514   -0.00000412    0.00000514
     atom  215 type  1   force =    -0.00000084   -0.00000145    0.00000246
     atom  216 type  1   force =     0.00000389   -0.00000288   -0.00000389

     Total force =     0.002070     Total SCF correction =     0.000000

     Writing all to output data dir ./scratch_runs/atom01_y_plus/al.save/ :
     XML data file, charge density, pseudopotentials, collected wavefunctions
 
     init_run     :    267.01s CPU    273.68s WALL (       1 calls)
     electrons    :   8307.43s CPU   8524.79s WALL (       1 calls)
     forces       :     40.66s CPU     41.31s WALL (       1 calls)

     Called by init_run:
     wfcinit      :    265.39s CPU    271.63s WALL (       1 calls)
     potinit      :      1.13s CPU      1.39s WALL (       1 calls)
     hinit0       :      0.08s CPU      0.10s WALL (       1 calls)

     Called by electrons:
     c_bands      :   7197.32s CPU   7392.33s WALL (      55 calls)
     sum_band     :   1044.11s CPU   1058.46s WALL (      55 calls)
     v_of_rho     :      4.89s CPU      4.95s WALL (      55 calls)
     newd         :      7.23s CPU     15.27s WALL (      55 calls)
     PAW_pot      :     53.28s CPU     53.55s WALL (      55 calls)
     mix_rho      :      1.63s CPU      1.64s WALL (      55 calls)

     Called by c_bands:
     init_us_2    :    170.55s CPU    170.78s WALL (    1456 calls)
     cegterg      :   6955.18s CPU   7149.97s WALL (     715 calls)

     Called by *egterg:
     cdiaghg      :    338.49s CPU    344.91s WALL (    2445 calls)
     h_psi        :   3987.35s CPU   4046.63s WALL (    2471 calls)
     s_psi        :   1112.73s CPU   1113.25s WALL (    2471 calls)
     g_psi        :     12.54s CPU     12.57s WALL (    1743 calls)

     Called by h_psi:
     h_psi:calbec :   1129.09s CPU   1129.55s WALL (    2471 calls)
     vloc_psi     :   1729.76s CPU   1754.21s WALL (    2471 calls)
     add_vuspsi   :   1113.54s CPU   1114.16s WALL (    2471 calls)

     General routines
     calbec       :   1639.48s CPU   1640.22s WALL (    3238 calls)
     fft          :      1.95s CPU      2.02s WALL (     617 calls)
     ffts         :      0.18s CPU      0.19s WALL (      55 calls)
     fftw         :   1586.50s CPU   1613.34s WALL ( 1572703 calls)
 
     Parallel routines
 
     PWSCF        :      2h23m CPU      2h27m WALL

 
   This run was terminated on:  22:53:16  16Jun2026            

=------------------------------------------------------------------------------=
   JOB DONE.
=------------------------------------------------------------------------------=

===== TIMING =====
Job:           atom01_y_plus
Start:         2026-06-16T20:25:41+02:00
End:           2026-06-16T22:53:16+02:00
Duration (s):  8855
Duration (H:M:S): 02:27:35
==================
