
     Program PWSCF v.7.4 starts on  7Apr2026 at 12:36:48 

     This program is part of the open-source Quantum ESPRESSO suite
     for quantum simulation of materials; please cite
         "P. Giannozzi et al., J. Phys.:Condens. Matter 21 395502 (2009);
         "P. Giannozzi et al., J. Phys.:Condens. Matter 29 465901 (2017);
         "P. Giannozzi et al., J. Chem. Phys. 152 154105 (2020);
          URL http://www.quantum-espresso.org", 
     in publications or presentations arising from this work. More details at
     http://www.quantum-espresso.org/quote

     Parallel version (MPI), running on    12 processors

     MPI processes distributed on     1 nodes
     10140 MiB available memory on the printing compute node when the environment starts
 
     Reading input from ./scratch_runs/atom01_z_plus/atom01_z_plus.in

     Current dimensions of program PWSCF are:
     Max number of different atomic species (ntypx) = 10
     Max number of k-points (npk) =  40000
     Max angular momentum in pseudopotentials (lmaxx) =  4
read_pp_mesh; mismatch in mesh size, discarding the one in header
     Message from routine set_cutoff:
     ecutrho < 4*ecutwfc, are you sure?
     Message from routine setup:
     using ibrav=0 with symmetry is DISCOURAGED, use correct ibrav instead
 
     R & G space division:  proc/nbgrp/npool/nimage =      12
     Subspace diagonalization in iterative solution of the eigenvalue problem:
     one sub-group per band group will be used
     custom distributed-memory algorithm (size of sub-group:  3*  3 procs)

 
     Parallelization info
     --------------------
     sticks:   dense  smooth     PW     G-vecs:    dense   smooth      PW
     Min         481     481    237                24119    24119    8363
     Max         482     482    239                24120    24120    8365
     Sum        5773    5773   2857               289437   289437  100373
 
     Using Slab Decomposition
 


     bravais-lattice index     =            0
     lattice parameter (alat)  =      32.3728  a.u.
     unit-cell volume          =   23989.6975 (a.u.)^3
     number of atoms/cell      =          216
     number of atomic types    =            1
     number of electrons       =       648.00
     number of Kohn-Sham states=          389
     kinetic-energy cutoff     =      38.0000  Ry
     charge density cutoff     =      80.0000  Ry
     scf convergence threshold =      1.0E-16
     mixing beta               =       0.7000
     number of iterations used =            8  plain     mixing
     Exchange-correlation= SLA PW PBX PBC
                           (   1   4   3   4   0   0   0)

     celldm(1)=  32.372775  celldm(2)=   0.000000  celldm(3)=   0.000000
     celldm(4)=   0.000000  celldm(5)=   0.000000  celldm(6)=   0.000000

     crystal axes: (cart. coord. in units of alat)
               a(1) = (  -0.707107   0.000000   0.707107 )  
               a(2) = (   0.000000   0.707107   0.707107 )  
               a(3) = (  -0.707107   0.707107   0.000000 )  

     reciprocal axes: (cart. coord. in units 2 pi/alat)
               b(1) = ( -0.707107 -0.707107  0.707107 )  
               b(2) = (  0.707107  0.707107  0.707107 )  
               b(3) = ( -0.707107  0.707107 -0.707107 )  


     PseudoPot. # 1 for Al read from file:
     ./Al.upf
     MD5 check sum: fd3ab6bbf4b2322b308692f0f9c61a66
     Pseudo is Projector augmented-wave + core cor, Zval =  3.0
     Generated using ATOMPAW code
     Shape of augmentation charge: SINC**2
     Using radial grid of 2342 points,  4 beta functions with: 
                l(1) =   0
                l(2) =   0
                l(3) =   1
                l(4) =   1
     Q(r) pseudized with 0 coefficients 


     atomic species   valence    mass     pseudopotential
     Al                3.00    26.98150     Al( 1.00)

      8 Sym. Ops. (no inversion) found



   Cartesian axes

     site n.     atom                  positions (alat units)
         1        Al     tau(   1) = (   0.0000000   0.0000000   0.0005837  )
         2        Al     tau(   2) = (  -0.1178514   0.1178514   0.0000000  )
         3        Al     tau(   3) = (  -0.2357020   0.2357020   0.0000000  )
         4        Al     tau(   4) = (  -0.3535534   0.3535534   0.0000000  )
         5        Al     tau(   5) = (  -0.4714048   0.4714048   0.0000000  )
         6        Al     tau(   6) = (  -0.5892554   0.5892554   0.0000000  )
         7        Al     tau(   7) = (   0.0000000   0.1178514   0.1178514  )
         8        Al     tau(   8) = (  -0.1178514   0.2357027   0.1178514  )
         9        Al     tau(   9) = (  -0.2357020   0.3535534   0.1178514  )
        10        Al     tau(  10) = (  -0.3535534   0.4714048   0.1178514  )
        11        Al     tau(  11) = (  -0.4714048   0.5892561   0.1178514  )
        12        Al     tau(  12) = (  -0.5892554   0.7071068   0.1178514  )
        13        Al     tau(  13) = (   0.0000000   0.2357020   0.2357020  )
        14        Al     tau(  14) = (  -0.1178514   0.3535534   0.2357020  )
        15        Al     tau(  15) = (  -0.2357020   0.4714041   0.2357020  )
        16        Al     tau(  16) = (  -0.3535534   0.5892554   0.2357020  )
        17        Al     tau(  17) = (  -0.4714048   0.7071068   0.2357020  )
        18        Al     tau(  18) = (  -0.5892554   0.8249574   0.2357020  )
        19        Al     tau(  19) = (   0.0000000   0.3535534   0.3535534  )
        20        Al     tau(  20) = (  -0.1178514   0.4714048   0.3535534  )
        21        Al     tau(  21) = (  -0.2357020   0.5892554   0.3535534  )
        22        Al     tau(  22) = (  -0.3535534   0.7071068   0.3535534  )
        23        Al     tau(  23) = (  -0.4714048   0.8249581   0.3535534  )
        24        Al     tau(  24) = (  -0.5892554   0.9428088   0.3535534  )
        25        Al     tau(  25) = (   0.0000000   0.4714048   0.4714048  )
        26        Al     tau(  26) = (  -0.1178514   0.5892561   0.4714048  )
        27        Al     tau(  27) = (  -0.2357020   0.7071068   0.4714048  )
        28        Al     tau(  28) = (  -0.3535534   0.8249581   0.4714048  )
        29        Al     tau(  29) = (  -0.4714048   0.9428095   0.4714048  )
        30        Al     tau(  30) = (  -0.5892554   1.0606602   0.4714048  )
        31        Al     tau(  31) = (   0.0000000   0.5892554   0.5892554  )
        32        Al     tau(  32) = (  -0.1178514   0.7071068   0.5892554  )
        33        Al     tau(  33) = (  -0.2357020   0.8249574   0.5892554  )
        34        Al     tau(  34) = (  -0.3535534   0.9428088   0.5892554  )
        35        Al     tau(  35) = (  -0.4714048   1.0606602   0.5892554  )
        36        Al     tau(  36) = (  -0.5892554   1.1785108   0.5892554  )
        37        Al     tau(  37) = (  -0.1178514   0.0000000   0.1178514  )
        38        Al     tau(  38) = (  -0.2357027   0.1178514   0.1178514  )
        39        Al     tau(  39) = (  -0.3535534   0.2357020   0.1178514  )
        40        Al     tau(  40) = (  -0.4714048   0.3535534   0.1178514  )
        41        Al     tau(  41) = (  -0.5892561   0.4714048   0.1178514  )
        42        Al     tau(  42) = (  -0.7071068   0.5892554   0.1178514  )
        43        Al     tau(  43) = (  -0.1178514   0.1178514   0.2357027  )
        44        Al     tau(  44) = (  -0.2357027   0.2357027   0.2357027  )
        45        Al     tau(  45) = (  -0.3535534   0.3535534   0.2357027  )
        46        Al     tau(  46) = (  -0.4714048   0.4714048   0.2357027  )
        47        Al     tau(  47) = (  -0.5892561   0.5892561   0.2357027  )
        48        Al     tau(  48) = (  -0.7071068   0.7071068   0.2357027  )
        49        Al     tau(  49) = (  -0.1178514   0.2357020   0.3535534  )
        50        Al     tau(  50) = (  -0.2357027   0.3535534   0.3535534  )
        51        Al     tau(  51) = (  -0.3535534   0.4714041   0.3535534  )
        52        Al     tau(  52) = (  -0.4714048   0.5892554   0.3535534  )
        53        Al     tau(  53) = (  -0.5892561   0.7071068   0.3535534  )
        54        Al     tau(  54) = (  -0.7071068   0.8249574   0.3535534  )
        55        Al     tau(  55) = (  -0.1178514   0.3535534   0.4714048  )
        56        Al     tau(  56) = (  -0.2357027   0.4714048   0.4714048  )
        57        Al     tau(  57) = (  -0.3535534   0.5892554   0.4714048  )
        58        Al     tau(  58) = (  -0.4714048   0.7071068   0.4714048  )
        59        Al     tau(  59) = (  -0.5892561   0.8249581   0.4714048  )
        60        Al     tau(  60) = (  -0.7071068   0.9428088   0.4714048  )
        61        Al     tau(  61) = (  -0.1178514   0.4714048   0.5892561  )
        62        Al     tau(  62) = (  -0.2357027   0.5892561   0.5892561  )
        63        Al     tau(  63) = (  -0.3535534   0.7071068   0.5892561  )
        64        Al     tau(  64) = (  -0.4714048   0.8249581   0.5892561  )
        65        Al     tau(  65) = (  -0.5892561   0.9428095   0.5892561  )
        66        Al     tau(  66) = (  -0.7071068   1.0606602   0.5892561  )
        67        Al     tau(  67) = (  -0.1178514   0.5892554   0.7071068  )
        68        Al     tau(  68) = (  -0.2357027   0.7071068   0.7071068  )
        69        Al     tau(  69) = (  -0.3535534   0.8249574   0.7071068  )
        70        Al     tau(  70) = (  -0.4714048   0.9428088   0.7071068  )
        71        Al     tau(  71) = (  -0.5892561   1.0606602   0.7071068  )
        72        Al     tau(  72) = (  -0.7071068   1.1785108   0.7071068  )
        73        Al     tau(  73) = (  -0.2357020   0.0000000   0.2357020  )
        74        Al     tau(  74) = (  -0.3535534   0.1178514   0.2357020  )
        75        Al     tau(  75) = (  -0.4714041   0.2357020   0.2357020  )
        76        Al     tau(  76) = (  -0.5892554   0.3535534   0.2357020  )
        77        Al     tau(  77) = (  -0.7071068   0.4714048   0.2357020  )
        78        Al     tau(  78) = (  -0.8249574   0.5892554   0.2357020  )
        79        Al     tau(  79) = (  -0.2357020   0.1178514   0.3535534  )
        80        Al     tau(  80) = (  -0.3535534   0.2357027   0.3535534  )
        81        Al     tau(  81) = (  -0.4714041   0.3535534   0.3535534  )
        82        Al     tau(  82) = (  -0.5892554   0.4714048   0.3535534  )
        83        Al     tau(  83) = (  -0.7071068   0.5892561   0.3535534  )
        84        Al     tau(  84) = (  -0.8249574   0.7071068   0.3535534  )
        85        Al     tau(  85) = (  -0.2357020   0.2357020   0.4714041  )
        86        Al     tau(  86) = (  -0.3535534   0.3535534   0.4714041  )
        87        Al     tau(  87) = (  -0.4714041   0.4714041   0.4714041  )
        88        Al     tau(  88) = (  -0.5892554   0.5892554   0.4714041  )
        89        Al     tau(  89) = (  -0.7071068   0.7071068   0.4714041  )
        90        Al     tau(  90) = (  -0.8249574   0.8249574   0.4714041  )
        91        Al     tau(  91) = (  -0.2357020   0.3535534   0.5892554  )
        92        Al     tau(  92) = (  -0.3535534   0.4714048   0.5892554  )
        93        Al     tau(  93) = (  -0.4714041   0.5892554   0.5892554  )
        94        Al     tau(  94) = (  -0.5892554   0.7071068   0.5892554  )
        95        Al     tau(  95) = (  -0.7071068   0.8249581   0.5892554  )
        96        Al     tau(  96) = (  -0.8249574   0.9428088   0.5892554  )
        97        Al     tau(  97) = (  -0.2357020   0.4714048   0.7071068  )
        98        Al     tau(  98) = (  -0.3535534   0.5892561   0.7071068  )
        99        Al     tau(  99) = (  -0.4714041   0.7071068   0.7071068  )
       100        Al     tau( 100) = (  -0.5892554   0.8249581   0.7071068  )
       101        Al     tau( 101) = (  -0.7071068   0.9428095   0.7071068  )
       102        Al     tau( 102) = (  -0.8249574   1.0606602   0.7071068  )
       103        Al     tau( 103) = (  -0.2357020   0.5892554   0.8249574  )
       104        Al     tau( 104) = (  -0.3535534   0.7071068   0.8249574  )
       105        Al     tau( 105) = (  -0.4714041   0.8249574   0.8249574  )
       106        Al     tau( 106) = (  -0.5892554   0.9428088   0.8249574  )
       107        Al     tau( 107) = (  -0.7071068   1.0606602   0.8249574  )
       108        Al     tau( 108) = (  -0.8249574   1.1785108   0.8249574  )
       109        Al     tau( 109) = (  -0.3535534   0.0000000   0.3535534  )
       110        Al     tau( 110) = (  -0.4714048   0.1178514   0.3535534  )
       111        Al     tau( 111) = (  -0.5892554   0.2357020   0.3535534  )
       112        Al     tau( 112) = (  -0.7071068   0.3535534   0.3535534  )
       113        Al     tau( 113) = (  -0.8249581   0.4714048   0.3535534  )
       114        Al     tau( 114) = (  -0.9428088   0.5892554   0.3535534  )
       115        Al     tau( 115) = (  -0.3535534   0.1178514   0.4714048  )
       116        Al     tau( 116) = (  -0.4714048   0.2357027   0.4714048  )
       117        Al     tau( 117) = (  -0.5892554   0.3535534   0.4714048  )
       118        Al     tau( 118) = (  -0.7071068   0.4714048   0.4714048  )
       119        Al     tau( 119) = (  -0.8249581   0.5892561   0.4714048  )
       120        Al     tau( 120) = (  -0.9428088   0.7071068   0.4714048  )
       121        Al     tau( 121) = (  -0.3535534   0.2357020   0.5892554  )
       122        Al     tau( 122) = (  -0.4714048   0.3535534   0.5892554  )
       123        Al     tau( 123) = (  -0.5892554   0.4714041   0.5892554  )
       124        Al     tau( 124) = (  -0.7071068   0.5892554   0.5892554  )
       125        Al     tau( 125) = (  -0.8249581   0.7071068   0.5892554  )
       126        Al     tau( 126) = (  -0.9428088   0.8249574   0.5892554  )
       127        Al     tau( 127) = (  -0.3535534   0.3535534   0.7071068  )
       128        Al     tau( 128) = (  -0.4714048   0.4714048   0.7071068  )
       129        Al     tau( 129) = (  -0.5892554   0.5892554   0.7071068  )
       130        Al     tau( 130) = (  -0.7071068   0.7071068   0.7071068  )
       131        Al     tau( 131) = (  -0.8249581   0.8249581   0.7071068  )
       132        Al     tau( 132) = (  -0.9428088   0.9428088   0.7071068  )
       133        Al     tau( 133) = (  -0.3535534   0.4714048   0.8249581  )
       134        Al     tau( 134) = (  -0.4714048   0.5892561   0.8249581  )
       135        Al     tau( 135) = (  -0.5892554   0.7071068   0.8249581  )
       136        Al     tau( 136) = (  -0.7071068   0.8249581   0.8249581  )
       137        Al     tau( 137) = (  -0.8249581   0.9428095   0.8249581  )
       138        Al     tau( 138) = (  -0.9428088   1.0606602   0.8249581  )
       139        Al     tau( 139) = (  -0.3535534   0.5892554   0.9428088  )
       140        Al     tau( 140) = (  -0.4714048   0.7071068   0.9428088  )
       141        Al     tau( 141) = (  -0.5892554   0.8249574   0.9428088  )
       142        Al     tau( 142) = (  -0.7071068   0.9428088   0.9428088  )
       143        Al     tau( 143) = (  -0.8249581   1.0606602   0.9428088  )
       144        Al     tau( 144) = (  -0.9428088   1.1785108   0.9428088  )
       145        Al     tau( 145) = (  -0.4714048   0.0000000   0.4714048  )
       146        Al     tau( 146) = (  -0.5892561   0.1178514   0.4714048  )
       147        Al     tau( 147) = (  -0.7071068   0.2357020   0.4714048  )
       148        Al     tau( 148) = (  -0.8249581   0.3535534   0.4714048  )
       149        Al     tau( 149) = (  -0.9428095   0.4714048   0.4714048  )
       150        Al     tau( 150) = (  -1.0606602   0.5892554   0.4714048  )
       151        Al     tau( 151) = (  -0.4714048   0.1178514   0.5892561  )
       152        Al     tau( 152) = (  -0.5892561   0.2357027   0.5892561  )
       153        Al     tau( 153) = (  -0.7071068   0.3535534   0.5892561  )
       154        Al     tau( 154) = (  -0.8249581   0.4714048   0.5892561  )
       155        Al     tau( 155) = (  -0.9428095   0.5892561   0.5892561  )
       156        Al     tau( 156) = (  -1.0606602   0.7071068   0.5892561  )
       157        Al     tau( 157) = (  -0.4714048   0.2357020   0.7071068  )
       158        Al     tau( 158) = (  -0.5892561   0.3535534   0.7071068  )
       159        Al     tau( 159) = (  -0.7071068   0.4714041   0.7071068  )
       160        Al     tau( 160) = (  -0.8249581   0.5892554   0.7071068  )
       161        Al     tau( 161) = (  -0.9428095   0.7071068   0.7071068  )
       162        Al     tau( 162) = (  -1.0606602   0.8249574   0.7071068  )
       163        Al     tau( 163) = (  -0.4714048   0.3535534   0.8249581  )
       164        Al     tau( 164) = (  -0.5892561   0.4714048   0.8249581  )
       165        Al     tau( 165) = (  -0.7071068   0.5892554   0.8249581  )
       166        Al     tau( 166) = (  -0.8249581   0.7071068   0.8249581  )
       167        Al     tau( 167) = (  -0.9428095   0.8249581   0.8249581  )
       168        Al     tau( 168) = (  -1.0606602   0.9428088   0.8249581  )
       169        Al     tau( 169) = (  -0.4714048   0.4714048   0.9428095  )
       170        Al     tau( 170) = (  -0.5892561   0.5892561   0.9428095  )
       171        Al     tau( 171) = (  -0.7071068   0.7071068   0.9428095  )
       172        Al     tau( 172) = (  -0.8249581   0.8249581   0.9428095  )
       173        Al     tau( 173) = (  -0.9428095   0.9428095   0.9428095  )
       174        Al     tau( 174) = (  -1.0606602   1.0606602   0.9428095  )
       175        Al     tau( 175) = (  -0.4714048   0.5892554   1.0606602  )
       176        Al     tau( 176) = (  -0.5892561   0.7071068   1.0606602  )
       177        Al     tau( 177) = (  -0.7071068   0.8249574   1.0606602  )
       178        Al     tau( 178) = (  -0.8249581   0.9428088   1.0606602  )
       179        Al     tau( 179) = (  -0.9428095   1.0606602   1.0606602  )
       180        Al     tau( 180) = (  -1.0606602   1.1785108   1.0606602  )
       181        Al     tau( 181) = (  -0.5892554   0.0000000   0.5892554  )
       182        Al     tau( 182) = (  -0.7071068   0.1178514   0.5892554  )
       183        Al     tau( 183) = (  -0.8249574   0.2357020   0.5892554  )
       184        Al     tau( 184) = (  -0.9428088   0.3535534   0.5892554  )
       185        Al     tau( 185) = (  -1.0606602   0.4714048   0.5892554  )
       186        Al     tau( 186) = (  -1.1785108   0.5892554   0.5892554  )
       187        Al     tau( 187) = (  -0.5892554   0.1178514   0.7071068  )
       188        Al     tau( 188) = (  -0.7071068   0.2357027   0.7071068  )
       189        Al     tau( 189) = (  -0.8249574   0.3535534   0.7071068  )
       190        Al     tau( 190) = (  -0.9428088   0.4714048   0.7071068  )
       191        Al     tau( 191) = (  -1.0606602   0.5892561   0.7071068  )
       192        Al     tau( 192) = (  -1.1785108   0.7071068   0.7071068  )
       193        Al     tau( 193) = (  -0.5892554   0.2357020   0.8249574  )
       194        Al     tau( 194) = (  -0.7071068   0.3535534   0.8249574  )
       195        Al     tau( 195) = (  -0.8249574   0.4714041   0.8249574  )
       196        Al     tau( 196) = (  -0.9428088   0.5892554   0.8249574  )
       197        Al     tau( 197) = (  -1.0606602   0.7071068   0.8249574  )
       198        Al     tau( 198) = (  -1.1785108   0.8249574   0.8249574  )
       199        Al     tau( 199) = (  -0.5892554   0.3535534   0.9428088  )
       200        Al     tau( 200) = (  -0.7071068   0.4714048   0.9428088  )
       201        Al     tau( 201) = (  -0.8249574   0.5892554   0.9428088  )
       202        Al     tau( 202) = (  -0.9428088   0.7071068   0.9428088  )
       203        Al     tau( 203) = (  -1.0606602   0.8249581   0.9428088  )
       204        Al     tau( 204) = (  -1.1785108   0.9428088   0.9428088  )
       205        Al     tau( 205) = (  -0.5892554   0.4714048   1.0606602  )
       206        Al     tau( 206) = (  -0.7071068   0.5892561   1.0606602  )
       207        Al     tau( 207) = (  -0.8249574   0.7071068   1.0606602  )
       208        Al     tau( 208) = (  -0.9428088   0.8249581   1.0606602  )
       209        Al     tau( 209) = (  -1.0606602   0.9428095   1.0606602  )
       210        Al     tau( 210) = (  -1.1785108   1.0606602   1.0606602  )
       211        Al     tau( 211) = (  -0.5892554   0.5892554   1.1785108  )
       212        Al     tau( 212) = (  -0.7071068   0.7071068   1.1785108  )
       213        Al     tau( 213) = (  -0.8249574   0.8249574   1.1785108  )
       214        Al     tau( 214) = (  -0.9428088   0.9428088   1.1785108  )
       215        Al     tau( 215) = (  -1.0606602   1.0606602   1.1785108  )
       216        Al     tau( 216) = (  -1.1785108   1.1785108   1.1785108  )

     number of k points=     3  Methfessel-Paxton smearing, width (Ry)=  0.0200
                       cart. coord. in units 2pi/alat
        k(    1) = (  -0.1767767   0.1767767   0.1767767), wk =   0.5000000
        k(    2) = (   0.1767767  -0.1767767   0.5303301), wk =   0.5000000
        k(    3) = (   0.5303301   0.1767767   0.1767767), wk =   1.0000000

     Dense  grid:   289437 G-vectors     FFT dimensions: (  96,  96,  96)

     Estimated max dynamical RAM per process >     706.53 MB

     Estimated total dynamical RAM >       8.28 GB

     Initial potential from superposition of free atoms

     starting charge     647.4594, renormalised to     648.0000

     negative rho (up, down):  1.654E-01 0.000E+00
     Starting wfcs are 1728 randomized atomic wfcs
     Checking if some PAW data can be deallocated... 

     total cpu time spent up to now is       88.7 secs

     per-process dynamical memory:   488.0 Mb

     Self-consistent Calculation

     iteration #  1     ecut=    38.00 Ry     beta= 0.70
     Davidson diagonalization with overlap
     ethr =  1.00E-02,  avg # of iterations =  2.0

     Threshold (ethr) on eigenvalues was too large:
     Diagonalizing with lowered threshold

     Davidson diagonalization with overlap
     ethr =  1.64E-04,  avg # of iterations =  4.7

     negative rho (up, down):  1.856E-01 0.000E+00

     total cpu time spent up to now is      198.9 secs

     total energy              =   -8533.26455600 Ry
     estimated scf accuracy    <       1.08287753 Ry

     iteration #  2     ecut=    38.00 Ry     beta= 0.70
     Davidson diagonalization with overlap
     ethr =  1.67E-04,  avg # of iterations =  1.7

     negative rho (up, down):  1.958E-01 0.000E+00

     total cpu time spent up to now is      239.4 secs

     total energy              =   -8532.52223539 Ry
     estimated scf accuracy    <       0.29811390 Ry

     iteration #  3     ecut=    38.00 Ry     beta= 0.70
     Davidson diagonalization with overlap
     ethr =  4.60E-05,  avg # of iterations = 10.7

     negative rho (up, down):  1.989E-01 0.000E+00

     total cpu time spent up to now is      323.2 secs

     total energy              =   -8530.79195068 Ry
     estimated scf accuracy    <      32.92232506 Ry

     iteration #  4     ecut=    38.00 Ry     beta= 0.70
     Davidson diagonalization with overlap
     ethr =  4.60E-05,  avg # of iterations = 12.0

     negative rho (up, down):  1.970E-01 0.000E+00

     total cpu time spent up to now is      408.8 secs

     total energy              =   -8532.29545743 Ry
     estimated scf accuracy    <       1.14383578 Ry

     iteration #  5     ecut=    38.00 Ry     beta= 0.70
     Davidson diagonalization with overlap
     ethr =  4.60E-05,  avg # of iterations =  4.3

     negative rho (up, down):  1.905E-01 0.000E+00

     total cpu time spent up to now is      459.5 secs

     total energy              =   -8532.37396825 Ry
     estimated scf accuracy    <       0.14665589 Ry

     iteration #  6     ecut=    38.00 Ry     beta= 0.70
     Davidson diagonalization with overlap
     ethr =  2.26E-05,  avg # of iterations =  2.0

     negative rho (up, down):  1.841E-01 0.000E+00

     total cpu time spent up to now is      502.2 secs

     total energy              =   -8532.38115527 Ry
     estimated scf accuracy    <       0.03686120 Ry

     iteration #  7     ecut=    38.00 Ry     beta= 0.70
     Davidson diagonalization with overlap
     ethr =  5.69E-06,  avg # of iterations =  6.0

     negative rho (up, down):  1.780E-01 0.000E+00

     total cpu time spent up to now is      555.1 secs

     total energy              =   -8532.37899196 Ry
     estimated scf accuracy    <       0.10445199 Ry

     iteration #  8     ecut=    38.00 Ry     beta= 0.70
     Davidson diagonalization with overlap
     ethr =  5.69E-06,  avg # of iterations =  2.0

     negative rho (up, down):  1.712E-01 0.000E+00

     total cpu time spent up to now is      600.4 secs

     total energy              =   -8532.38356637 Ry
     estimated scf accuracy    <       0.00842956 Ry

     iteration #  9     ecut=    38.00 Ry     beta= 0.70
     Davidson diagonalization with overlap
     ethr =  1.30E-06,  avg # of iterations =  3.0

     negative rho (up, down):  1.688E-01 0.000E+00

     total cpu time spent up to now is      650.5 secs

     total energy              =   -8532.38393875 Ry
     estimated scf accuracy    <       0.01041987 Ry

     iteration # 10     ecut=    38.00 Ry     beta= 0.70
     Davidson diagonalization with overlap
     ethr =  1.30E-06,  avg # of iterations =  2.0

     negative rho (up, down):  1.685E-01 0.000E+00

     total cpu time spent up to now is      696.8 secs

     total energy              =   -8532.38457810 Ry
     estimated scf accuracy    <       0.00801831 Ry

     iteration # 11     ecut=    38.00 Ry     beta= 0.70
     Davidson diagonalization with overlap
     ethr =  1.24E-06,  avg # of iterations =  2.0

     negative rho (up, down):  1.673E-01 0.000E+00

     total cpu time spent up to now is      739.2 secs

     total energy              =   -8532.38520618 Ry
     estimated scf accuracy    <       0.00043445 Ry

     iteration # 12     ecut=    38.00 Ry     beta= 0.70
     Davidson diagonalization with overlap
     ethr =  6.70E-08,  avg # of iterations =  2.0

     negative rho (up, down):  1.670E-01 0.000E+00

     total cpu time spent up to now is      787.8 secs

     total energy              =   -8532.38527918 Ry
     estimated scf accuracy    <       0.00004355 Ry

     iteration # 13     ecut=    38.00 Ry     beta= 0.70
     Davidson diagonalization with overlap
     ethr =  6.72E-09,  avg # of iterations =  4.3

     negative rho (up, down):  1.667E-01 0.000E+00

     total cpu time spent up to now is      843.7 secs

     total energy              =   -8532.38527698 Ry
     estimated scf accuracy    <       0.00015340 Ry

     iteration # 14     ecut=    38.00 Ry     beta= 0.70
     Davidson diagonalization with overlap
     ethr =  6.72E-09,  avg # of iterations =  3.0

     negative rho (up, down):  1.662E-01 0.000E+00

     total cpu time spent up to now is      893.5 secs

     total energy              =   -8532.38528174 Ry
     estimated scf accuracy    <       0.00017369 Ry

     iteration # 15     ecut=    38.00 Ry     beta= 0.70
     Davidson diagonalization with overlap
     ethr =  6.72E-09,  avg # of iterations =  2.7

     negative rho (up, down):  1.663E-01 0.000E+00

     total cpu time spent up to now is      940.9 secs

     total energy              =   -8532.38528895 Ry
     estimated scf accuracy    <       0.00003993 Ry

     iteration # 16     ecut=    38.00 Ry     beta= 0.70
     Davidson diagonalization with overlap
     ethr =  6.16E-09,  avg # of iterations =  2.3

     negative rho (up, down):  1.662E-01 0.000E+00

     total cpu time spent up to now is      985.8 secs

     total energy              =   -8532.38529065 Ry
     estimated scf accuracy    <       0.00002807 Ry

     iteration # 17     ecut=    38.00 Ry     beta= 0.70
     Davidson diagonalization with overlap
     ethr =  4.33E-09,  avg # of iterations =  2.0

     negative rho (up, down):  1.660E-01 0.000E+00

     total cpu time spent up to now is     1028.1 secs

     total energy              =   -8532.38529227 Ry
     estimated scf accuracy    <       0.00000156 Ry

     iteration # 18     ecut=    38.00 Ry     beta= 0.70
     Davidson diagonalization with overlap
     ethr =  2.40E-10,  avg # of iterations =  3.0

     negative rho (up, down):  1.660E-01 0.000E+00

     total cpu time spent up to now is     1078.8 secs

     total energy              =   -8532.38529241 Ry
     estimated scf accuracy    <       0.00000172 Ry

     iteration # 19     ecut=    38.00 Ry     beta= 0.70
     Davidson diagonalization with overlap
     ethr =  2.40E-10,  avg # of iterations =  2.3

     negative rho (up, down):  1.659E-01 0.000E+00

     total cpu time spent up to now is     1125.6 secs

     total energy              =   -8532.38529248 Ry
     estimated scf accuracy    <       0.00000179 Ry

     iteration # 20     ecut=    38.00 Ry     beta= 0.70
     Davidson diagonalization with overlap
     ethr =  2.40E-10,  avg # of iterations =  2.7

     negative rho (up, down):  1.659E-01 0.000E+00

     total cpu time spent up to now is     1173.2 secs

     total energy              =   -8532.38529241 Ry
     estimated scf accuracy    <       0.00000339 Ry

     iteration # 21     ecut=    38.00 Ry     beta= 0.70
     Davidson diagonalization with overlap
     ethr =  2.40E-10,  avg # of iterations =  2.3

     negative rho (up, down):  1.659E-01 0.000E+00

     total cpu time spent up to now is     1216.6 secs

     total energy              =   -8532.38529259 Ry
     estimated scf accuracy    <       0.00000013 Ry

     iteration # 22     ecut=    38.00 Ry     beta= 0.70
     Davidson diagonalization with overlap
     ethr =  2.01E-11,  avg # of iterations =  3.3

     negative rho (up, down):  1.659E-01 0.000E+00

     total cpu time spent up to now is     1249.1 secs

     total energy              =   -8532.38529259 Ry
     estimated scf accuracy    <       0.00000021 Ry

     iteration # 23     ecut=    38.00 Ry     beta= 0.70
     Davidson diagonalization with overlap
     ethr =  2.01E-11,  avg # of iterations =  2.7

     negative rho (up, down):  1.659E-01 0.000E+00

     total cpu time spent up to now is     1279.2 secs

     total energy              =   -8532.38529260 Ry
     estimated scf accuracy    <       0.00000017 Ry

     iteration # 24     ecut=    38.00 Ry     beta= 0.70
     Davidson diagonalization with overlap
     ethr =  2.01E-11,  avg # of iterations =  2.3

     negative rho (up, down):  1.659E-01 0.000E+00

     total cpu time spent up to now is     1306.3 secs

     total energy              =   -8532.38529261 Ry
     estimated scf accuracy    <       0.00000002 Ry

     iteration # 25     ecut=    38.00 Ry     beta= 0.70
     Davidson diagonalization with overlap
     ethr =  2.53E-12,  avg # of iterations =  4.0

     negative rho (up, down):  1.659E-01 0.000E+00

     total cpu time spent up to now is     1338.7 secs

     total energy              =   -8532.38529260 Ry
     estimated scf accuracy    <       0.00000018 Ry

     iteration # 26     ecut=    38.00 Ry     beta= 0.70
     Davidson diagonalization with overlap
     ethr =  2.53E-12,  avg # of iterations =  4.7

     negative rho (up, down):  1.659E-01 0.000E+00

     total cpu time spent up to now is     1373.2 secs

     total energy              =   -8532.38529259 Ry
     estimated scf accuracy    <       0.00000048 Ry

     iteration # 27     ecut=    38.00 Ry     beta= 0.70
     Davidson diagonalization with overlap
     ethr =  2.53E-12,  avg # of iterations =  7.7

     negative rho (up, down):  1.659E-01 0.000E+00

     total cpu time spent up to now is     1410.0 secs

     total energy              =   -8532.38529261 Ry
     estimated scf accuracy    <          5.8E-09 Ry

     iteration # 28     ecut=    38.00 Ry     beta= 0.70
     Davidson diagonalization with overlap
     ethr =  8.92E-13,  avg # of iterations =  2.0

     negative rho (up, down):  1.659E-01 0.000E+00

     total cpu time spent up to now is     1437.2 secs

     total energy              =   -8532.38529261 Ry
     estimated scf accuracy    <          1.0E-09 Ry

     iteration # 29     ecut=    38.00 Ry     beta= 0.70
     Davidson diagonalization with overlap
     ethr =  1.60E-13,  avg # of iterations =  2.0

     negative rho (up, down):  1.659E-01 0.000E+00

     total cpu time spent up to now is     1465.6 secs

     total energy              =   -8532.38529261 Ry
     estimated scf accuracy    <          4.6E-10 Ry

     iteration # 30     ecut=    38.00 Ry     beta= 0.70
     Davidson diagonalization with overlap
     ethr =  1.00E-13,  avg # of iterations =  3.0

     negative rho (up, down):  1.659E-01 0.000E+00

     total cpu time spent up to now is     1495.6 secs

     total energy              =   -8532.38529261 Ry
     estimated scf accuracy    <          1.6E-09 Ry

     iteration # 31     ecut=    38.00 Ry     beta= 0.70
     Davidson diagonalization with overlap
     ethr =  1.00E-13,  avg # of iterations =  2.0

     negative rho (up, down):  1.659E-01 0.000E+00

     total cpu time spent up to now is     1523.6 secs

     total energy              =   -8532.38529261 Ry
     estimated scf accuracy    <          2.1E-10 Ry

     iteration # 32     ecut=    38.00 Ry     beta= 0.70
     Davidson diagonalization with overlap
     ethr =  1.00E-13,  avg # of iterations =  1.0

     negative rho (up, down):  1.659E-01 0.000E+00

     total cpu time spent up to now is     1546.2 secs

     total energy              =   -8532.38529261 Ry
     estimated scf accuracy    <          4.0E-11 Ry

     iteration # 33     ecut=    38.00 Ry     beta= 0.70
     Davidson diagonalization with overlap
     ethr =  1.00E-13,  avg # of iterations =  1.0

     negative rho (up, down):  1.659E-01 0.000E+00

     total cpu time spent up to now is     1568.8 secs

     total energy              =   -8532.38529261 Ry
     estimated scf accuracy    <          1.4E-11 Ry

     iteration # 34     ecut=    38.00 Ry     beta= 0.70
     Davidson diagonalization with overlap
     ethr =  1.00E-13,  avg # of iterations =  1.0

     negative rho (up, down):  1.659E-01 0.000E+00

     total cpu time spent up to now is     1591.5 secs

     total energy              =   -8532.38529261 Ry
     estimated scf accuracy    <          2.7E-11 Ry

     iteration # 35     ecut=    38.00 Ry     beta= 0.70
     Davidson diagonalization with overlap
     ethr =  1.00E-13,  avg # of iterations =  1.0

     negative rho (up, down):  1.659E-01 0.000E+00

     total cpu time spent up to now is     1614.1 secs

     total energy              =   -8532.38529261 Ry
     estimated scf accuracy    <          3.3E-11 Ry

     iteration # 36     ecut=    38.00 Ry     beta= 0.70
     Davidson diagonalization with overlap
     ethr =  1.00E-13,  avg # of iterations =  1.0

     negative rho (up, down):  1.659E-01 0.000E+00

     total cpu time spent up to now is     1636.8 secs

     total energy              =   -8532.38529261 Ry
     estimated scf accuracy    <          1.4E-10 Ry

     iteration # 37     ecut=    38.00 Ry     beta= 0.70
     Davidson diagonalization with overlap
     ethr =  1.00E-13,  avg # of iterations =  1.0

     negative rho (up, down):  1.659E-01 0.000E+00

     total cpu time spent up to now is     1659.3 secs

     total energy              =   -8532.38529261 Ry
     estimated scf accuracy    <          4.5E-12 Ry

     iteration # 38     ecut=    38.00 Ry     beta= 0.70
     Davidson diagonalization with overlap
     ethr =  1.00E-13,  avg # of iterations =  1.0

     negative rho (up, down):  1.659E-01 0.000E+00

     total cpu time spent up to now is     1682.0 secs

     total energy              =   -8532.38529261 Ry
     estimated scf accuracy    <          6.9E-12 Ry

     iteration # 39     ecut=    38.00 Ry     beta= 0.70
     Davidson diagonalization with overlap
     ethr =  1.00E-13,  avg # of iterations =  1.0

     negative rho (up, down):  1.659E-01 0.000E+00

     total cpu time spent up to now is     1704.9 secs

     total energy              =   -8532.38529261 Ry
     estimated scf accuracy    <          9.6E-13 Ry

     iteration # 40     ecut=    38.00 Ry     beta= 0.70
     Davidson diagonalization with overlap
     ethr =  1.00E-13,  avg # of iterations =  1.0

     negative rho (up, down):  1.659E-01 0.000E+00

     total cpu time spent up to now is     1740.5 secs

     total energy              =   -8532.38529261 Ry
     estimated scf accuracy    <          2.5E-12 Ry

     iteration # 41     ecut=    38.00 Ry     beta= 0.70
     Davidson diagonalization with overlap
     ethr =  1.00E-13,  avg # of iterations =  1.0

     negative rho (up, down):  1.659E-01 0.000E+00

     total cpu time spent up to now is     1777.6 secs

     total energy              =   -8532.38529261 Ry
     estimated scf accuracy    <          9.9E-13 Ry

     iteration # 42     ecut=    38.00 Ry     beta= 0.70
     Davidson diagonalization with overlap
     ethr =  1.00E-13,  avg # of iterations =  1.0

     negative rho (up, down):  1.659E-01 0.000E+00

     total cpu time spent up to now is     1812.4 secs

     total energy              =   -8532.38529261 Ry
     estimated scf accuracy    <          3.1E-13 Ry

     iteration # 43     ecut=    38.00 Ry     beta= 0.70
     Davidson diagonalization with overlap
     ethr =  1.00E-13,  avg # of iterations =  1.0

     negative rho (up, down):  1.659E-01 0.000E+00

     total cpu time spent up to now is     1846.6 secs

     total energy              =   -8532.38529261 Ry
     estimated scf accuracy    <          1.5E-13 Ry

     iteration # 44     ecut=    38.00 Ry     beta= 0.70
     Davidson diagonalization with overlap
     ethr =  1.00E-13,  avg # of iterations =  1.0

     negative rho (up, down):  1.659E-01 0.000E+00

     total cpu time spent up to now is     1880.7 secs

     total energy              =   -8532.38529261 Ry
     estimated scf accuracy    <          7.7E-14 Ry

     iteration # 45     ecut=    38.00 Ry     beta= 0.70
     Davidson diagonalization with overlap
     ethr =  1.00E-13,  avg # of iterations =  1.0

     negative rho (up, down):  1.659E-01 0.000E+00

     total cpu time spent up to now is     1914.6 secs

     total energy              =   -8532.38529261 Ry
     estimated scf accuracy    <          5.6E-14 Ry

     iteration # 46     ecut=    38.00 Ry     beta= 0.70
     Davidson diagonalization with overlap
     ethr =  1.00E-13,  avg # of iterations =  1.0

     negative rho (up, down):  1.659E-01 0.000E+00

     total cpu time spent up to now is     1948.5 secs

     total energy              =   -8532.38529261 Ry
     estimated scf accuracy    <          8.8E-14 Ry

     iteration # 47     ecut=    38.00 Ry     beta= 0.70
     Davidson diagonalization with overlap
     ethr =  1.00E-13,  avg # of iterations =  1.0

     negative rho (up, down):  1.659E-01 0.000E+00

     total cpu time spent up to now is     1982.4 secs

     total energy              =   -8532.38529261 Ry
     estimated scf accuracy    <          1.1E-14 Ry

     iteration # 48     ecut=    38.00 Ry     beta= 0.70
     Davidson diagonalization with overlap
     ethr =  1.00E-13,  avg # of iterations =  1.0

     negative rho (up, down):  1.659E-01 0.000E+00

     total cpu time spent up to now is     2016.3 secs

     total energy              =   -8532.38529261 Ry
     estimated scf accuracy    <          4.3E-15 Ry

     iteration # 49     ecut=    38.00 Ry     beta= 0.70
     Davidson diagonalization with overlap
     ethr =  1.00E-13,  avg # of iterations =  1.0

     negative rho (up, down):  1.659E-01 0.000E+00

     total cpu time spent up to now is     2050.2 secs

     total energy              =   -8532.38529261 Ry
     estimated scf accuracy    <          1.6E-14 Ry

     iteration # 50     ecut=    38.00 Ry     beta= 0.70
     Davidson diagonalization with overlap
     ethr =  1.00E-13,  avg # of iterations =  1.0

     negative rho (up, down):  1.659E-01 0.000E+00

     total cpu time spent up to now is     2084.0 secs

     total energy              =   -8532.38529261 Ry
     estimated scf accuracy    <          7.9E-16 Ry

     iteration # 51     ecut=    38.00 Ry     beta= 0.70
     Davidson diagonalization with overlap
     ethr =  1.00E-13,  avg # of iterations =  1.0

     negative rho (up, down):  1.659E-01 0.000E+00

     total cpu time spent up to now is     2117.9 secs

     total energy              =   -8532.38529261 Ry
     estimated scf accuracy    <          2.3E-16 Ry

     iteration # 52     ecut=    38.00 Ry     beta= 0.70
     Davidson diagonalization with overlap
     ethr =  1.00E-13,  avg # of iterations =  1.0

     negative rho (up, down):  1.659E-01 0.000E+00

     total cpu time spent up to now is     2151.9 secs

     total energy              =   -8532.38529261 Ry
     estimated scf accuracy    <          8.1E-16 Ry

     iteration # 53     ecut=    38.00 Ry     beta= 0.70
     Davidson diagonalization with overlap
     ethr =  1.00E-13,  avg # of iterations =  1.0

     negative rho (up, down):  1.659E-01 0.000E+00

     total cpu time spent up to now is     2171.9 secs

     total energy              =   -8532.38529261 Ry
     estimated scf accuracy    <          4.9E-16 Ry

     iteration # 54     ecut=    38.00 Ry     beta= 0.70
     Davidson diagonalization with overlap
     ethr =  1.00E-13,  avg # of iterations =  1.0

     negative rho (up, down):  1.659E-01 0.000E+00

     total cpu time spent up to now is     2191.6 secs

     total energy              =   -8532.38529261 Ry
     estimated scf accuracy    <          4.8E-16 Ry

     iteration # 55     ecut=    38.00 Ry     beta= 0.70
     Davidson diagonalization with overlap
     ethr =  1.00E-13,  avg # of iterations =  1.0

     negative rho (up, down):  1.659E-01 0.000E+00

     total cpu time spent up to now is     2211.3 secs

     total energy              =   -8532.38529261 Ry
     estimated scf accuracy    <          8.1E-16 Ry

     iteration # 56     ecut=    38.00 Ry     beta= 0.70
     Davidson diagonalization with overlap
     ethr =  1.00E-13,  avg # of iterations =  1.0

     negative rho (up, down):  1.659E-01 0.000E+00

     total cpu time spent up to now is     2231.0 secs

     total energy              =   -8532.38529261 Ry
     estimated scf accuracy    <          3.0E-16 Ry

     iteration # 57     ecut=    38.00 Ry     beta= 0.70
     Davidson diagonalization with overlap
     ethr =  1.00E-13,  avg # of iterations =  1.0

     negative rho (up, down):  1.659E-01 0.000E+00

     total cpu time spent up to now is     2252.6 secs

     End of self-consistent calculation

          k =-0.1768 0.1768 0.1768 ( 94882 PWs)   bands (ev):

    -3.1438  -2.7662  -2.5152  -2.5150  -2.5148  -2.3897  -2.3895  -2.3893
    -2.2644  -2.2642  -2.2640  -2.0139  -1.8891  -1.8889  -1.8887  -1.6394
    -1.6392  -1.6390  -1.1417  -1.1412  -1.1412  -1.1412  -1.1411  -1.1407
    -1.0172  -1.0170  -1.0168  -0.8927  -0.7693  -0.7689  -0.7688  -0.7688
    -0.7687  -0.7683  -0.6450  -0.6448  -0.6446  -0.5213  -0.5211  -0.5208
    -0.3975  -0.3972  -0.3970  -0.2743  -0.2741  -0.2738  -0.0277  -0.0272
    -0.0272  -0.0272  -0.0271  -0.0266   0.0964   0.0967   0.0969   0.2191
     0.2193   0.2196   0.3412   0.3414   0.3417   0.5889   0.7111   0.7113
     0.7116   0.9564   0.9567   0.9569   1.0771   1.0776   1.0777   1.0777
     1.0777   1.0782   1.3192   1.3195   1.3197   1.4451   1.4453   1.4454
     1.4454   1.4456   1.4458   1.5660   1.5662   1.5664   1.5664   1.5665
     1.5668   1.6891   1.6893   1.6895   1.6895   1.6896   1.6898   1.8100
     1.8102   1.8104   2.0500   2.0503   2.0504   2.0504   2.0506   2.0508
     2.1754   2.1756   2.1759   2.2958   2.2961   2.2962   2.2962   2.2964
     2.2966   2.4179   2.4182   2.4183   2.4184   2.5351   2.5355   2.5356
     2.5356   2.5357   2.5361   2.6484   2.6486   2.6489   2.7771   2.7772
     2.7773   2.7794   2.7795   2.7797   2.8897   2.8900   2.8901   2.8901
     2.8903   2.8905   3.1310   3.1311   3.1312   3.1339   3.1340   3.1341
     3.2580   3.2582   3.2584   3.2584   3.2585   3.2588   3.7272   3.7275
     3.7277   3.7421   3.7423   3.7426   3.8256   3.8257   3.8258   3.8921
     3.8922   3.8923   4.0639   4.0642   4.0643   4.0643   4.0645   4.0647
     4.3019   4.3021   4.3024   4.3272   4.3277   4.3278   4.3278   4.3278
     4.3283   4.4934   4.4936   4.4939   4.5515   4.5517   4.5519   4.5519
     4.5520   4.5523   4.6018   4.6929   4.6929   4.6931   4.6931   4.6934
     4.6934   4.7579   4.7580   4.7581   4.9588   4.9589   4.9590   5.0260
     5.0260   5.0263   5.0263   5.0265   5.0265   5.3189   5.3190   5.3191
     5.3191   5.3192   5.3193   5.4321   5.4321   5.4323   5.4323   5.4325
     5.4325   5.4590   5.4592   5.4594   5.4594   5.4596   5.4597   5.4717
     5.4717   5.4719   5.4719   5.4720   5.4720   5.6228   5.6231   5.6234
     5.7613   5.7614   5.7616   5.7616   5.7618   5.7619   5.9063   5.9063
     5.9065   5.9065   5.9066   5.9067   5.9253   5.9254   5.9255   5.9256
     5.9257   5.9258   6.0153   6.0155   6.0157   6.1817   6.1819   6.1822
     6.2279   6.2280   6.2282   6.2282   6.2284   6.2286   6.3758   6.3759
     6.3760   6.4526   6.4531   6.4531   6.4531   6.4532   6.4537   6.6370
     6.6371   6.6373   6.6373   6.6375   6.6377   6.7218   6.7219   6.7220
     6.7256   6.7257   6.7258   6.7258   6.7260   6.7260   6.8497   6.8499
     6.8501   7.0952   7.1028   7.1029   7.1030   7.1604   7.1604   7.1605
     7.4258   7.4260   7.4261   7.4261   7.4262   7.4264   7.4344   7.4345
     7.4346   7.7992   7.7996   7.7997   7.7997   7.7998   7.8002   7.8441
     7.8444   7.8447   7.8657   7.8658   7.8659   7.8659   7.8661   7.8662
     8.0341   8.0342   8.0343   8.1085   8.1087   8.1088   8.1361   8.1362
     8.1364   8.1364   8.1366   8.1367   8.2201   8.2202   8.2202   8.3367
     8.3368   8.3370   8.5112   8.5114   8.5115   8.5115   8.5117   8.5119
     8.5697   8.5699   8.5702   8.6908   8.6910   8.6911   8.6911   8.6912
     8.6914   8.7323   8.7327   8.7328   8.7328   8.7330   8.7334   8.8891
     8.8891   8.8892   8.9687   8.9687   8.9688   8.9831   8.9832   8.9834
     8.9834   8.9836   8.9837   9.1119   9.1121   9.1122   9.1122   9.1123
     9.1125   9.1662   9.1664   9.1666   9.1997   9.1998   9.1999   9.2000
     9.2001   9.2003   9.2194   9.2196   9.2196

          k = 0.1768-0.1768 0.5303 ( 94849 PWs)   bands (ev):

    -3.0178  -2.8919  -2.7662  -2.6405  -2.6405  -2.3895  -2.2642  -2.2642
    -2.1390  -2.0139  -2.0139  -1.8889  -1.8889  -1.7640  -1.7640  -1.6394
    -1.6390  -1.5147  -1.5146  -1.5144  -1.3900  -1.3900  -1.2658  -1.2653
    -1.1413  -1.1412  -1.1411  -1.0169  -1.0169  -0.8929  -0.8929  -0.7687
    -0.7687  -0.5216  -0.5211  -0.5211  -0.5207  -0.3977  -0.3977  -0.3973
    -0.3973  -0.2736  -0.1506  -0.1506  -0.1502  -0.1501  -0.0268  -0.0268
     0.0965   0.0965   0.2192   0.2193   0.2199   0.3423   0.3424   0.3429
     0.3430   0.4644   0.4644   0.5872   0.5883   0.5883   0.5886   0.7099
     0.7100   0.7109   0.7110   0.7116   0.7118   0.8325   0.8326   0.8337
     0.8338   0.9564   1.0776   1.0788   1.0789   1.2000   1.2000   1.2017
     1.3232   1.3233   1.3238   1.4415   1.4415   1.4444   1.4444   1.4456
     1.4457   1.5635   1.6854   1.6854   1.6883   1.6883   1.8072   1.8072
     1.8117   1.9319   1.9319   1.9331   2.0504   2.0541   2.0545   2.0546
     2.1719   2.1719   2.1749   2.1749   2.2962   2.2962   2.4067   2.4144
     2.4144   2.5277   2.5277   2.5384   2.5384   2.5390   2.5391   2.6566
     2.6566   2.7694   2.7694   2.7803   2.8980   2.8980   2.9000   2.9002
     2.9011   2.9013   3.0216   3.0216   3.1313   3.1313   3.1396   3.1396
     3.2515   3.2515   3.2534   3.2597   3.2597   3.2613   3.2613   3.3722
     3.3722   3.4915   3.4915   3.4987   3.4987   3.5867   3.6109   3.6109
     3.6121   3.6121   3.7063   3.7063   3.7316   3.7316   3.8467   3.8467
     3.8496   3.8601   3.8601   3.8606   3.9452   3.9452   3.9693   3.9693
     3.9781   3.9781   4.0124   4.0869   4.1330   4.1331   4.2038   4.2038
     4.2103   4.2103   4.3027   4.3027   4.3142   4.3142   4.3713   4.3713
     4.4212   4.4212   4.6117   4.6117   4.6568   4.6568   4.7208   4.7208
     4.7776   4.7776   4.7971   4.7971   4.8422   4.8750   4.8750   4.8943
     4.8943   4.9227   4.9227   4.9567   4.9619   4.9619   4.9920   4.9990
     5.0759   5.0759   5.0893   5.0893   5.1089   5.1089   5.1173   5.1173
     5.2256   5.2256   5.3677   5.3677   5.4233   5.4233   5.4358   5.4584
     5.5255   5.5255   5.5539   5.5753   5.5753   5.6606   5.6606   5.6702
     5.6702   5.7352   5.7352   5.7948   5.8032   5.8032   5.9064   5.9064
     5.9827   6.0211   6.0368   6.0368   6.0614   6.0614   6.1007   6.1007
     6.1323   6.1324   6.1337   6.1337   6.2672   6.2981   6.2981   6.3827
     6.4867   6.4867   6.5000   6.5000   6.5036   6.5036   6.5712   6.5712
     6.6449   6.6449   6.6778   6.6778   6.8059   6.8059   6.8271   6.8271
     6.8415   6.8415   6.8701   6.8701   6.8865   6.8865   6.9592   6.9602
     6.9602   7.0316   7.0316   7.0690   7.0690   7.0788   7.0788   7.1878
     7.1878   7.2061   7.2061   7.2101   7.2101   7.2193   7.2194   7.2719
     7.2719   7.2775   7.2775   7.3283   7.3327   7.3327   7.4253   7.4253
     7.4414   7.4472   7.4472   7.5509   7.5509   7.5677   7.5677   7.6270
     7.6270   7.6860   7.6860   7.8849   7.8849   7.8981   7.8981   7.9141
     7.9184   7.9184   7.9403   7.9403   8.0004   8.0004   8.0983   8.0983
     8.1036   8.1036   8.1110   8.1381   8.1381   8.1483   8.2009   8.2009
     8.2266   8.2266   8.2572   8.2572   8.2692   8.3341   8.3341   8.3807
     8.3807   8.3853   8.3853   8.4075   8.4075   8.4535   8.4535   8.4681
     8.4868   8.4868   8.5591   8.5591   8.6515   8.6515   8.6855   8.6855
     8.7480   8.7480   8.9146   8.9146   8.9402   8.9408   8.9408   8.9683
     8.9683   8.9932   8.9932   9.0303   9.0303   9.0768   9.1404   9.1404
     9.1903   9.1903   9.2163   9.2163   9.2228   9.2228   9.2338   9.2338
     9.2792   9.2792   9.3023   9.3023   9.3876

          k = 0.5303 0.1768 0.1768 ( 94849 PWs)   bands (ev):

    -3.0178  -2.8919  -2.7662  -2.6407  -2.6404  -2.3895  -2.2644  -2.2641
    -2.1390  -2.0140  -2.0138  -1.8890  -1.8888  -1.7642  -1.7639  -1.6393
    -1.6391  -1.5148  -1.5146  -1.5143  -1.3901  -1.3898  -1.2657  -1.2654
    -1.1415  -1.1412  -1.1409  -1.0171  -1.0168  -0.8930  -0.8927  -0.7689
    -0.7686  -0.5214  -0.5213  -0.5210  -0.5208  -0.3979  -0.3976  -0.3974
    -0.3971  -0.2736  -0.1508  -0.1505  -0.1503  -0.1499  -0.0270  -0.0267
     0.0963   0.0966   0.2192   0.2195   0.2198   0.3422   0.3426   0.3427
     0.3430   0.4642   0.4646   0.5872   0.5882   0.5884   0.5887   0.7098
     0.7101   0.7109   0.7112   0.7114   0.7118   0.8325   0.8328   0.8336
     0.8339   0.9564   1.0777   1.0787   1.0790   1.1999   1.2002   1.2017
     1.3231   1.3233   1.3239   1.4414   1.4417   1.4442   1.4445   1.4455
     1.4459   1.5635   1.6852   1.6856   1.6883   1.6884   1.8070   1.8073
     1.8117   1.9318   1.9319   1.9331   2.0504   2.0541   2.0545   2.0547
     2.1718   2.1719   2.1747   2.1751   2.2961   2.2964   2.4067   2.4144
     2.4145   2.5275   2.5279   2.5383   2.5386   2.5389   2.5391   2.6564
     2.6567   2.7694   2.7695   2.7803   2.8979   2.8982   2.9000   2.9003
     2.9010   2.9013   3.0214   3.0217   3.1311   3.1314   3.1394   3.1398
     3.2514   3.2517   3.2534   3.2596   3.2599   3.2611   3.2614   3.3722
     3.3723   3.4915   3.4916   3.4986   3.4989   3.5867   3.6108   3.6111
     3.6119   3.6122   3.7062   3.7063   3.7314   3.7318   3.8466   3.8468
     3.8496   3.8599   3.8603   3.8606   3.9450   3.9453   3.9692   3.9694
     3.9779   3.9783   4.0124   4.0869   4.1330   4.1331   4.2037   4.2040
     4.2102   4.2105   4.3025   4.3028   4.3140   4.3144   4.3711   4.3714
     4.4211   4.4212   4.6116   4.6117   4.6567   4.6570   4.7207   4.7208
     4.7775   4.7778   4.7970   4.7971   4.8422   4.8750   4.8751   4.8942
     4.8944   4.9226   4.9227   4.9567   4.9617   4.9620   4.9920   4.9990
     5.0758   5.0761   5.0893   5.0894   5.1089   5.1090   5.1171   5.1175
     5.2255   5.2258   5.3676   5.3678   5.4231   5.4234   5.4358   5.4584
     5.5253   5.5256   5.5539   5.5751   5.5754   5.6605   5.6606   5.6701
     5.6703   5.7350   5.7354   5.7948   5.8030   5.8033   5.9062   5.9066
     5.9827   6.0211   6.0367   6.0369   6.0613   6.0616   6.1007   6.1008
     6.1323   6.1325   6.1336   6.1337   6.2672   6.2981   6.2982   6.3827
     6.4865   6.4868   6.4999   6.5000   6.5036   6.5037   6.5711   6.5712
     6.6447   6.6450   6.6776   6.6780   6.8058   6.8061   6.8270   6.8273
     6.8415   6.8416   6.8699   6.8703   6.8863   6.8867   6.9592   6.9601
     6.9602   7.0315   7.0317   7.0689   7.0690   7.0787   7.0788   7.1877
     7.1880   7.2060   7.2061   7.2100   7.2101   7.2192   7.2195   7.2717
     7.2721   7.2773   7.2776   7.3283   7.3325   7.3329   7.4253   7.4254
     7.4414   7.4471   7.4474   7.5507   7.5510   7.5675   7.5678   7.6268
     7.6271   7.6859   7.6861   7.8849   7.8850   7.8979   7.8982   7.9141
     7.9182   7.9185   7.9402   7.9403   8.0003   8.0005   8.0982   8.0984
     8.1034   8.1037   8.1110   8.1379   8.1382   8.1483   8.2007   8.2011
     8.2265   8.2267   8.2571   8.2572   8.2692   8.3339   8.3342   8.3805
     8.3808   8.3852   8.3854   8.4074   8.4075   8.4535   8.4536   8.4681
     8.4867   8.4870   8.5590   8.5592   8.6514   8.6517   8.6855   8.6856
     8.7479   8.7482   8.9144   8.9147   8.9402   8.9407   8.9409   8.9681
     8.9684   8.9931   8.9932   9.0301   9.0304   9.0768   9.1404   9.1405
     9.1903   9.1903   9.2163   9.2163   9.2226   9.2230   9.2336   9.2339
     9.2792   9.2793   9.3021   9.3024   9.3875

     the Fermi energy is     8.0123 ev

!    total energy              =   -8532.38529261 Ry
     total all-electron energy =     -8532.385293 Ry
     estimated scf accuracy    <          4.6E-17 Ry
     smearing contrib. (-TS)   =      -0.01909574 Ry
     internal energy E=F+TS    =   -8532.36619687 Ry

     The total energy is F=E-TS. E is the sum of the following terms:
     one-electron contribution =     683.11234457 Ry
     hartree contribution      =       1.78778740 Ry
     xc contribution           =    -454.46822757 Ry
     ewald contribution        =   -1168.09676354 Ry
     one-center paw contrib.   =   -7594.70133771 Ry

     convergence has been achieved in  57 iterations

     negative rho (up, down):  1.659E-01 0.000E+00

     Forces acting on atoms (cartesian axes, Ry/au):

     atom    1 type  1   force =    -0.00000000   -0.00000000   -0.00181081
     atom    2 type  1   force =     0.00000203   -0.00000203   -0.00004767
     atom    3 type  1   force =    -0.00000124    0.00000124    0.00000011
     atom    4 type  1   force =     0.00000000    0.00000000   -0.00000143
     atom    5 type  1   force =     0.00000124   -0.00000124    0.00000011
     atom    6 type  1   force =    -0.00000203    0.00000203   -0.00004767
     atom    7 type  1   force =     0.00000000    0.00025568    0.00024806
     atom    8 type  1   force =    -0.00000034   -0.00000771   -0.00000161
     atom    9 type  1   force =    -0.00000211    0.00000217   -0.00000206
     atom   10 type  1   force =     0.00000217   -0.00000211   -0.00000206
     atom   11 type  1   force =    -0.00000771   -0.00000034   -0.00000161
     atom   12 type  1   force =     0.00025568    0.00000000    0.00024806
     atom   13 type  1   force =     0.00000000    0.00001130    0.00000960
     atom   14 type  1   force =     0.00000042    0.00000088    0.00000298
     atom   15 type  1   force =     0.00000014    0.00000014    0.00000102
     atom   16 type  1   force =     0.00000088    0.00000042    0.00000298
     atom   17 type  1   force =     0.00001130    0.00000000    0.00000960
     atom   18 type  1   force =    -0.00000646   -0.00000646   -0.00001201
     atom   19 type  1   force =    -0.00000000   -0.00000214   -0.00000754
     atom   20 type  1   force =     0.00000346   -0.00000040    0.00000115
     atom   21 type  1   force =    -0.00000040    0.00000346    0.00000115
     atom   22 type  1   force =    -0.00000214    0.00000000   -0.00000754
     atom   23 type  1   force =     0.00000217    0.00000087    0.00000110
     atom   24 type  1   force =     0.00000087    0.00000217    0.00000110
     atom   25 type  1   force =    -0.00000000    0.00000879    0.00000708
     atom   26 type  1   force =    -0.00000771   -0.00000771   -0.00001096
     atom   27 type  1   force =     0.00000879   -0.00000000    0.00000708
     atom   28 type  1   force =     0.00000089   -0.00000211    0.00000040
     atom   29 type  1   force =    -0.00000115   -0.00000115    0.00000230
     atom   30 type  1   force =    -0.00000211    0.00000089    0.00000040
     atom   31 type  1   force =     0.00000000    0.00025001    0.00024459
     atom   32 type  1   force =     0.00025001   -0.00000000    0.00024459
     atom   33 type  1   force =    -0.00000647    0.00000098   -0.00000289
     atom   34 type  1   force =     0.00000216    0.00000042    0.00000051
     atom   35 type  1   force =     0.00000042    0.00000216    0.00000051
     atom   36 type  1   force =     0.00000098   -0.00000647   -0.00000289
     atom   37 type  1   force =    -0.00025568    0.00000000    0.00024806
     atom   38 type  1   force =     0.00000771    0.00000034   -0.00000161
     atom   39 type  1   force =    -0.00000217    0.00000211   -0.00000206
     atom   40 type  1   force =     0.00000211   -0.00000217   -0.00000206
     atom   41 type  1   force =     0.00000034    0.00000771   -0.00000161
     atom   42 type  1   force =     0.00000000   -0.00025568    0.00024806
     atom   43 type  1   force =     0.00000646   -0.00000646   -0.00001201
     atom   44 type  1   force =     0.00000352   -0.00000352   -0.00000357
     atom   45 type  1   force =    -0.00000000   -0.00000000    0.00000235
     atom   46 type  1   force =    -0.00000352    0.00000352   -0.00000357
     atom   47 type  1   force =    -0.00000646    0.00000646   -0.00001201
     atom   48 type  1   force =     0.00000000    0.00000000    0.00004032
     atom   49 type  1   force =    -0.00000087    0.00000217    0.00000110
     atom   50 type  1   force =     0.00000259   -0.00000038   -0.00000297
     atom   51 type  1   force =    -0.00000038    0.00000259   -0.00000297
     atom   52 type  1   force =     0.00000217   -0.00000087    0.00000110
     atom   53 type  1   force =     0.00000186   -0.00000000    0.00001104
     atom   54 type  1   force =     0.00000000    0.00000186    0.00001104
     atom   55 type  1   force =     0.00000211    0.00000089    0.00000040
     atom   56 type  1   force =    -0.00000221   -0.00000221   -0.00000226
     atom   57 type  1   force =     0.00000089    0.00000211    0.00000040
     atom   58 type  1   force =    -0.00000260    0.00000000   -0.00000108
     atom   59 type  1   force =    -0.00000148   -0.00000148   -0.00000347
     atom   60 type  1   force =     0.00000000   -0.00000260   -0.00000108
     atom   61 type  1   force =    -0.00000098   -0.00000647   -0.00000289
     atom   62 type  1   force =    -0.00000647   -0.00000098   -0.00000289
     atom   63 type  1   force =    -0.00000070    0.00000000   -0.00000153
     atom   64 type  1   force =    -0.00000276    0.00000090    0.00000023
     atom   65 type  1   force =     0.00000090   -0.00000276    0.00000023
     atom   66 type  1   force =     0.00000000   -0.00000070   -0.00000153
     atom   67 type  1   force =     0.00000203    0.00000203   -0.00004767
     atom   68 type  1   force =     0.00000265    0.00000000   -0.00000471
     atom   69 type  1   force =     0.00000001    0.00000256    0.00000042
     atom   70 type  1   force =     0.00000128    0.00000128    0.00000024
     atom   71 type  1   force =     0.00000256    0.00000001    0.00000042
     atom   72 type  1   force =    -0.00000000    0.00000265   -0.00000471
     atom   73 type  1   force =    -0.00001130    0.00000000    0.00000960
     atom   74 type  1   force =    -0.00000088   -0.00000042    0.00000298
     atom   75 type  1   force =    -0.00000014   -0.00000014    0.00000102
     atom   76 type  1   force =    -0.00000042   -0.00000088    0.00000298
     atom   77 type  1   force =     0.00000000   -0.00001130    0.00000960
     atom   78 type  1   force =     0.00000646    0.00000646   -0.00001201
     atom   79 type  1   force =    -0.00000217    0.00000087    0.00000110
     atom   80 type  1   force =     0.00000038   -0.00000259   -0.00000297
     atom   81 type  1   force =    -0.00000259    0.00000038   -0.00000297
     atom   82 type  1   force =     0.00000087   -0.00000217    0.00000110
     atom   83 type  1   force =     0.00000000   -0.00000186    0.00001104
     atom   84 type  1   force =    -0.00000186    0.00000000    0.00001104
     atom   85 type  1   force =     0.00000115   -0.00000115    0.00000230
     atom   86 type  1   force =    -0.00000000   -0.00000000    0.00000753
     atom   87 type  1   force =    -0.00000115    0.00000115    0.00000230
     atom   88 type  1   force =    -0.00000148    0.00000148   -0.00000347
     atom   89 type  1   force =     0.00000000    0.00000000    0.00000573
     atom   90 type  1   force =     0.00000148   -0.00000148   -0.00000347
     atom   91 type  1   force =    -0.00000042    0.00000216    0.00000051
     atom   92 type  1   force =     0.00000216   -0.00000042    0.00000051
     atom   93 type  1   force =    -0.00000276   -0.00000090    0.00000023
     atom   94 type  1   force =    -0.00000033    0.00000000   -0.00000353
     atom   95 type  1   force =    -0.00000000   -0.00000033   -0.00000353
     atom   96 type  1   force =    -0.00000090   -0.00000276    0.00000023
     atom   97 type  1   force =    -0.00000124   -0.00000124    0.00000011
     atom   98 type  1   force =     0.00000001   -0.00000256    0.00000042
     atom   99 type  1   force =    -0.00000257   -0.00000000   -0.00000306
     atom  100 type  1   force =    -0.00000127   -0.00000127   -0.00000205
     atom  101 type  1   force =     0.00000000   -0.00000257   -0.00000306
     atom  102 type  1   force =    -0.00000256    0.00000001    0.00000042
     atom  103 type  1   force =     0.00000771   -0.00000034   -0.00000161
     atom  104 type  1   force =     0.00000074    0.00000000    0.00000355
     atom  105 type  1   force =     0.00000147    0.00000037    0.00000151
     atom  106 type  1   force =     0.00000037    0.00000147    0.00000151
     atom  107 type  1   force =    -0.00000000    0.00000074    0.00000355
     atom  108 type  1   force =    -0.00000034    0.00000771   -0.00000161
     atom  109 type  1   force =     0.00000214    0.00000000   -0.00000754
     atom  110 type  1   force =     0.00000040   -0.00000346    0.00000115
     atom  111 type  1   force =    -0.00000346    0.00000040    0.00000115
     atom  112 type  1   force =    -0.00000000    0.00000214   -0.00000754
     atom  113 type  1   force =    -0.00000087   -0.00000217    0.00000110
     atom  114 type  1   force =    -0.00000217   -0.00000087    0.00000110
     atom  115 type  1   force =    -0.00000089   -0.00000211    0.00000040
     atom  116 type  1   force =     0.00000221    0.00000221   -0.00000226
     atom  117 type  1   force =    -0.00000211   -0.00000089    0.00000040
     atom  118 type  1   force =    -0.00000000    0.00000260   -0.00000108
     atom  119 type  1   force =     0.00000148    0.00000148   -0.00000347
     atom  120 type  1   force =     0.00000260    0.00000000   -0.00000108
     atom  121 type  1   force =    -0.00000216    0.00000042    0.00000051
     atom  122 type  1   force =     0.00000042   -0.00000216    0.00000051
     atom  123 type  1   force =     0.00000090    0.00000276    0.00000023
     atom  124 type  1   force =    -0.00000000    0.00000033   -0.00000353
     atom  125 type  1   force =     0.00000033   -0.00000000   -0.00000353
     atom  126 type  1   force =     0.00000276    0.00000090    0.00000023
     atom  127 type  1   force =     0.00000000    0.00000000   -0.00000143
     atom  128 type  1   force =     0.00000128   -0.00000128    0.00000024
     atom  129 type  1   force =    -0.00000127    0.00000127   -0.00000205
     atom  130 type  1   force =     0.00000000    0.00000000    0.00000984
     atom  131 type  1   force =     0.00000127   -0.00000127   -0.00000205
     atom  132 type  1   force =    -0.00000128    0.00000128    0.00000024
     atom  133 type  1   force =    -0.00000217   -0.00000211   -0.00000206
     atom  134 type  1   force =     0.00000147   -0.00000037    0.00000151
     atom  135 type  1   force =    -0.00000222    0.00000000   -0.00000610
     atom  136 type  1   force =     0.00000000   -0.00000222   -0.00000610
     atom  137 type  1   force =    -0.00000037    0.00000147    0.00000151
     atom  138 type  1   force =    -0.00000211   -0.00000217   -0.00000206
     atom  139 type  1   force =    -0.00000088    0.00000042    0.00000298
     atom  140 type  1   force =     0.00000513    0.00000000    0.00000147
     atom  141 type  1   force =     0.00000275    0.00000275   -0.00000486
     atom  142 type  1   force =     0.00000000    0.00000513    0.00000147
     atom  143 type  1   force =     0.00000042   -0.00000088    0.00000298
     atom  144 type  1   force =     0.00000352    0.00000352   -0.00000357
     atom  145 type  1   force =    -0.00000879    0.00000000    0.00000708
     atom  146 type  1   force =     0.00000771    0.00000771   -0.00001096
     atom  147 type  1   force =     0.00000000   -0.00000879    0.00000708
     atom  148 type  1   force =     0.00000211   -0.00000089    0.00000040
     atom  149 type  1   force =     0.00000115    0.00000115    0.00000230
     atom  150 type  1   force =    -0.00000089    0.00000211    0.00000040
     atom  151 type  1   force =     0.00000647    0.00000098   -0.00000289
     atom  152 type  1   force =     0.00000098    0.00000647   -0.00000289
     atom  153 type  1   force =    -0.00000000    0.00000070   -0.00000153
     atom  154 type  1   force =    -0.00000090    0.00000276    0.00000023
     atom  155 type  1   force =     0.00000276   -0.00000090    0.00000023
     atom  156 type  1   force =     0.00000070   -0.00000000   -0.00000153
     atom  157 type  1   force =     0.00000124    0.00000124    0.00000011
     atom  158 type  1   force =     0.00000256   -0.00000001    0.00000042
     atom  159 type  1   force =     0.00000000    0.00000257   -0.00000306
     atom  160 type  1   force =     0.00000127    0.00000127   -0.00000205
     atom  161 type  1   force =     0.00000257    0.00000000   -0.00000306
     atom  162 type  1   force =    -0.00000001    0.00000256    0.00000042
     atom  163 type  1   force =     0.00000211    0.00000217   -0.00000206
     atom  164 type  1   force =     0.00000037   -0.00000147    0.00000151
     atom  165 type  1   force =     0.00000000    0.00000222   -0.00000610
     atom  166 type  1   force =     0.00000222    0.00000000   -0.00000610
     atom  167 type  1   force =    -0.00000147    0.00000037    0.00000151
     atom  168 type  1   force =     0.00000217    0.00000211   -0.00000206
     atom  169 type  1   force =    -0.00000014    0.00000014    0.00000102
     atom  170 type  1   force =     0.00000275   -0.00000275   -0.00000486
     atom  171 type  1   force =     0.00000000    0.00000000    0.00000050
     atom  172 type  1   force =    -0.00000275    0.00000275   -0.00000486
     atom  173 type  1   force =     0.00000014   -0.00000014    0.00000102
     atom  174 type  1   force =    -0.00000000   -0.00000000    0.00000235
     atom  175 type  1   force =     0.00000040    0.00000346    0.00000115
     atom  176 type  1   force =     0.00000330    0.00000000    0.00001087
     atom  177 type  1   force =     0.00000000    0.00000330    0.00001087
     atom  178 type  1   force =     0.00000346    0.00000040    0.00000115
     atom  179 type  1   force =     0.00000259    0.00000038   -0.00000297
     atom  180 type  1   force =     0.00000038    0.00000259   -0.00000297
     atom  181 type  1   force =    -0.00025001    0.00000000    0.00024459
     atom  182 type  1   force =     0.00000000   -0.00025001    0.00024459
     atom  183 type  1   force =    -0.00000098    0.00000647   -0.00000289
     atom  184 type  1   force =    -0.00000042   -0.00000216    0.00000051
     atom  185 type  1   force =    -0.00000216   -0.00000042    0.00000051
     atom  186 type  1   force =     0.00000647   -0.00000098   -0.00000289
     atom  187 type  1   force =    -0.00000203   -0.00000203   -0.00004767
     atom  188 type  1   force =     0.00000000   -0.00000265   -0.00000471
     atom  189 type  1   force =    -0.00000256   -0.00000001    0.00000042
     atom  190 type  1   force =    -0.00000128   -0.00000128    0.00000024
     atom  191 type  1   force =    -0.00000001   -0.00000256    0.00000042
     atom  192 type  1   force =    -0.00000265   -0.00000000   -0.00000471
     atom  193 type  1   force =     0.00000034   -0.00000771   -0.00000161
     atom  194 type  1   force =    -0.00000000   -0.00000074    0.00000355
     atom  195 type  1   force =    -0.00000037   -0.00000147    0.00000151
     atom  196 type  1   force =    -0.00000147   -0.00000037    0.00000151
     atom  197 type  1   force =    -0.00000074    0.00000000    0.00000355
     atom  198 type  1   force =    -0.00000771    0.00000034   -0.00000161
     atom  199 type  1   force =    -0.00000042    0.00000088    0.00000298
     atom  200 type  1   force =     0.00000000   -0.00000513    0.00000147
     atom  201 type  1   force =    -0.00000275   -0.00000275   -0.00000486
     atom  202 type  1   force =    -0.00000513   -0.00000000    0.00000147
     atom  203 type  1   force =     0.00000088   -0.00000042    0.00000298
     atom  204 type  1   force =    -0.00000352   -0.00000352   -0.00000357
     atom  205 type  1   force =    -0.00000346   -0.00000040    0.00000115
     atom  206 type  1   force =    -0.00000000   -0.00000330    0.00001087
     atom  207 type  1   force =    -0.00000330   -0.00000000    0.00001087
     atom  208 type  1   force =    -0.00000040   -0.00000346    0.00000115
     atom  209 type  1   force =    -0.00000038   -0.00000259   -0.00000297
     atom  210 type  1   force =    -0.00000259   -0.00000038   -0.00000297
     atom  211 type  1   force =     0.00000771   -0.00000771   -0.00001096
     atom  212 type  1   force =     0.00000000    0.00000000    0.00004523
     atom  213 type  1   force =    -0.00000771    0.00000771   -0.00001096
     atom  214 type  1   force =    -0.00000221    0.00000221   -0.00000226
     atom  215 type  1   force =     0.00000000    0.00000000    0.00000753
     atom  216 type  1   force =     0.00000221   -0.00000221   -0.00000226

     Total force =     0.002073     Total SCF correction =     0.000000

     Writing all to output data dir ./scratch_runs/atom01_z_plus/al.save/ :
     XML data file, charge density, pseudopotentials, collected wavefunctions
 
     init_run     :     84.31s CPU     88.60s WALL (       1 calls)
     electrons    :   2038.35s CPU   2163.90s WALL (       1 calls)
     forces       :     11.80s CPU     12.02s WALL (       1 calls)

     Called by init_run:
     wfcinit      :     81.66s CPU     85.48s WALL (       1 calls)
     potinit      :      2.28s CPU      2.66s WALL (       1 calls)
     hinit0       :      0.06s CPU      0.07s WALL (       1 calls)

     Called by electrons:
     c_bands      :   1736.61s CPU   1849.05s WALL (      58 calls)
     sum_band     :    198.55s CPU    209.11s WALL (      58 calls)
     v_of_rho     :      1.56s CPU      1.69s WALL (      58 calls)
     newd         :      3.88s CPU      6.20s WALL (      58 calls)
     PAW_pot      :     99.49s CPU    100.00s WALL (      58 calls)
     mix_rho      :      0.53s CPU      0.54s WALL (      58 calls)

     Called by c_bands:
     init_us_2    :     35.70s CPU     35.80s WALL (     354 calls)
     cegterg      :   1683.43s CPU   1795.81s WALL (     174 calls)

     Called by *egterg:
     cdiaghg      :    153.91s CPU    160.65s WALL (     587 calls)
     h_psi        :    718.66s CPU    752.41s WALL (     593 calls)
     s_psi        :    227.17s CPU    227.28s WALL (     593 calls)
     g_psi        :      2.49s CPU      2.49s WALL (     416 calls)

     Called by h_psi:
     h_psi:calbec :    324.98s CPU    325.44s WALL (     593 calls)
     vloc_psi     :    161.90s CPU    187.62s WALL (     593 calls)
     add_vuspsi   :    228.62s CPU    228.89s WALL (     593 calls)

     General routines
     calbec       :    471.18s CPU    471.86s WALL (     779 calls)
     fft          :      0.62s CPU      0.78s WALL (     650 calls)
     ffts         :      0.10s CPU      0.15s WALL (      58 calls)
     fftw         :    171.30s CPU    201.69s WALL (  383932 calls)
 
     Parallel routines
 
     PWSCF        :  35m35.11s CPU  37m46.01s WALL

 
   This run was terminated on:  13:14:34   7Apr2026            

=------------------------------------------------------------------------------=
   JOB DONE.
=------------------------------------------------------------------------------=

===== TIMING =====
Job:           atom01_z_plus
Start:         2026-04-07T12:36:46+02:00
End:           2026-04-07T13:14:34+02:00
Duration (s):  2268
Duration (H:M:S): 00:37:48
==================
