
     Program PWSCF v.7.4 starts on 16Jun2026 at  0: 8:51 

     This program is part of the open-source Quantum ESPRESSO suite
     for quantum simulation of materials; please cite
         "P. Giannozzi et al., J. Phys.:Condens. Matter 21 395502 (2009);
         "P. Giannozzi et al., J. Phys.:Condens. Matter 29 465901 (2017);
         "P. Giannozzi et al., J. Chem. Phys. 152 154105 (2020);
          URL http://www.quantum-espresso.org", 
     in publications or presentations arising from this work. More details at
     http://www.quantum-espresso.org/quote

     Parallel version (MPI), running on    12 processors

     MPI processes distributed on     1 nodes
     23101 MiB available memory on the printing compute node when the environment starts
 
     Reading input from ./scratch_runs/atom01_x_minus/atom01_x_minus.in

     Current dimensions of program PWSCF are:
     Max number of different atomic species (ntypx) = 10
     Max number of k-points (npk) =  40000
     Max angular momentum in pseudopotentials (lmaxx) =  4
read_pp_mesh; mismatch in mesh size, discarding the one in header
     Message from routine setup:
     using ibrav=0 with symmetry is DISCOURAGED, use correct ibrav instead
 
     R & G space division:  proc/nbgrp/npool/nimage =      12
     Subspace diagonalization in iterative solution of the eigenvalue problem:
     a serial algorithm will be used

 
     Parallelization info
     --------------------
     sticks:   dense  smooth     PW     G-vecs:    dense   smooth      PW
     Min         536     536    144                28308    28308    3943
     Max         537     537    145                28311    28311    3944
     Sum        6433    6433   1735               339709   339709   47327
 
     Using Slab Decomposition
 


     bravais-lattice index     =            0
     lattice parameter (alat)  =      21.5818  a.u.
     unit-cell volume          =    7108.0585 (a.u.)^3
     number of atoms/cell      =           64
     number of atomic types    =            1
     number of electrons       =       192.00
     number of Kohn-Sham states=          115
     kinetic-energy cutoff     =      50.0000  Ry
     charge density cutoff     =     200.0000  Ry
     scf convergence threshold =      1.0E-16
     mixing beta               =       0.7000
     number of iterations used =            8  plain     mixing
     Exchange-correlation= SLA PW PBX PBC
                           (   1   4   3   4   0   0   0)

     celldm(1)=  21.581850  celldm(2)=   0.000000  celldm(3)=   0.000000
     celldm(4)=   0.000000  celldm(5)=   0.000000  celldm(6)=   0.000000

     crystal axes: (cart. coord. in units of alat)
               a(1) = (  -0.707107   0.000000   0.707107 )  
               a(2) = (   0.000000   0.707107   0.707107 )  
               a(3) = (  -0.707107   0.707107   0.000000 )  

     reciprocal axes: (cart. coord. in units 2 pi/alat)
               b(1) = ( -0.707107 -0.707107  0.707107 )  
               b(2) = (  0.707107  0.707107  0.707107 )  
               b(3) = ( -0.707107  0.707107 -0.707107 )  


     PseudoPot. # 1 for Al read from file:
     ../../../pseudopotentzialak/Al.upf
     MD5 check sum: fd3ab6bbf4b2322b308692f0f9c61a66
     Pseudo is Projector augmented-wave + core cor, Zval =  3.0
     Generated using ATOMPAW code
     Shape of augmentation charge: SINC**2
     Using radial grid of 2342 points,  4 beta functions with: 
                l(1) =   0
                l(2) =   0
                l(3) =   1
                l(4) =   1
     Q(r) pseudized with 0 coefficients 


     atomic species   valence    mass     pseudopotential
     Al                3.00    26.98150     Al( 1.00)

      8 Sym. Ops. (no inversion) found


                                    s                        frac. trans.

      isym =  1     identity                                     

 cryst.   s( 1) = (     1          0          0      )
                  (     0          1          0      )
                  (     0          0          1      )

 cart.    s( 1) = (  1.0000000  0.0000000  0.0000000 )
                  (  0.0000000  1.0000000  0.0000000 )
                  (  0.0000000  0.0000000  1.0000000 )


      isym =  2     180 deg rotation - cart. axis [1,0,0]        

 cryst.   s( 2) = (     0         -1          1      )
                  (     0         -1          0      )
                  (     1         -1          0      )

 cart.    s( 2) = (  1.0000000  0.0000000  0.0000000 )
                  (  0.0000000 -1.0000000  0.0000000 )
                  (  0.0000000  0.0000000 -1.0000000 )


      isym =  3      90 deg rotation - cart. axis [-1,0,0]       

 cryst.   s( 3) = (     0          0          1      )
                  (    -1          0          1      )
                  (     0         -1          1      )

 cart.    s( 3) = (  1.0000000  0.0000000  0.0000000 )
                  (  0.0000000  0.0000000  1.0000000 )
                  (  0.0000000 -1.0000000  0.0000000 )


      isym =  4      90 deg rotation - cart. axis [1,0,0]        

 cryst.   s( 4) = (     1         -1          0      )
                  (     1          0         -1      )
                  (     1          0          0      )

 cart.    s( 4) = (  1.0000000  0.0000000  0.0000000 )
                  (  0.0000000  0.0000000 -1.0000000 )
                  (  0.0000000  1.0000000  0.0000000 )


      isym =  5     inv. 180 deg rotation - cart. axis [0,0,1]   

 cryst.   s( 5) = (     0         -1          1      )
                  (    -1          0          1      )
                  (     0          0          1      )

 cart.    s( 5) = (  1.0000000  0.0000000  0.0000000 )
                  (  0.0000000  1.0000000  0.0000000 )
                  (  0.0000000  0.0000000 -1.0000000 )


      isym =  6     inv. 180 deg rotation - cart. axis [0,1,0]   

 cryst.   s( 6) = (     1          0          0      )
                  (     1          0         -1      )
                  (     1         -1          0      )

 cart.    s( 6) = (  1.0000000  0.0000000  0.0000000 )
                  (  0.0000000 -1.0000000  0.0000000 )
                  (  0.0000000  0.0000000  1.0000000 )


      isym =  7     inv. 180 deg rotation - cart. axis [0,1,1]   

 cryst.   s( 7) = (     1         -1          0      )
                  (     0         -1          0      )
                  (     0         -1          1      )

 cart.    s( 7) = (  1.0000000  0.0000000  0.0000000 )
                  (  0.0000000  0.0000000 -1.0000000 )
                  (  0.0000000 -1.0000000  0.0000000 )


      isym =  8     inv. 180 deg rotation - cart. axis [0,1,-1]  

 cryst.   s( 8) = (     0          0          1      )
                  (     0          1          0      )
                  (     1          0          0      )

 cart.    s( 8) = (  1.0000000  0.0000000  0.0000000 )
                  (  0.0000000  0.0000000  1.0000000 )
                  (  0.0000000  1.0000000  0.0000000 )


   Cartesian axes

     site n.     atom                  positions (alat units)
         1        Al     tau(   1) = (  -0.0008756   0.0000000   0.0000000  )
         2        Al     tau(   2) = (  -0.1767767   0.1767767   0.0000000  )
         3        Al     tau(   3) = (  -0.3535534   0.3535534   0.0000000  )
         4        Al     tau(   4) = (  -0.5303301   0.5303301   0.0000000  )
         5        Al     tau(   5) = (   0.0000000   0.1767767   0.1767767  )
         6        Al     tau(   6) = (  -0.1767767   0.3535534   0.1767767  )
         7        Al     tau(   7) = (  -0.3535534   0.5303301   0.1767767  )
         8        Al     tau(   8) = (  -0.5303301   0.7071068   0.1767767  )
         9        Al     tau(   9) = (   0.0000000   0.3535534   0.3535534  )
        10        Al     tau(  10) = (  -0.1767767   0.5303301   0.3535534  )
        11        Al     tau(  11) = (  -0.3535534   0.7071068   0.3535534  )
        12        Al     tau(  12) = (  -0.5303301   0.8838835   0.3535534  )
        13        Al     tau(  13) = (   0.0000000   0.5303301   0.5303301  )
        14        Al     tau(  14) = (  -0.1767767   0.7071068   0.5303301  )
        15        Al     tau(  15) = (  -0.3535534   0.8838835   0.5303301  )
        16        Al     tau(  16) = (  -0.5303301   1.0606602   0.5303301  )
        17        Al     tau(  17) = (  -0.1767767   0.0000000   0.1767767  )
        18        Al     tau(  18) = (  -0.3535534   0.1767767   0.1767767  )
        19        Al     tau(  19) = (  -0.5303301   0.3535534   0.1767767  )
        20        Al     tau(  20) = (  -0.7071068   0.5303301   0.1767767  )
        21        Al     tau(  21) = (  -0.1767767   0.1767767   0.3535534  )
        22        Al     tau(  22) = (  -0.3535534   0.3535534   0.3535534  )
        23        Al     tau(  23) = (  -0.5303301   0.5303301   0.3535534  )
        24        Al     tau(  24) = (  -0.7071068   0.7071068   0.3535534  )
        25        Al     tau(  25) = (  -0.1767767   0.3535534   0.5303301  )
        26        Al     tau(  26) = (  -0.3535534   0.5303301   0.5303301  )
        27        Al     tau(  27) = (  -0.5303301   0.7071068   0.5303301  )
        28        Al     tau(  28) = (  -0.7071068   0.8838835   0.5303301  )
        29        Al     tau(  29) = (  -0.1767767   0.5303301   0.7071068  )
        30        Al     tau(  30) = (  -0.3535534   0.7071068   0.7071068  )
        31        Al     tau(  31) = (  -0.5303301   0.8838835   0.7071068  )
        32        Al     tau(  32) = (  -0.7071068   1.0606602   0.7071068  )
        33        Al     tau(  33) = (  -0.3535534   0.0000000   0.3535534  )
        34        Al     tau(  34) = (  -0.5303301   0.1767767   0.3535534  )
        35        Al     tau(  35) = (  -0.7071068   0.3535534   0.3535534  )
        36        Al     tau(  36) = (  -0.8838835   0.5303301   0.3535534  )
        37        Al     tau(  37) = (  -0.3535534   0.1767767   0.5303301  )
        38        Al     tau(  38) = (  -0.5303301   0.3535534   0.5303301  )
        39        Al     tau(  39) = (  -0.7071068   0.5303301   0.5303301  )
        40        Al     tau(  40) = (  -0.8838835   0.7071068   0.5303301  )
        41        Al     tau(  41) = (  -0.3535534   0.3535534   0.7071068  )
        42        Al     tau(  42) = (  -0.5303301   0.5303301   0.7071068  )
        43        Al     tau(  43) = (  -0.7071068   0.7071068   0.7071068  )
        44        Al     tau(  44) = (  -0.8838835   0.8838835   0.7071068  )
        45        Al     tau(  45) = (  -0.3535534   0.5303301   0.8838835  )
        46        Al     tau(  46) = (  -0.5303301   0.7071068   0.8838835  )
        47        Al     tau(  47) = (  -0.7071068   0.8838835   0.8838835  )
        48        Al     tau(  48) = (  -0.8838835   1.0606602   0.8838835  )
        49        Al     tau(  49) = (  -0.5303301   0.0000000   0.5303301  )
        50        Al     tau(  50) = (  -0.7071068   0.1767767   0.5303301  )
        51        Al     tau(  51) = (  -0.8838835   0.3535534   0.5303301  )
        52        Al     tau(  52) = (  -1.0606602   0.5303301   0.5303301  )
        53        Al     tau(  53) = (  -0.5303301   0.1767767   0.7071068  )
        54        Al     tau(  54) = (  -0.7071068   0.3535534   0.7071068  )
        55        Al     tau(  55) = (  -0.8838835   0.5303301   0.7071068  )
        56        Al     tau(  56) = (  -1.0606602   0.7071068   0.7071068  )
        57        Al     tau(  57) = (  -0.5303301   0.3535534   0.8838835  )
        58        Al     tau(  58) = (  -0.7071068   0.5303301   0.8838835  )
        59        Al     tau(  59) = (  -0.8838835   0.7071068   0.8838835  )
        60        Al     tau(  60) = (  -1.0606602   0.8838835   0.8838835  )
        61        Al     tau(  61) = (  -0.5303301   0.5303301   1.0606602  )
        62        Al     tau(  62) = (  -0.7071068   0.7071068   1.0606602  )
        63        Al     tau(  63) = (  -0.8838835   0.8838835   1.0606602  )
        64        Al     tau(  64) = (  -1.0606602   1.0606602   1.0606602  )

   Crystallographic axes

     site n.     atom                  positions (cryst. coord.)
         1        Al     tau(   1) = (  0.0006191 -0.0006191  0.0006191  )
         2        Al     tau(   2) = (  0.0000000  0.0000000  0.2500000  )
         3        Al     tau(   3) = (  0.0000000  0.0000000  0.5000000  )
         4        Al     tau(   4) = (  0.0000000  0.0000000  0.7500000  )
         5        Al     tau(   5) = (  0.0000000  0.2500000  0.0000000  )
         6        Al     tau(   6) = (  0.0000000  0.2500000  0.2500000  )
         7        Al     tau(   7) = (  0.0000000  0.2500000  0.5000000  )
         8        Al     tau(   8) = (  0.0000000  0.2500000  0.7500000  )
         9        Al     tau(   9) = (  0.0000000  0.5000000  0.0000000  )
        10        Al     tau(  10) = (  0.0000000  0.5000000  0.2500000  )
        11        Al     tau(  11) = (  0.0000000  0.5000000  0.5000000  )
        12        Al     tau(  12) = (  0.0000000  0.5000000  0.7500000  )
        13        Al     tau(  13) = (  0.0000000  0.7500000  0.0000000  )
        14        Al     tau(  14) = (  0.0000000  0.7500000  0.2500000  )
        15        Al     tau(  15) = (  0.0000000  0.7500000  0.5000000  )
        16        Al     tau(  16) = (  0.0000000  0.7500000  0.7500000  )
        17        Al     tau(  17) = (  0.2500000  0.0000000  0.0000000  )
        18        Al     tau(  18) = (  0.2500000  0.0000000  0.2500000  )
        19        Al     tau(  19) = (  0.2500000  0.0000000  0.5000000  )
        20        Al     tau(  20) = (  0.2500000  0.0000000  0.7500000  )
        21        Al     tau(  21) = (  0.2500000  0.2500000  0.0000000  )
        22        Al     tau(  22) = (  0.2500000  0.2500000  0.2500000  )
        23        Al     tau(  23) = (  0.2500000  0.2500000  0.5000000  )
        24        Al     tau(  24) = (  0.2500000  0.2500000  0.7500000  )
        25        Al     tau(  25) = (  0.2500000  0.5000000  0.0000000  )
        26        Al     tau(  26) = (  0.2500000  0.5000000  0.2500000  )
        27        Al     tau(  27) = (  0.2500000  0.5000000  0.5000000  )
        28        Al     tau(  28) = (  0.2500000  0.5000000  0.7500000  )
        29        Al     tau(  29) = (  0.2500000  0.7500000  0.0000000  )
        30        Al     tau(  30) = (  0.2500000  0.7500000  0.2500000  )
        31        Al     tau(  31) = (  0.2500000  0.7500000  0.5000000  )
        32        Al     tau(  32) = (  0.2500000  0.7500000  0.7500000  )
        33        Al     tau(  33) = (  0.5000000  0.0000000  0.0000000  )
        34        Al     tau(  34) = (  0.5000000  0.0000000  0.2500000  )
        35        Al     tau(  35) = (  0.5000000  0.0000000  0.5000000  )
        36        Al     tau(  36) = (  0.5000000  0.0000000  0.7500000  )
        37        Al     tau(  37) = (  0.5000000  0.2500000  0.0000000  )
        38        Al     tau(  38) = (  0.5000000  0.2500000  0.2500000  )
        39        Al     tau(  39) = (  0.5000000  0.2500000  0.5000000  )
        40        Al     tau(  40) = (  0.5000000  0.2500000  0.7500000  )
        41        Al     tau(  41) = (  0.5000000  0.5000000  0.0000000  )
        42        Al     tau(  42) = (  0.5000000  0.5000000  0.2500000  )
        43        Al     tau(  43) = (  0.5000000  0.5000000  0.5000000  )
        44        Al     tau(  44) = (  0.5000000  0.5000000  0.7500000  )
        45        Al     tau(  45) = (  0.5000000  0.7500000  0.0000000  )
        46        Al     tau(  46) = (  0.5000000  0.7500000  0.2500000  )
        47        Al     tau(  47) = (  0.5000000  0.7500000  0.5000000  )
        48        Al     tau(  48) = (  0.5000000  0.7500000  0.7500000  )
        49        Al     tau(  49) = (  0.7500000  0.0000000  0.0000000  )
        50        Al     tau(  50) = (  0.7500000  0.0000000  0.2500000  )
        51        Al     tau(  51) = (  0.7500000  0.0000000  0.5000000  )
        52        Al     tau(  52) = (  0.7500000  0.0000000  0.7500000  )
        53        Al     tau(  53) = (  0.7500000  0.2500000  0.0000000  )
        54        Al     tau(  54) = (  0.7500000  0.2500000  0.2500000  )
        55        Al     tau(  55) = (  0.7500000  0.2500000  0.5000000  )
        56        Al     tau(  56) = (  0.7500000  0.2500000  0.7500000  )
        57        Al     tau(  57) = (  0.7500000  0.5000000  0.0000000  )
        58        Al     tau(  58) = (  0.7500000  0.5000000  0.2500000  )
        59        Al     tau(  59) = (  0.7500000  0.5000000  0.5000000  )
        60        Al     tau(  60) = (  0.7500000  0.5000000  0.7500000  )
        61        Al     tau(  61) = (  0.7500000  0.7500000  0.0000000  )
        62        Al     tau(  62) = (  0.7500000  0.7500000  0.2500000  )
        63        Al     tau(  63) = (  0.7500000  0.7500000  0.5000000  )
        64        Al     tau(  64) = (  0.7500000  0.7500000  0.7500000  )

     number of k points=    30  Methfessel-Paxton smearing, width (Ry)=  0.0200
                       cart. coord. in units 2pi/alat
        k(    1) = (   0.0000000   0.0000000   0.0000000), wk =   0.0092593
        k(    2) = (  -0.1178511   0.1178511  -0.1178511), wk =   0.0740741
        k(    3) = (  -0.2357023   0.2357023  -0.2357023), wk =   0.0740741
        k(    4) = (   0.3535534  -0.3535534   0.3535534), wk =   0.0370370
        k(    5) = (   0.0000000   0.2357023   0.0000000), wk =   0.0370370
        k(    6) = (  -0.1178511   0.3535534  -0.1178511), wk =   0.1481481
        k(    7) = (   0.4714045  -0.2357023   0.4714045), wk =   0.1481481
        k(    8) = (   0.3535534  -0.1178511   0.3535534), wk =   0.1481481
        k(    9) = (   0.2357023  -0.0000000   0.2357023), wk =   0.0740741
        k(   10) = (   0.0000000   0.4714045   0.0000000), wk =   0.0370370
        k(   11) = (   0.5892557  -0.1178511   0.5892557), wk =   0.1481481
        k(   12) = (   0.4714045  -0.0000000   0.4714045), wk =   0.0740741
        k(   13) = (   0.0000000  -0.7071068   0.0000000), wk =   0.0185185
        k(   14) = (   0.4714045  -0.2357023   0.7071068), wk =   0.0740741
        k(   15) = (   0.3535534  -0.1178511   0.5892557), wk =   0.0740741
        k(   16) = (  -0.2357023  -0.7071068   0.0000000), wk =   0.0370370
        k(   17) = (   0.2357023   0.0000000   0.0000000), wk =   0.0185185
        k(   18) = (   0.3535534  -0.1178511  -0.1178511), wk =   0.0740741
        k(   19) = (  -0.2357023   0.4714045   0.4714045), wk =   0.0740741
        k(   20) = (  -0.1178511   0.3535534   0.3535534), wk =   0.0740741
        k(   21) = (  -0.0000000   0.2357023   0.2357023), wk =   0.0370370
        k(   22) = (   0.4714045   0.0000000   0.0000000), wk =   0.0185185
        k(   23) = (  -0.1178511   0.5892557   0.5892557), wk =   0.0740741
        k(   24) = (   0.0000000   0.4714045   0.4714045), wk =   0.0370370
        k(   25) = (  -0.7071068   0.0000000   0.0000000), wk =   0.0092593
        k(   26) = (   0.7071068   0.2357023   0.4714045), wk =   0.0740741
        k(   27) = (  -0.2357023   0.7071068   0.4714045), wk =   0.0740741
        k(   28) = (   0.5892557   0.1178511   0.3535534), wk =   0.1481481
        k(   29) = (   0.0000000   0.7071068  -0.2357023), wk =   0.0370370
        k(   30) = (  -0.7071068   0.0000000  -0.2357023), wk =   0.0370370

                       cryst. coord.
        k(    1) = (   0.0000000   0.0000000   0.0000000), wk =   0.0092593
        k(    2) = (   0.0000000   0.0000000   0.1666667), wk =   0.0740741
        k(    3) = (   0.0000000   0.0000000   0.3333333), wk =   0.0740741
        k(    4) = (   0.0000000   0.0000000  -0.5000000), wk =   0.0370370
        k(    5) = (   0.0000000   0.1666667   0.1666667), wk =   0.0370370
        k(    6) = (   0.0000000   0.1666667   0.3333333), wk =   0.1481481
        k(    7) = (   0.0000000   0.1666667  -0.5000000), wk =   0.1481481
        k(    8) = (   0.0000000   0.1666667  -0.3333333), wk =   0.1481481
        k(    9) = (   0.0000000   0.1666667  -0.1666667), wk =   0.0740741
        k(   10) = (   0.0000000   0.3333333   0.3333333), wk =   0.0370370
        k(   11) = (   0.0000000   0.3333333  -0.5000000), wk =   0.1481481
        k(   12) = (   0.0000000   0.3333333  -0.3333333), wk =   0.0740741
        k(   13) = (   0.0000000  -0.5000000  -0.5000000), wk =   0.0185185
        k(   14) = (   0.1666667   0.3333333  -0.5000000), wk =   0.0740741
        k(   15) = (   0.1666667   0.3333333  -0.3333333), wk =   0.0740741
        k(   16) = (   0.1666667  -0.5000000  -0.3333333), wk =   0.0370370
        k(   17) = (  -0.1666667   0.0000000  -0.1666667), wk =   0.0185185
        k(   18) = (  -0.3333333  -0.1666667  -0.3333333), wk =   0.0740741
        k(   19) = (   0.5000000   0.6666667   0.5000000), wk =   0.0740741
        k(   20) = (   0.3333333   0.5000000   0.3333333), wk =   0.0740741
        k(   21) = (   0.1666667   0.3333333   0.1666667), wk =   0.0370370
        k(   22) = (  -0.3333333   0.0000000  -0.3333333), wk =   0.0185185
        k(   23) = (   0.5000000   0.8333333   0.5000000), wk =   0.0740741
        k(   24) = (   0.3333333   0.6666667   0.3333333), wk =   0.0370370
        k(   25) = (   0.5000000   0.0000000   0.5000000), wk =   0.0092593
        k(   26) = (  -0.1666667   0.5000000  -0.3333333), wk =   0.0740741
        k(   27) = (   0.5000000   0.8333333   0.6666667), wk =   0.0740741
        k(   28) = (  -0.1666667   0.3333333  -0.3333333), wk =   0.1481481
        k(   29) = (  -0.1666667   0.3333333   0.5000000), wk =   0.0370370
        k(   30) = (   0.3333333  -0.1666667   0.5000000), wk =   0.0370370

     Dense  grid:   339709 G-vectors     FFT dimensions: ( 100, 100, 100)

     Dynamical RAM for                 wfc:       6.20 MB

     Dynamical RAM for     wfc (w. buffer):     192.35 MB

     Dynamical RAM for           str. fact:       0.43 MB

     Dynamical RAM for           local pot:       0.00 MB

     Dynamical RAM for          nlocal pot:      27.62 MB

     Dynamical RAM for                qrad:       0.32 MB

     Dynamical RAM for          rho,v,vnew:       3.36 MB

     Dynamical RAM for               rhoin:       1.12 MB

     Dynamical RAM for            rho*nmix:       6.91 MB

     Dynamical RAM for           G-vectors:       1.84 MB

     Dynamical RAM for          h,s,v(r/c):       2.42 MB

     Dynamical RAM for          <psi|beta>:       0.90 MB

     Dynamical RAM for                 psi:      12.41 MB

     Dynamical RAM for                hpsi:      12.41 MB

     Dynamical RAM for                spsi:      12.41 MB

     Dynamical RAM for      wfcinit/wfcrot:      12.71 MB

     Dynamical RAM for           addusdens:      46.22 MB

     Dynamical RAM for          addusforce:     100.92 MB

     Dynamical RAM for         addusstress:      21.60 MB

     Estimated static dynamical RAM per process >     231.34 MB

     Estimated max dynamical RAM per process >     339.17 MB

     Estimated total dynamical RAM >       3.97 GB

     Initial potential from superposition of free atoms

     starting charge     191.8398, renormalised to     192.0000

     negative rho (up, down):  4.350E-02 0.000E+00
     Starting wfcs are  512 randomized atomic wfcs
     Checking if some PAW data can be deallocated... 

     total cpu time spent up to now is       57.1 secs

     per-process dynamical memory:   314.8 Mb

     Self-consistent Calculation

     iteration #  1     ecut=    50.00 Ry     beta= 0.70
     Davidson diagonalization with overlap

---- Real-time Memory Report at c_bands before calling an iterative solver
           429 MiB given to the printing process from OS
           307 MiB allocation reported by mallinfo(arena+hblkhd)
         20234 MiB available memory on the node where the printing process lives
------------------
     ethr =  1.00E-02,  avg # of iterations =  2.3

     Threshold (ethr) on eigenvalues was too large:
     Diagonalizing with lowered threshold

     Davidson diagonalization with overlap

---- Real-time Memory Report at c_bands before calling an iterative solver
           429 MiB given to the printing process from OS
           350 MiB allocation reported by mallinfo(arena+hblkhd)
         20010 MiB available memory on the node where the printing process lives
------------------
     ethr =  1.65E-04,  avg # of iterations =  4.2

     negative rho (up, down):  4.946E-02 0.000E+00

     total cpu time spent up to now is      146.7 secs

     total energy              =   -2528.36648411 Ry
     estimated scf accuracy    <       0.32471087 Ry

     iteration #  2     ecut=    50.00 Ry     beta= 0.70
     Davidson diagonalization with overlap

---- Real-time Memory Report at c_bands before calling an iterative solver
           429 MiB given to the printing process from OS
           350 MiB allocation reported by mallinfo(arena+hblkhd)
         17016 MiB available memory on the node where the printing process lives
------------------
     ethr =  1.69E-04,  avg # of iterations =  1.0

     negative rho (up, down):  5.309E-02 0.000E+00

     total cpu time spent up to now is      177.4 secs

     total energy              =   -2528.10671069 Ry
     estimated scf accuracy    <       0.03720896 Ry

     iteration #  3     ecut=    50.00 Ry     beta= 0.70
     Davidson diagonalization with overlap

---- Real-time Memory Report at c_bands before calling an iterative solver
           429 MiB given to the printing process from OS
           350 MiB allocation reported by mallinfo(arena+hblkhd)
         21124 MiB available memory on the node where the printing process lives
------------------
     ethr =  1.94E-05,  avg # of iterations =  8.7

     negative rho (up, down):  5.245E-02 0.000E+00

     total cpu time spent up to now is      236.6 secs

     total energy              =   -2528.06559063 Ry
     estimated scf accuracy    <       0.45093248 Ry

     iteration #  4     ecut=    50.00 Ry     beta= 0.70
     Davidson diagonalization with overlap

---- Real-time Memory Report at c_bands before calling an iterative solver
           429 MiB given to the printing process from OS
           350 MiB allocation reported by mallinfo(arena+hblkhd)
         20775 MiB available memory on the node where the printing process lives
------------------
     ethr =  1.94E-05,  avg # of iterations =  5.1

     negative rho (up, down):  5.022E-02 0.000E+00

     total cpu time spent up to now is      283.5 secs

     total energy              =   -2528.11599685 Ry
     estimated scf accuracy    <       0.01889225 Ry

     iteration #  5     ecut=    50.00 Ry     beta= 0.70
     Davidson diagonalization with overlap

---- Real-time Memory Report at c_bands before calling an iterative solver
           429 MiB given to the printing process from OS
           350 MiB allocation reported by mallinfo(arena+hblkhd)
         24289 MiB available memory on the node where the printing process lives
------------------
     c_bands:  1 eigenvalues not converged
     ethr =  9.84E-06,  avg # of iterations =  4.4

     negative rho (up, down):  4.827E-02 0.000E+00

     total cpu time spent up to now is      322.9 secs

     total energy              =   -2528.11790138 Ry
     estimated scf accuracy    <       0.00646451 Ry

     iteration #  6     ecut=    50.00 Ry     beta= 0.70
     Davidson diagonalization with overlap

---- Real-time Memory Report at c_bands before calling an iterative solver
           429 MiB given to the printing process from OS
           350 MiB allocation reported by mallinfo(arena+hblkhd)
         21653 MiB available memory on the node where the printing process lives
------------------
     ethr =  3.37E-06,  avg # of iterations =  3.8

     negative rho (up, down):  4.569E-02 0.000E+00

     total cpu time spent up to now is      362.4 secs

     total energy              =   -2528.11854392 Ry
     estimated scf accuracy    <       0.00100226 Ry

     iteration #  7     ecut=    50.00 Ry     beta= 0.70
     Davidson diagonalization with overlap

---- Real-time Memory Report at c_bands before calling an iterative solver
           429 MiB given to the printing process from OS
           351 MiB allocation reported by mallinfo(arena+hblkhd)
         21530 MiB available memory on the node where the printing process lives
------------------
     c_bands:  1 eigenvalues not converged
     ethr =  5.22E-07,  avg # of iterations =  2.8

     negative rho (up, down):  4.491E-02 0.000E+00

     total cpu time spent up to now is      401.3 secs

     total energy              =   -2528.11872604 Ry
     estimated scf accuracy    <       0.00010696 Ry

     iteration #  8     ecut=    50.00 Ry     beta= 0.70
     Davidson diagonalization with overlap

---- Real-time Memory Report at c_bands before calling an iterative solver
           429 MiB given to the printing process from OS
           352 MiB allocation reported by mallinfo(arena+hblkhd)
         21602 MiB available memory on the node where the printing process lives
------------------
     ethr =  5.57E-08,  avg # of iterations =  4.4

     negative rho (up, down):  4.478E-02 0.000E+00

     total cpu time spent up to now is      445.6 secs

     total energy              =   -2528.11872447 Ry
     estimated scf accuracy    <       0.00025574 Ry

     iteration #  9     ecut=    50.00 Ry     beta= 0.70
     Davidson diagonalization with overlap

---- Real-time Memory Report at c_bands before calling an iterative solver
           430 MiB given to the printing process from OS
           353 MiB allocation reported by mallinfo(arena+hblkhd)
         21025 MiB available memory on the node where the printing process lives
------------------
     ethr =  5.57E-08,  avg # of iterations =  3.3

     negative rho (up, down):  4.456E-02 0.000E+00

     total cpu time spent up to now is      485.1 secs

     total energy              =   -2528.11875558 Ry
     estimated scf accuracy    <       0.00005296 Ry

     iteration # 10     ecut=    50.00 Ry     beta= 0.70
     Davidson diagonalization with overlap

---- Real-time Memory Report at c_bands before calling an iterative solver
           430 MiB given to the printing process from OS
           354 MiB allocation reported by mallinfo(arena+hblkhd)
         20761 MiB available memory on the node where the printing process lives
------------------
     ethr =  2.76E-08,  avg # of iterations =  2.0

     negative rho (up, down):  4.446E-02 0.000E+00

     total cpu time spent up to now is      520.8 secs

     total energy              =   -2528.11875973 Ry
     estimated scf accuracy    <       0.00000904 Ry

     iteration # 11     ecut=    50.00 Ry     beta= 0.70
     Davidson diagonalization with overlap

---- Real-time Memory Report at c_bands before calling an iterative solver
           431 MiB given to the printing process from OS
           354 MiB allocation reported by mallinfo(arena+hblkhd)
         21764 MiB available memory on the node where the printing process lives
------------------
     ethr =  4.71E-09,  avg # of iterations =  2.1

     negative rho (up, down):  4.436E-02 0.000E+00

     total cpu time spent up to now is      559.8 secs

     total energy              =   -2528.11876114 Ry
     estimated scf accuracy    <       0.00000189 Ry

     iteration # 12     ecut=    50.00 Ry     beta= 0.70
     Davidson diagonalization with overlap

---- Real-time Memory Report at c_bands before calling an iterative solver
           432 MiB given to the printing process from OS
           354 MiB allocation reported by mallinfo(arena+hblkhd)
         23538 MiB available memory on the node where the printing process lives
------------------
     ethr =  9.84E-10,  avg # of iterations =  2.0

     negative rho (up, down):  4.433E-02 0.000E+00

     total cpu time spent up to now is      595.2 secs

     total energy              =   -2528.11876141 Ry
     estimated scf accuracy    <       0.00000004 Ry

     iteration # 13     ecut=    50.00 Ry     beta= 0.70
     Davidson diagonalization with overlap

---- Real-time Memory Report at c_bands before calling an iterative solver
           432 MiB given to the printing process from OS
           354 MiB allocation reported by mallinfo(arena+hblkhd)
         19417 MiB available memory on the node where the printing process lives
------------------
     ethr =  2.21E-11,  avg # of iterations =  5.3

     negative rho (up, down):  4.432E-02 0.000E+00

     total cpu time spent up to now is      647.5 secs

     total energy              =   -2528.11876142 Ry
     estimated scf accuracy    <       0.00000010 Ry

     iteration # 14     ecut=    50.00 Ry     beta= 0.70
     Davidson diagonalization with overlap

---- Real-time Memory Report at c_bands before calling an iterative solver
           433 MiB given to the printing process from OS
           354 MiB allocation reported by mallinfo(arena+hblkhd)
         21337 MiB available memory on the node where the printing process lives
------------------
     ethr =  2.21E-11,  avg # of iterations =  2.1

     negative rho (up, down):  4.432E-02 0.000E+00

     total cpu time spent up to now is      686.5 secs

     total energy              =   -2528.11876143 Ry
     estimated scf accuracy    <       0.00000002 Ry

     iteration # 15     ecut=    50.00 Ry     beta= 0.70
     Davidson diagonalization with overlap

---- Real-time Memory Report at c_bands before calling an iterative solver
           433 MiB given to the printing process from OS
           354 MiB allocation reported by mallinfo(arena+hblkhd)
         23699 MiB available memory on the node where the printing process lives
------------------
     ethr =  1.12E-11,  avg # of iterations =  2.2

     negative rho (up, down):  4.433E-02 0.000E+00

     total cpu time spent up to now is      723.7 secs

     total energy              =   -2528.11876143 Ry
     estimated scf accuracy    <          3.8E-09 Ry

     iteration # 16     ecut=    50.00 Ry     beta= 0.70
     Davidson diagonalization with overlap

---- Real-time Memory Report at c_bands before calling an iterative solver
           433 MiB given to the printing process from OS
           354 MiB allocation reported by mallinfo(arena+hblkhd)
         19788 MiB available memory on the node where the printing process lives
------------------
     ethr =  1.97E-12,  avg # of iterations =  3.9

     negative rho (up, down):  4.432E-02 0.000E+00

     total cpu time spent up to now is      767.0 secs

     total energy              =   -2528.11876143 Ry
     estimated scf accuracy    <       0.00000001 Ry

     iteration # 17     ecut=    50.00 Ry     beta= 0.70
     Davidson diagonalization with overlap

---- Real-time Memory Report at c_bands before calling an iterative solver
           433 MiB given to the printing process from OS
           354 MiB allocation reported by mallinfo(arena+hblkhd)
         20692 MiB available memory on the node where the printing process lives
------------------
     ethr =  1.97E-12,  avg # of iterations =  2.5

     negative rho (up, down):  4.432E-02 0.000E+00

     total cpu time spent up to now is      805.7 secs

     total energy              =   -2528.11876143 Ry
     estimated scf accuracy    <          1.2E-09 Ry

     iteration # 18     ecut=    50.00 Ry     beta= 0.70
     Davidson diagonalization with overlap

---- Real-time Memory Report at c_bands before calling an iterative solver
           433 MiB given to the printing process from OS
           354 MiB allocation reported by mallinfo(arena+hblkhd)
         19929 MiB available memory on the node where the printing process lives
------------------
     ethr =  6.08E-13,  avg # of iterations =  2.0

     negative rho (up, down):  4.432E-02 0.000E+00

     total cpu time spent up to now is      840.3 secs

     total energy              =   -2528.11876143 Ry
     estimated scf accuracy    <          2.8E-10 Ry

     iteration # 19     ecut=    50.00 Ry     beta= 0.70
     Davidson diagonalization with overlap

---- Real-time Memory Report at c_bands before calling an iterative solver
           433 MiB given to the printing process from OS
           354 MiB allocation reported by mallinfo(arena+hblkhd)
         19065 MiB available memory on the node where the printing process lives
------------------
     ethr =  1.47E-13,  avg # of iterations =  2.0

     negative rho (up, down):  4.432E-02 0.000E+00

     total cpu time spent up to now is      878.3 secs

     total energy              =   -2528.11876143 Ry
     estimated scf accuracy    <          8.6E-11 Ry

     iteration # 20     ecut=    50.00 Ry     beta= 0.70
     Davidson diagonalization with overlap

---- Real-time Memory Report at c_bands before calling an iterative solver
           433 MiB given to the printing process from OS
           354 MiB allocation reported by mallinfo(arena+hblkhd)
         18350 MiB available memory on the node where the printing process lives
------------------
     ethr =  1.00E-13,  avg # of iterations =  2.2

     negative rho (up, down):  4.432E-02 0.000E+00

     total cpu time spent up to now is      920.1 secs

     total energy              =   -2528.11876143 Ry
     estimated scf accuracy    <          6.6E-12 Ry

     iteration # 21     ecut=    50.00 Ry     beta= 0.70
     Davidson diagonalization with overlap

---- Real-time Memory Report at c_bands before calling an iterative solver
           434 MiB given to the printing process from OS
           354 MiB allocation reported by mallinfo(arena+hblkhd)
         18360 MiB available memory on the node where the printing process lives
------------------
     ethr =  1.00E-13,  avg # of iterations =  1.0

     negative rho (up, down):  4.432E-02 0.000E+00

     total cpu time spent up to now is      954.0 secs

     total energy              =   -2528.11876143 Ry
     estimated scf accuracy    <          2.4E-12 Ry

     iteration # 22     ecut=    50.00 Ry     beta= 0.70
     Davidson diagonalization with overlap

---- Real-time Memory Report at c_bands before calling an iterative solver
           435 MiB given to the printing process from OS
           354 MiB allocation reported by mallinfo(arena+hblkhd)
         21805 MiB available memory on the node where the printing process lives
------------------
     ethr =  1.00E-13,  avg # of iterations =  1.0

     negative rho (up, down):  4.432E-02 0.000E+00

     total cpu time spent up to now is      986.7 secs

     total energy              =   -2528.11876143 Ry
     estimated scf accuracy    <          1.2E-12 Ry

     iteration # 23     ecut=    50.00 Ry     beta= 0.70
     Davidson diagonalization with overlap

---- Real-time Memory Report at c_bands before calling an iterative solver
           436 MiB given to the printing process from OS
           354 MiB allocation reported by mallinfo(arena+hblkhd)
         18299 MiB available memory on the node where the printing process lives
------------------
     ethr =  1.00E-13,  avg # of iterations =  1.0

     negative rho (up, down):  4.432E-02 0.000E+00

     total cpu time spent up to now is     1019.8 secs

     total energy              =   -2528.11876143 Ry
     estimated scf accuracy    <          4.4E-13 Ry

     iteration # 24     ecut=    50.00 Ry     beta= 0.70
     Davidson diagonalization with overlap

---- Real-time Memory Report at c_bands before calling an iterative solver
           436 MiB given to the printing process from OS
           354 MiB allocation reported by mallinfo(arena+hblkhd)
         18393 MiB available memory on the node where the printing process lives
------------------
     ethr =  1.00E-13,  avg # of iterations =  1.0

     negative rho (up, down):  4.432E-02 0.000E+00

     total cpu time spent up to now is     1053.4 secs

     total energy              =   -2528.11876143 Ry
     estimated scf accuracy    <          7.4E-14 Ry

     iteration # 25     ecut=    50.00 Ry     beta= 0.70
     Davidson diagonalization with overlap

---- Real-time Memory Report at c_bands before calling an iterative solver
           436 MiB given to the printing process from OS
           354 MiB allocation reported by mallinfo(arena+hblkhd)
         21864 MiB available memory on the node where the printing process lives
------------------
     ethr =  1.00E-13,  avg # of iterations =  1.0

     negative rho (up, down):  4.432E-02 0.000E+00

     total cpu time spent up to now is     1084.7 secs

     total energy              =   -2528.11876143 Ry
     estimated scf accuracy    <          1.6E-14 Ry

     iteration # 26     ecut=    50.00 Ry     beta= 0.70
     Davidson diagonalization with overlap

---- Real-time Memory Report at c_bands before calling an iterative solver
           437 MiB given to the printing process from OS
           354 MiB allocation reported by mallinfo(arena+hblkhd)
         20644 MiB available memory on the node where the printing process lives
------------------
     ethr =  1.00E-13,  avg # of iterations =  1.0

     negative rho (up, down):  4.432E-02 0.000E+00

     total cpu time spent up to now is     1117.6 secs

     total energy              =   -2528.11876143 Ry
     estimated scf accuracy    <          4.1E-14 Ry

     iteration # 27     ecut=    50.00 Ry     beta= 0.70
     Davidson diagonalization with overlap

---- Real-time Memory Report at c_bands before calling an iterative solver
           437 MiB given to the printing process from OS
           354 MiB allocation reported by mallinfo(arena+hblkhd)
         23900 MiB available memory on the node where the printing process lives
------------------
     ethr =  1.00E-13,  avg # of iterations =  1.0

     negative rho (up, down):  4.432E-02 0.000E+00

     total cpu time spent up to now is     1150.7 secs

     total energy              =   -2528.11876143 Ry
     estimated scf accuracy    <          1.7E-14 Ry

     iteration # 28     ecut=    50.00 Ry     beta= 0.70
     Davidson diagonalization with overlap

---- Real-time Memory Report at c_bands before calling an iterative solver
           437 MiB given to the printing process from OS
           354 MiB allocation reported by mallinfo(arena+hblkhd)
         18354 MiB available memory on the node where the printing process lives
------------------
     ethr =  1.00E-13,  avg # of iterations =  1.0

     negative rho (up, down):  4.432E-02 0.000E+00

     total cpu time spent up to now is     1184.2 secs

     total energy              =   -2528.11876143 Ry
     estimated scf accuracy    <          2.1E-15 Ry

     iteration # 29     ecut=    50.00 Ry     beta= 0.70
     Davidson diagonalization with overlap

---- Real-time Memory Report at c_bands before calling an iterative solver
           437 MiB given to the printing process from OS
           354 MiB allocation reported by mallinfo(arena+hblkhd)
         18770 MiB available memory on the node where the printing process lives
------------------
     ethr =  1.00E-13,  avg # of iterations =  1.0

     negative rho (up, down):  4.432E-02 0.000E+00

     total cpu time spent up to now is     1217.6 secs

     total energy              =   -2528.11876143 Ry
     estimated scf accuracy    <          4.7E-16 Ry

     iteration # 30     ecut=    50.00 Ry     beta= 0.70
     Davidson diagonalization with overlap

---- Real-time Memory Report at c_bands before calling an iterative solver
           438 MiB given to the printing process from OS
           354 MiB allocation reported by mallinfo(arena+hblkhd)
         19529 MiB available memory on the node where the printing process lives
------------------
     ethr =  1.00E-13,  avg # of iterations =  1.0

     negative rho (up, down):  4.432E-02 0.000E+00

     total cpu time spent up to now is     1251.1 secs

     End of self-consistent calculation

          k = 0.0000 0.0000 0.0000 ( 42615 PWs)   bands (ev):

    -3.1912  -1.5016  -1.4994  -1.4994  -1.4992  -1.4991  -1.4989  -1.4989
    -1.4968  -0.9415  -0.9397  -0.9397  -0.9397  -0.9397  -0.9378   1.2742
     1.2764   1.2764   1.2772   1.2773   1.2773   1.2773   1.2773   1.2774
     1.2782   1.2782   1.2804   2.9047   2.9078   2.9078   2.9094   2.9095
     2.9096   2.9098   2.9098   2.9098   2.9098   2.9098   2.9098   2.9098
     2.9098   2.9099   2.9099   2.9099   2.9099   2.9101   2.9101   2.9102
     2.9119   2.9119   2.9149   3.3568   3.3568   3.3568   3.3568   3.5795
     3.5795   3.5795   3.5795   5.0306   5.0306   5.0306   6.3619   6.3619
     6.3619   7.1106   7.1106   7.1128   7.1128   7.1129   7.1129   7.1129
     7.1129   7.1130   7.1130   7.1150   7.1150   7.2026   7.2026   7.2036
     7.2045   7.2052   7.2054   7.2054   7.2054   7.2055   7.2055   7.2055
     7.2056   7.2056   7.2056   7.2056   7.2056   7.2057   7.2057   7.2058
     7.2059   7.2067   7.2076   7.2087   7.2087   8.1263   8.1284   8.1284
     8.1284   8.1284   8.1304   9.0816   9.0821   9.0821   9.0821   9.0822
     9.0827   9.2007   9.2010

     occupation numbers 
     1.0000   1.0000   1.0000   1.0000   1.0000   1.0000   1.0000   1.0000
     1.0000   1.0000   1.0000   1.0000   1.0000   1.0000   1.0000   1.0000
     1.0000   1.0000   1.0000   1.0000   1.0000   1.0000   1.0000   1.0000
     1.0000   1.0000   1.0000   1.0000   1.0000   1.0000   1.0000   1.0000
     1.0000   1.0000   1.0000   1.0000   1.0000   1.0000   1.0000   1.0000
     1.0000   1.0000   1.0000   1.0000   1.0000   1.0000   1.0000   1.0000
     1.0000   1.0000   1.0000   1.0000   1.0000   1.0000   1.0000   1.0000
     1.0000   1.0000   1.0000   1.0000   1.0000   1.0000   1.0000   1.0000
     1.0000   1.0000   1.0000   1.0000   1.0000   1.0000   1.0000   1.0000
     1.0000   1.0000   1.0000   1.0000   1.0000   1.0002   1.0002   1.0002
     1.0002   1.0002   1.0002   1.0002   1.0002   1.0002   1.0002   1.0002
     1.0002   1.0002   1.0002   1.0002   1.0002   1.0002   1.0002   1.0002
     1.0002   1.0002   1.0002   1.0002   1.0002   0.1051   0.1013   0.1013
     0.1013   0.1013   0.0975  -0.0000  -0.0000  -0.0000  -0.0000  -0.0000
    -0.0000  -0.0000  -0.0000

          k =-0.1179 0.1179-0.1179 ( 42480 PWs)   bands (ev):

    -3.1440  -2.0141  -1.6402  -1.6394  -1.6386  -1.2675  -1.2658  -1.2658
    -1.2657  -1.2656  -1.2639  -0.8929  -0.5224  -0.5215  -0.5207   0.5875
     0.5883   0.5892   1.3216   1.3225   1.3230   1.3230   1.3236   1.3244
     2.0493   2.0502   2.0509   2.0531   2.0539   2.0548   2.4126   2.4136
     2.4141   2.4142   2.4147   2.4153   2.4184   2.7766   2.7770   2.7773
     3.1304   3.1308   3.1311   3.1335   3.1337   3.1341   3.4898   3.4906
     3.4912   3.4912   3.4918   3.4926   3.8484   3.8492   3.8501   3.8915
     3.8918   3.8921   4.6014   4.7575   4.7577   4.7580   6.0197   6.0206
     6.0215   6.3749   6.3753   6.3757   6.5017   6.5023   6.5031   6.5031
     6.5039   6.5045   6.7211   6.7213   6.7216   7.0674   7.0676   7.0683
     7.0683   7.0690   7.0692   7.2044   7.2047   7.2054   7.2054   7.2062
     7.2064   7.4237   7.4240   7.4246   7.4246   7.4253   7.4255   8.1074
     8.1079   8.1083   8.2674   8.2682   8.2691   8.4052   8.4063   8.4067
     8.4067   8.4071   8.4082   8.4664   8.4673   8.4682   8.9662   8.9669
     8.9672   8.9676   8.9683

     occupation numbers 
     1.0000   1.0000   1.0000   1.0000   1.0000   1.0000   1.0000   1.0000
     1.0000   1.0000   1.0000   1.0000   1.0000   1.0000   1.0000   1.0000
     1.0000   1.0000   1.0000   1.0000   1.0000   1.0000   1.0000   1.0000
     1.0000   1.0000   1.0000   1.0000   1.0000   1.0000   1.0000   1.0000
     1.0000   1.0000   1.0000   1.0000   1.0000   1.0000   1.0000   1.0000
     1.0000   1.0000   1.0000   1.0000   1.0000   1.0000   1.0000   1.0000
     1.0000   1.0000   1.0000   1.0000   1.0000   1.0000   1.0000   1.0000
     1.0000   1.0000   1.0000   1.0000   1.0000   1.0000   1.0000   1.0000
     1.0000   1.0000   1.0000   1.0000   1.0000   1.0000   1.0000   1.0000
     1.0000   1.0000   1.0000   1.0000   1.0000   1.0000   1.0000   1.0000
     1.0000   1.0000   1.0000   1.0002   1.0002   1.0002   1.0002   1.0002
     1.0002   1.0071   1.0072   1.0072   1.0072   1.0073   1.0073   0.1423
     0.1414   0.1405  -0.0307  -0.0309  -0.0311  -0.0243  -0.0242  -0.0241
    -0.0241  -0.0240  -0.0238  -0.0145  -0.0144  -0.0143  -0.0000  -0.0000
    -0.0000  -0.0000  -0.0000

          k =-0.2357 0.2357-0.2357 ( 42445 PWs)   bands (ev):

    -3.0022  -2.4367  -1.6870  -1.6862  -1.6854  -1.5000  -1.4992  -1.4983
    -0.9403  -0.9395  -0.9387  -0.1966  -0.0137  -0.0123  -0.0121  -0.0117
    -0.0115  -0.0101   1.2742   1.2751   1.2759   1.4585   1.4595   1.4600
     1.4601   1.4606   1.4608   1.4621   2.0051   2.0059   2.0064   2.0064
     2.0070   2.0078   2.7330   2.7333   2.7337   2.9135   2.9140   2.9143
     2.9156   2.9163   2.9172   3.4374   3.4377   3.4380   4.1534   4.1542
     4.1548   4.1548   4.1554   4.1562   4.2808   4.2811   4.2814   4.3785
     4.3788   4.3792   4.7523   4.7531   4.7539   5.0264   5.0273   5.0281
     5.6246   5.6250   5.6253   5.6915   5.6922   5.6929   5.6929   5.6936
     5.6944   5.8073   7.0108   7.0111   7.0117   7.0118   7.0124   7.0126
     7.1102   7.1104   7.1112   7.1112   7.1119   7.1121   7.1238   7.1247
     7.1255   7.4563   7.4566   7.4570   7.7229   7.7232   7.7238   7.7238
     7.7245   7.7247   8.4590   8.5289   8.5293   8.5299   8.5299   8.5304
     8.5309   8.8691   8.8696   8.8701   8.8701   8.8707   8.8711   8.9902
     8.9908   8.9915   9.4754

     occupation numbers 
     1.0000   1.0000   1.0000   1.0000   1.0000   1.0000   1.0000   1.0000
     1.0000   1.0000   1.0000   1.0000   1.0000   1.0000   1.0000   1.0000
     1.0000   1.0000   1.0000   1.0000   1.0000   1.0000   1.0000   1.0000
     1.0000   1.0000   1.0000   1.0000   1.0000   1.0000   1.0000   1.0000
     1.0000   1.0000   1.0000   1.0000   1.0000   1.0000   1.0000   1.0000
     1.0000   1.0000   1.0000   1.0000   1.0000   1.0000   1.0000   1.0000
     1.0000   1.0000   1.0000   1.0000   1.0000   1.0000   1.0000   1.0000
     1.0000   1.0000   1.0000   1.0000   1.0000   1.0000   1.0000   1.0000
     1.0000   1.0000   1.0000   1.0000   1.0000   1.0000   1.0000   1.0000
     1.0000   1.0000   1.0000   1.0000   1.0000   1.0000   1.0000   1.0000
     1.0000   1.0000   1.0000   1.0000   1.0000   1.0000   1.0000   1.0000
     1.0000   1.0104   1.0105   1.0105   1.0170   1.0169   1.0165   1.0165
     1.0162   1.0160  -0.0156  -0.0073  -0.0073  -0.0072  -0.0072  -0.0072
    -0.0072  -0.0000  -0.0000  -0.0000  -0.0000  -0.0000  -0.0000  -0.0000
    -0.0000  -0.0000  -0.0000

          k = 0.3536-0.3536 0.3536 ( 42478 PWs)   bands (ev):

    -2.7667  -2.7660  -1.6411  -1.6395  -1.6394  -1.6394  -1.6393  -1.6377
    -0.5230  -0.5215  -0.5214  -0.5210  -0.5209  -0.5194   0.5852   0.5868
     0.5870   0.5871   0.5872   0.5880   0.5886   0.5897   1.6853   1.6869
     1.6877   1.6880   1.6880   1.6881   1.6881   1.6882   1.6882   1.6885
     1.6893   1.6909   2.7782   2.7785   2.7792   2.7793   2.7800   2.7803
     3.8244   3.8251   3.8252   3.8257   3.8258   3.8264   3.8593   3.8595
     3.8601   3.8604   3.8610   3.8612   4.8921   4.8926   4.8927   4.8937
     4.8938   4.8939   4.8939   4.8940   4.8941   4.8950   4.8951   4.8956
     4.9578   4.9578   4.9582   4.9587   4.9591   4.9591   5.9810   5.9815
     5.9820   5.9823   5.9828   5.9833   7.0289   7.0293   7.0304   7.0308
     7.0309   7.0309   7.0309   7.0309   7.0310   7.0314   7.0325   7.0329
     7.0943   7.0947   8.0953   8.0964   8.0967   8.0974   8.0974   8.0975
     8.0975   8.0976   8.0976   8.0983   8.0986   8.0997   8.3354   8.3361
     8.3361   8.3362   8.3362   8.3369   9.4227   9.4230   9.4233   9.4234
     9.4237   9.4239   9.4248

     occupation numbers 
     1.0000   1.0000   1.0000   1.0000   1.0000   1.0000   1.0000   1.0000
     1.0000   1.0000   1.0000   1.0000   1.0000   1.0000   1.0000   1.0000
     1.0000   1.0000   1.0000   1.0000   1.0000   1.0000   1.0000   1.0000
     1.0000   1.0000   1.0000   1.0000   1.0000   1.0000   1.0000   1.0000
     1.0000   1.0000   1.0000   1.0000   1.0000   1.0000   1.0000   1.0000
     1.0000   1.0000   1.0000   1.0000   1.0000   1.0000   1.0000   1.0000
     1.0000   1.0000   1.0000   1.0000   1.0000   1.0000   1.0000   1.0000
     1.0000   1.0000   1.0000   1.0000   1.0000   1.0000   1.0000   1.0000
     1.0000   1.0000   1.0000   1.0000   1.0000   1.0000   1.0000   1.0000
     1.0000   1.0000   1.0000   1.0000   1.0000   1.0000   1.0000   1.0000
     1.0000   1.0000   1.0000   1.0000   1.0000   1.0000   1.0000   1.0000
     1.0000   1.0000   0.1687   0.1663   0.1656   0.1641   0.1641   0.1639
     0.1637   0.1635   0.1635   0.1620   0.1613   0.1590  -0.0343  -0.0343
    -0.0343  -0.0343  -0.0343  -0.0342  -0.0000  -0.0000  -0.0000  -0.0000
    -0.0000  -0.0000  -0.0000

          k = 0.0000 0.2357 0.0000 ( 42447 PWs)   bands (ev):

    -3.1282  -1.8123  -1.8111  -1.8109  -1.8097  -1.6238  -1.0650  -1.0638
    -1.0635  -1.0624  -0.8790  -0.8776  -0.8776  -0.8762  -0.1357   0.6022
     0.6036   0.6036   0.6050   1.3374   1.3379   1.3390   1.3395   1.8835
     1.8847   1.8850   1.8862   2.0674   2.0689   2.0689   2.0703   2.6059
     2.6068   2.6077   2.6079   2.6079   2.6081   2.6089   2.6099   2.7930
     2.7935   2.7946   2.7952   3.3289   3.3298   3.3307   3.3308   3.3309
     3.3311   3.3319   3.3329   4.0340   4.0352   4.0355   4.0367   4.1625
     4.2580   4.2585   4.2596   4.2602   5.0883   5.0883   6.2086   6.2096
     6.2106   6.2107   6.2108   6.2109   6.2118   6.2127   6.2765   6.2780
     6.2780   6.2796   6.4228   6.4228   6.4758   6.4759   6.9063   6.9069
     6.9070   6.9076   7.1695   7.1708   7.1708   7.1722   7.3391   7.6195
     7.6201   7.6203   7.6209   7.7965   7.7965   7.8665   7.8665   8.2952
     8.2963   8.2973   8.2974   8.2975   8.2976   8.2985   8.2997   8.4127
     8.4133   8.4145   8.4152   8.5193   8.5205   8.5205   8.5218   8.5611
     8.5625   8.5625   8.5639

     occupation numbers 
     1.0000   1.0000   1.0000   1.0000   1.0000   1.0000   1.0000   1.0000
     1.0000   1.0000   1.0000   1.0000   1.0000   1.0000   1.0000   1.0000
     1.0000   1.0000   1.0000   1.0000   1.0000   1.0000   1.0000   1.0000
     1.0000   1.0000   1.0000   1.0000   1.0000   1.0000   1.0000   1.0000
     1.0000   1.0000   1.0000   1.0000   1.0000   1.0000   1.0000   1.0000
     1.0000   1.0000   1.0000   1.0000   1.0000   1.0000   1.0000   1.0000
     1.0000   1.0000   1.0000   1.0000   1.0000   1.0000   1.0000   1.0000
     1.0000   1.0000   1.0000   1.0000   1.0000   1.0000   1.0000   1.0000
     1.0000   1.0000   1.0000   1.0000   1.0000   1.0000   1.0000   1.0000
     1.0000   1.0000   1.0000   1.0000   1.0000   1.0000   1.0000   1.0000
     1.0000   1.0000   1.0001   1.0001   1.0001   1.0001   1.0022   1.0343
     1.0344   1.0344   1.0345   0.9470   0.9470   0.8152   0.8152  -0.0349
    -0.0350  -0.0351  -0.0351  -0.0351  -0.0351  -0.0351  -0.0352  -0.0231
    -0.0230  -0.0228  -0.0227  -0.0082  -0.0081  -0.0081  -0.0080  -0.0049
    -0.0048  -0.0048  -0.0047

          k =-0.1179 0.3536-0.1179 ( 42432 PWs)   bands (ev):

    -3.0180  -2.2644  -1.8899  -1.8891  -1.8883  -1.5147  -1.1422  -1.1414
    -1.1406  -0.7695  -0.7683  -0.3986  -0.3976  -0.3969  -0.0276  -0.0264
     0.3412   0.7101   0.7110   0.7117   1.0775   1.4435   1.4446   1.4451
     1.4456   1.8063   1.8075   1.8099   1.8117   2.1713   2.1718   2.1740
     2.1750   2.1758   2.5385   2.5389   2.8896   2.8901   2.8971   2.8982
     2.9004   2.9016   3.2506   3.2517   3.2533   3.2578   3.2583   3.5864
     3.9687   3.9692   4.0120   4.3017   4.3133   4.3145   4.6558   4.6571
     4.7201   4.7206   4.8746   4.8749   4.9987   5.0882   5.0895   5.3666
     5.3679   5.4315   5.4320   5.4353   5.7942   5.9249   5.9253   6.0603
     6.0615   6.1315   6.1321   6.4854   6.4867   6.6437   6.6449   6.8262
     6.8268   6.8408   6.8412   6.8493   7.1597   7.3316   7.3324   7.6846
     7.6858   7.7986   7.7994   7.8436   7.8649   7.8655   7.8970   7.8976
     8.1104   8.1355   8.1356   8.1994   8.2007   8.3840   8.3847   8.5579
     8.5585   8.5691   8.6504   8.6512   8.8884   8.9393   8.9678   9.2183
     9.2190   9.2319   9.2335

     occupation numbers 
     1.0000   1.0000   1.0000   1.0000   1.0000   1.0000   1.0000   1.0000
     1.0000   1.0000   1.0000   1.0000   1.0000   1.0000   1.0000   1.0000
     1.0000   1.0000   1.0000   1.0000   1.0000   1.0000   1.0000   1.0000
     1.0000   1.0000   1.0000   1.0000   1.0000   1.0000   1.0000   1.0000
     1.0000   1.0000   1.0000   1.0000   1.0000   1.0000   1.0000   1.0000
     1.0000   1.0000   1.0000   1.0000   1.0000   1.0000   1.0000   1.0000
     1.0000   1.0000   1.0000   1.0000   1.0000   1.0000   1.0000   1.0000
     1.0000   1.0000   1.0000   1.0000   1.0000   1.0000   1.0000   1.0000
     1.0000   1.0000   1.0000   1.0000   1.0000   1.0000   1.0000   1.0000
     1.0000   1.0000   1.0000   1.0000   1.0000   1.0000   1.0000   1.0000
     1.0000   1.0000   1.0000   1.0000   1.0001   1.0020   1.0020   1.0313
     1.0311   0.9439   0.9428   0.8654   0.8190   0.8176   0.7382   0.7366
     0.1361   0.0887   0.0885   0.0060   0.0048  -0.0279  -0.0278  -0.0051
    -0.0050  -0.0044  -0.0013  -0.0013  -0.0000  -0.0000  -0.0000  -0.0000
    -0.0000  -0.0000  -0.0000

          k = 0.4714-0.2357 0.4714 ( 42450 PWs)   bands (ev):

    -2.8135  -2.6250  -2.0610  -1.8740  -1.8729  -1.3130  -1.3118  -1.1263
    -1.1253  -0.5682  -0.5670  -0.3826  -0.3814   0.1718   0.1729   0.1738
     0.3572   0.3582   0.9079   0.9090   0.9101   0.9111   1.0909   1.0920
     1.0931   1.0943   1.6428   1.6433   1.8236   1.8241   1.8261   2.3700
     2.3712   2.3721   2.3726   2.5517   2.5529   3.0772   3.0966   3.2573
     3.2578   3.2728   3.2733   3.7069   3.8153   3.8165   3.9478   3.9760
     3.9772   3.9908   3.9920   4.4585   4.4590   4.5120   4.5132   4.6360
     4.6861   4.6866   4.7052   4.7366   4.7371   5.1665   5.1670   5.2698
     5.2703   5.3389   5.3402   5.4292   5.4304   5.7809   5.7820   5.9587
     6.0398   6.0411   6.0723   6.1374   6.1379   6.1594   6.5961   6.5973
     6.6952   6.8232   6.8239   6.8429   6.8441   7.2948   7.2955   7.3746
     7.3752   7.5791   7.6301   7.6306   7.7873   7.9160   7.9167   8.0019
     8.0025   8.1613   8.1627   8.2538   8.2544   8.4411   8.4412   8.5764
     8.5773   8.7850   8.8759   8.8766   8.9792   8.9846   9.0870   9.0876
     9.1428   9.1435   9.2813

     occupation numbers 
     1.0000   1.0000   1.0000   1.0000   1.0000   1.0000   1.0000   1.0000
     1.0000   1.0000   1.0000   1.0000   1.0000   1.0000   1.0000   1.0000
     1.0000   1.0000   1.0000   1.0000   1.0000   1.0000   1.0000   1.0000
     1.0000   1.0000   1.0000   1.0000   1.0000   1.0000   1.0000   1.0000
     1.0000   1.0000   1.0000   1.0000   1.0000   1.0000   1.0000   1.0000
     1.0000   1.0000   1.0000   1.0000   1.0000   1.0000   1.0000   1.0000
     1.0000   1.0000   1.0000   1.0000   1.0000   1.0000   1.0000   1.0000
     1.0000   1.0000   1.0000   1.0000   1.0000   1.0000   1.0000   1.0000
     1.0000   1.0000   1.0000   1.0000   1.0000   1.0000   1.0000   1.0000
     1.0000   1.0000   1.0000   1.0000   1.0000   1.0000   1.0000   1.0000
     1.0000   1.0000   1.0000   1.0000   1.0000   1.0011   1.0011   1.0038
     1.0038   1.0292   1.0351   1.0351   0.9594   0.6858   0.6835   0.4242
     0.4222   0.0488   0.0470  -0.0267  -0.0269  -0.0184  -0.0184  -0.0040
    -0.0039  -0.0001  -0.0000  -0.0000  -0.0000  -0.0000  -0.0000  -0.0000
    -0.0000  -0.0000  -0.0000

          k = 0.3536-0.1179 0.3536 ( 42424 PWs)   bands (ev):

    -2.8921  -2.5151  -2.1392  -1.7648  -1.7636  -1.3908  -1.3896  -1.0178
    -1.0172  -1.0164  -0.6450  -0.2744  -0.2737   0.0955   0.0964   0.0971
     0.4636   0.4648   0.8317   0.8328   0.8331   0.8343   1.1992   1.2003
     1.2015   1.5632   1.5659   1.5664   1.9313   1.9318   1.9330   2.2951
     2.2959   2.2960   2.2968   2.6484   2.6557   2.6569   3.0207   3.0219
     3.3718   3.3722   3.7058   3.7062   3.7272   3.7307   3.7319   3.7420
     4.0638   4.0642   4.0866   4.1324   4.1329   4.4206   4.4211   4.4932
     4.7767   4.7779   4.7961   4.7973   4.8417   4.9916   5.1163   5.1175
     5.4712   5.4716   5.5243   5.5256   5.5534   5.9051   5.9057   5.9061
     5.9065   6.0357   6.0370   6.2274   6.2279   6.2665   6.5699   6.5712
     6.8855   6.8862   6.9582   6.9594   6.9600   7.1023   7.2709   7.2715
     7.2761   7.2774   7.6259   7.6265   7.9392   7.9398   8.0334   8.1024
     8.1032   8.1366   8.1379   8.2257   8.2263   8.5104   8.5112   8.6843
     8.6850   8.9923   8.9926   9.0287   9.0300   9.0760   9.1113   9.1115
     9.1657   9.1985   9.1993

     occupation numbers 
     1.0000   1.0000   1.0000   1.0000   1.0000   1.0000   1.0000   1.0000
     1.0000   1.0000   1.0000   1.0000   1.0000   1.0000   1.0000   1.0000
     1.0000   1.0000   1.0000   1.0000   1.0000   1.0000   1.0000   1.0000
     1.0000   1.0000   1.0000   1.0000   1.0000   1.0000   1.0000   1.0000
     1.0000   1.0000   1.0000   1.0000   1.0000   1.0000   1.0000   1.0000
     1.0000   1.0000   1.0000   1.0000   1.0000   1.0000   1.0000   1.0000
     1.0000   1.0000   1.0000   1.0000   1.0000   1.0000   1.0000   1.0000
     1.0000   1.0000   1.0000   1.0000   1.0000   1.0000   1.0000   1.0000
     1.0000   1.0000   1.0000   1.0000   1.0000   1.0000   1.0000   1.0000
     1.0000   1.0000   1.0000   1.0000   1.0000   1.0000   1.0000   1.0000
     1.0000   1.0000   1.0000   1.0000   1.0000   1.0000   1.0007   1.0008
     1.0008   1.0008   1.0348   1.0349   0.6176   0.6156   0.3299   0.1531
     0.1512   0.0869   0.0846  -0.0135  -0.0138  -0.0091  -0.0090  -0.0007
    -0.0007  -0.0000  -0.0000  -0.0000  -0.0000  -0.0000  -0.0000  -0.0000
    -0.0000  -0.0000  -0.0000

          k = 0.2357-0.0000 0.2357 ( 42446 PWs)   bands (ev):

    -3.0652  -2.1235  -2.1235  -1.5621  -1.5609  -1.3757  -1.3747  -1.3745
    -1.3735  -0.8156  -0.8156  -0.6295  -0.6295  -0.0747  -0.0737  -0.0727
     0.6642   0.6647   0.6654   0.6658   1.3988   1.3993   1.5792   1.5802
     1.5804   1.5814   2.1286   2.1292   2.1298   2.1300   2.1307   2.1312
     2.3049   2.3051   2.3097   2.3099   2.3101   2.3105   2.8559   3.0298
     3.0299   3.0311   3.0311   3.4735   3.4735   3.7026   3.7026   3.7368
     3.7371   3.7373   3.7376   3.7474   3.7474   4.2216   4.2221   4.4473
     4.4482   4.4485   4.4494   5.0335   5.0335   5.1461   5.2127   5.2127
     5.6367   5.6379   5.9170   5.9170   5.9182   5.9182   6.2346   6.2346
     6.4601   6.4601   6.4833   6.5331   6.5344   6.6248   6.6253   6.6254
     6.6258   7.0080   7.0089   7.3092   7.3097   7.3098   7.3104   7.3979
     7.3983   7.7688   7.7692   7.7700   7.7705   7.9233   7.9244   7.9256
     7.9850   7.9858   7.9908   7.9912   7.9915   7.9918   8.6597   8.6609
     8.7118   8.7118   8.7130   8.7131   9.1725   9.1730   9.1731   9.1736
     9.2419   9.2419   9.3169

     occupation numbers 
     1.0000   1.0000   1.0000   1.0000   1.0000   1.0000   1.0000   1.0000
     1.0000   1.0000   1.0000   1.0000   1.0000   1.0000   1.0000   1.0000
     1.0000   1.0000   1.0000   1.0000   1.0000   1.0000   1.0000   1.0000
     1.0000   1.0000   1.0000   1.0000   1.0000   1.0000   1.0000   1.0000
     1.0000   1.0000   1.0000   1.0000   1.0000   1.0000   1.0000   1.0000
     1.0000   1.0000   1.0000   1.0000   1.0000   1.0000   1.0000   1.0000
     1.0000   1.0000   1.0000   1.0000   1.0000   1.0000   1.0000   1.0000
     1.0000   1.0000   1.0000   1.0000   1.0000   1.0000   1.0000   1.0000
     1.0000   1.0000   1.0000   1.0000   1.0000   1.0000   1.0000   1.0000
     1.0000   1.0000   1.0000   1.0000   1.0000   1.0000   1.0000   1.0000
     1.0000   1.0000   1.0000   1.0014   1.0014   1.0014   1.0014   1.0051
     1.0052   0.9810   0.9805   0.9798   0.9792   0.6646   0.6613   0.6580
     0.4763   0.4738   0.4584   0.4571   0.4562   0.4553  -0.0011  -0.0011
    -0.0005  -0.0005  -0.0004  -0.0004  -0.0000  -0.0000  -0.0000  -0.0000
    -0.0000  -0.0000  -0.0000

          k = 0.0000 0.4714 0.0000 ( 42478 PWs)   bands (ev):

    -2.9393  -2.1861  -1.9998  -1.9986  -1.9983  -1.9971  -0.6931  -0.6916
    -0.6916  -0.6902  -0.5070  -0.5058  -0.5056  -0.5044   0.0485   0.0499
     0.0499   0.0514   0.7855   0.9697   0.9709   0.9712   0.9724   1.5206
     1.5211   1.5222   1.5227   2.2505   2.2510   2.2521   2.2526   2.4244
     2.4253   2.4262   2.4263   2.4264   2.4265   2.4274   2.4283   2.9569
     2.9739   2.9753   2.9753   2.9768   3.8650   3.8660   3.8668   3.8670
     3.8670   3.8672   3.8680   3.8690   5.1043   5.1059   5.1059   5.1073
     5.1502   5.1507   5.1519   5.1524   5.2203   5.2215   5.2218   5.2231
     5.2616   5.2616   5.3259   5.3267   5.3277   5.3278   5.3279   5.3280
     5.3290   5.3298   5.9551   5.9551   6.6045   6.6045   6.7172   6.7179
     6.7179   6.7186   7.2569   7.2575   7.2587   7.2592   7.3120   7.3120
     7.3433   7.3447   7.3447   7.3460   8.0390   8.0404   8.0404   8.0418
     8.1505   8.1511   8.1513   8.1519   8.4646   8.4656   8.4660   8.4670
     8.7369   8.7369   8.7967   8.7979   8.7979   8.7990   8.8718   9.4412
     9.4419   9.4428   9.4435

     occupation numbers 
     1.0000   1.0000   1.0000   1.0000   1.0000   1.0000   1.0000   1.0000
     1.0000   1.0000   1.0000   1.0000   1.0000   1.0000   1.0000   1.0000
     1.0000   1.0000   1.0000   1.0000   1.0000   1.0000   1.0000   1.0000
     1.0000   1.0000   1.0000   1.0000   1.0000   1.0000   1.0000   1.0000
     1.0000   1.0000   1.0000   1.0000   1.0000   1.0000   1.0000   1.0000
     1.0000   1.0000   1.0000   1.0000   1.0000   1.0000   1.0000   1.0000
     1.0000   1.0000   1.0000   1.0000   1.0000   1.0000   1.0000   1.0000
     1.0000   1.0000   1.0000   1.0000   1.0000   1.0000   1.0000   1.0000
     1.0000   1.0000   1.0000   1.0000   1.0000   1.0000   1.0000   1.0000
     1.0000   1.0000   1.0000   1.0000   1.0000   1.0000   1.0000   1.0000
     1.0000   1.0000   1.0006   1.0006   1.0006   1.0006   1.0015   1.0015
     1.0024   1.0024   1.0024   1.0025   0.3137   0.3098   0.3098   0.3059
     0.0644   0.0635   0.0633   0.0624  -0.0148  -0.0147  -0.0146  -0.0145
    -0.0003  -0.0003  -0.0001  -0.0001  -0.0001  -0.0001  -0.0000  -0.0000
    -0.0000  -0.0000  -0.0000

          k = 0.5893-0.1179 0.5893 ( 42451 PWs)   bands (ev):

    -2.7663  -2.3901  -2.3893  -2.0147  -2.0135  -1.6394  -0.8936  -0.8924
    -0.5219  -0.5212  -0.5206  -0.1519  -0.1506  -0.1505  -0.1493   0.2181
     0.2191   0.2195   0.2203   0.5875   0.5887   0.9560   0.9566   1.3192
     1.3236   1.6845   1.6856   1.6891   1.6896   2.0499   2.0504   2.0541
     2.0546   2.4065   2.4179   2.7689   2.7694   2.7801   3.1303   3.1315
     3.1387   3.1399   3.4978   3.4990   3.8461   3.8466   3.8592   3.8604
     4.2028   4.2040   4.2094   4.2106   4.5513   4.5518   4.6109   4.6114
     4.9216   4.9229   4.9562   4.9608   4.9620   5.1084   5.1088   5.3183
     5.3188   5.4580   5.4588   5.4592   5.6227   5.6595   5.6607   5.6694
     5.6700   5.8021   5.8034   6.0149   6.1814   6.3821   6.6768   6.6776
     6.7249   6.7255   6.8689   6.8700   7.0780   7.0784   7.2181   7.2192
     7.3276   7.4252   7.4256   7.4338   7.4406   7.5666   7.5673   7.8838
     7.8846   7.9133   7.9172   7.9179   8.1475   8.2195   8.4857   8.4863
     8.9134   8.9141   8.9823   8.9826   9.1891   9.1897   9.2781   9.2787
     9.3006   9.3019   9.5258

     occupation numbers 
     1.0000   1.0000   1.0000   1.0000   1.0000   1.0000   1.0000   1.0000
     1.0000   1.0000   1.0000   1.0000   1.0000   1.0000   1.0000   1.0000
     1.0000   1.0000   1.0000   1.0000   1.0000   1.0000   1.0000   1.0000
     1.0000   1.0000   1.0000   1.0000   1.0000   1.0000   1.0000   1.0000
     1.0000   1.0000   1.0000   1.0000   1.0000   1.0000   1.0000   1.0000
     1.0000   1.0000   1.0000   1.0000   1.0000   1.0000   1.0000   1.0000
     1.0000   1.0000   1.0000   1.0000   1.0000   1.0000   1.0000   1.0000
     1.0000   1.0000   1.0000   1.0000   1.0000   1.0000   1.0000   1.0000
     1.0000   1.0000   1.0000   1.0000   1.0000   1.0000   1.0000   1.0000
     1.0000   1.0000   1.0000   1.0000   1.0000   1.0000   1.0000   1.0000
     1.0000   1.0000   1.0000   1.0000   1.0000   1.0000   1.0003   1.0003
     1.0019   1.0073   1.0073   1.0081   1.0087   1.0272   1.0273   0.7728
     0.7708   0.6933   0.6821   0.6801   0.0690  -0.0096  -0.0120  -0.0119
    -0.0000  -0.0000  -0.0000  -0.0000  -0.0000  -0.0000  -0.0000  -0.0000
    -0.0000  -0.0000  -0.0000

          k = 0.4714-0.0000 0.4714 ( 42402 PWs)   bands (ev):

    -2.6878  -2.4995  -2.4995  -1.9365  -1.9353  -1.1880  -1.0027  -1.0017
    -1.0015  -1.0005  -0.4440  -0.4440   0.2955   0.2960   0.2967   0.2971
     0.4787   0.4801   0.4803   0.4805   0.4811   0.4822   1.0298   1.0309
     1.0330   1.0333   1.7628   1.7633   1.9408   1.9410   1.9472   1.9475
     1.9476   1.9480   3.1972   3.1977   3.2149   3.2153   3.2161   3.2166
     3.3911   3.3911   3.3922   3.3924   3.3944   3.3945   3.8235   3.8235
     3.9164   3.9176   4.0698   4.0698   4.6497   4.7539   4.7542   4.7544
     4.7547   4.8199   4.8200   4.8211   4.8212   4.8512   4.8513   5.2162
     5.2162   5.4923   5.4930   5.4934   6.0760   6.0765   6.0772   6.0777
     6.1858   6.1871   6.1886   6.1896   6.1899   6.1908   6.2729   6.2733
     6.2734   6.2738   6.7052   6.7062   6.8115   6.8115   6.8361   6.8811
     7.5901   7.5906   7.5907   7.5913   7.6813   7.6819   7.6917   7.6917
     7.9056   7.9060   7.9062   7.9066   8.3605   8.8992   8.8997   8.8998
     8.9003   8.9065   8.9684   8.9698   9.0308   9.0311   9.0314   9.0317
     9.0981   9.0987   9.3931

     occupation numbers 
     1.0000   1.0000   1.0000   1.0000   1.0000   1.0000   1.0000   1.0000
     1.0000   1.0000   1.0000   1.0000   1.0000   1.0000   1.0000   1.0000
     1.0000   1.0000   1.0000   1.0000   1.0000   1.0000   1.0000   1.0000
     1.0000   1.0000   1.0000   1.0000   1.0000   1.0000   1.0000   1.0000
     1.0000   1.0000   1.0000   1.0000   1.0000   1.0000   1.0000   1.0000
     1.0000   1.0000   1.0000   1.0000   1.0000   1.0000   1.0000   1.0000
     1.0000   1.0000   1.0000   1.0000   1.0000   1.0000   1.0000   1.0000
     1.0000   1.0000   1.0000   1.0000   1.0000   1.0000   1.0000   1.0000
     1.0000   1.0000   1.0000   1.0000   1.0000   1.0000   1.0000   1.0000
     1.0000   1.0000   1.0000   1.0000   1.0000   1.0000   1.0000   1.0000
     1.0000   1.0000   1.0000   1.0000   1.0000   1.0000   1.0000   1.0000
     1.0309   1.0310   1.0310   1.0311   1.0320   1.0319   1.0296   1.0296
     0.7148   0.7137   0.7131   0.7120  -0.0315  -0.0000  -0.0000  -0.0000
    -0.0000  -0.0000  -0.0000  -0.0000  -0.0000  -0.0000  -0.0000  -0.0000
    -0.0000  -0.0000  -0.0000

          k = 0.0000-0.7071 0.0000 ( 42394 PWs)   bands (ev):

    -2.6250  -2.6250  -2.0623  -2.0611  -2.0608  -2.0597  -0.3848  -0.3825
    -0.3822  -0.3822  -0.3822  -0.3822  -0.3819  -0.3796   0.1714   0.1724
     0.1730   0.1731   0.1733   0.1734   0.1740   0.1751   1.8191   1.8194
     1.8247   1.8253   1.8261   1.8263   1.8265   1.8266   1.8274   1.8284
     2.3638   2.3647   2.3656   2.3657   2.3658   2.3660   2.3668   2.3678
     3.9898   3.9901   3.9915   3.9915   3.9915   3.9915   3.9928   3.9931
     4.4043   4.4050   4.4054   4.4057   4.4057   4.4060   4.4064   4.4071
     4.6722   4.6723   4.6727   4.6732   4.6732   4.6737   4.6742   4.6742
     5.5504   5.5504   5.5504   5.5505   6.0693   6.0707   6.0709   6.0722
     6.1541   6.1548   6.1549   6.1550   6.1560   6.1562   6.1563   6.1570
     6.5965   6.5969   6.5974   6.5979   6.9038   6.9039   6.9039   6.9039
     7.5689   7.5696   7.5701   7.5707   7.6320   7.6343   7.6345   7.6345
     7.6345   7.6345   7.6347   7.6370   8.7967   8.7971   8.7972   8.7973
     8.7978   8.7980   8.7980   8.7985   9.1174   9.1191   9.1193   9.1193
     9.1193   9.1195   9.1204

     occupation numbers 
     1.0000   1.0000   1.0000   1.0000   1.0000   1.0000   1.0000   1.0000
     1.0000   1.0000   1.0000   1.0000   1.0000   1.0000   1.0000   1.0000
     1.0000   1.0000   1.0000   1.0000   1.0000   1.0000   1.0000   1.0000
     1.0000   1.0000   1.0000   1.0000   1.0000   1.0000   1.0000   1.0000
     1.0000   1.0000   1.0000   1.0000   1.0000   1.0000   1.0000   1.0000
     1.0000   1.0000   1.0000   1.0000   1.0000   1.0000   1.0000   1.0000
     1.0000   1.0000   1.0000   1.0000   1.0000   1.0000   1.0000   1.0000
     1.0000   1.0000   1.0000   1.0000   1.0000   1.0000   1.0000   1.0000
     1.0000   1.0000   1.0000   1.0000   1.0000   1.0000   1.0000   1.0000
     1.0000   1.0000   1.0000   1.0000   1.0000   1.0000   1.0000   1.0000
     1.0000   1.0000   1.0000   1.0000   1.0000   1.0000   1.0000   1.0000
     1.0276   1.0277   1.0278   1.0279   1.0352   1.0353   1.0353   1.0353
     1.0353   1.0353   1.0353   1.0354  -0.0001  -0.0001  -0.0001  -0.0001
    -0.0001  -0.0001  -0.0001  -0.0001  -0.0000  -0.0000  -0.0000  -0.0000
    -0.0000  -0.0000  -0.0000

          k = 0.4714-0.2357 0.7071 ( 42437 PWs)   bands (ev):

    -2.8764  -2.3114  -2.3114  -2.1235  -1.5615  -1.5615  -1.3746  -0.8155
    -0.8154  -0.6303  -0.6297  -0.6289  -0.0732  -0.0732   0.1105   0.1116
     0.1120   0.6644   0.6644   0.8465   0.8481   0.8491   0.8497   1.3967
     1.3972   1.3992   1.3997   1.5829   1.5830   2.1232   2.1232   2.3098
     2.3117   2.3120   2.8495   2.8496   2.8541   2.8542   3.0170   3.0342
     3.0343   3.0356   3.0357   3.5577   3.5577   3.5712   3.5713   3.7566
     4.1730   4.1730   4.3996   4.4332   4.4332   4.4539   4.4975   4.4975
     4.8692   4.8692   4.9306   4.9306   5.1085   5.1451   5.1451   5.1611
     5.1611   5.3193   5.5502   5.5502   5.7395   5.7395   5.8161   5.8161
     5.8671   5.9244   5.9245   6.0130   6.4300   6.4300   6.5402   6.5402
     6.6087   6.6087   6.6635   6.7074   7.1580   7.1580   7.2415   7.2415
     7.3191   7.4026   7.5743   7.7170   7.7170   8.0227   8.0227   8.0299
     8.0985   8.1718   8.2533   8.2583   8.2583   8.4637   8.4637   8.5709
     8.5709   8.7944   8.7953   8.8687   8.8687   8.8959   8.9290   9.0796
     9.0796   9.2415   9.2415

     occupation numbers 
     1.0000   1.0000   1.0000   1.0000   1.0000   1.0000   1.0000   1.0000
     1.0000   1.0000   1.0000   1.0000   1.0000   1.0000   1.0000   1.0000
     1.0000   1.0000   1.0000   1.0000   1.0000   1.0000   1.0000   1.0000
     1.0000   1.0000   1.0000   1.0000   1.0000   1.0000   1.0000   1.0000
     1.0000   1.0000   1.0000   1.0000   1.0000   1.0000   1.0000   1.0000
     1.0000   1.0000   1.0000   1.0000   1.0000   1.0000   1.0000   1.0000
     1.0000   1.0000   1.0000   1.0000   1.0000   1.0000   1.0000   1.0000
     1.0000   1.0000   1.0000   1.0000   1.0000   1.0000   1.0000   1.0000
     1.0000   1.0000   1.0000   1.0000   1.0000   1.0000   1.0000   1.0000
     1.0000   1.0000   1.0000   1.0000   1.0000   1.0000   1.0000   1.0000
     1.0000   1.0000   1.0000   1.0000   1.0001   1.0001   1.0004   1.0004
     1.0016   1.0055   1.0285   1.0201   1.0201   0.3613   0.3613   0.3399
     0.1615   0.0351  -0.0265  -0.0282  -0.0282  -0.0149  -0.0149  -0.0043
    -0.0043  -0.0001  -0.0001  -0.0000  -0.0000  -0.0000  -0.0000  -0.0000
    -0.0000  -0.0000  -0.0000

          k = 0.3536-0.1179 0.5893 ( 42430 PWs)   bands (ev):

    -2.6410  -2.6403  -2.2647  -2.2640  -1.5155  -1.5140  -1.1421  -1.1406
    -0.7694  -0.7686  -0.3977  -0.3974  -0.0275  -0.0272   0.3416   0.3421
     0.3426   0.3435   0.7091   0.7101   0.7112   0.7119   1.0767   1.0777
     1.0785   1.0792   1.4411   1.4415   1.4446   1.4462   2.5273   2.5276
     2.5349   2.5355   2.5378   2.5389   2.8998   2.8999   3.2590   3.2597
     3.2610   3.2611   3.6099   3.6109   3.6117   3.6124   3.9448   3.9449
     3.9777   3.9778   4.3023   4.3023   4.3274   4.3275   4.3701   4.3716
     4.6927   4.6928   5.0255   5.0262   5.0752   5.0756   5.2252   5.2254
     5.4226   5.4230   5.5749   5.5749   5.7347   5.7349   5.7610   5.7611
     6.1000   6.1002   6.1323   6.1339   6.2973   6.2979   6.4524   6.4527
     6.4988   6.4999   6.6366   6.6369   6.8052   6.8053   7.1869   7.1873
     7.2091   7.2096   7.4462   7.4469   7.5499   7.5504   7.9997   7.9997
     8.2558   8.2569   8.3333   8.3335   8.3797   8.3799   8.4525   8.4532
     8.6901   8.6906   8.7318   8.7319   8.7471   8.7474   8.9399   8.9400
     9.1394   9.1396   9.6150

     occupation numbers 
     1.0000   1.0000   1.0000   1.0000   1.0000   1.0000   1.0000   1.0000
     1.0000   1.0000   1.0000   1.0000   1.0000   1.0000   1.0000   1.0000
     1.0000   1.0000   1.0000   1.0000   1.0000   1.0000   1.0000   1.0000
     1.0000   1.0000   1.0000   1.0000   1.0000   1.0000   1.0000   1.0000
     1.0000   1.0000   1.0000   1.0000   1.0000   1.0000   1.0000   1.0000
     1.0000   1.0000   1.0000   1.0000   1.0000   1.0000   1.0000   1.0000
     1.0000   1.0000   1.0000   1.0000   1.0000   1.0000   1.0000   1.0000
     1.0000   1.0000   1.0000   1.0000   1.0000   1.0000   1.0000   1.0000
     1.0000   1.0000   1.0000   1.0000   1.0000   1.0000   1.0000   1.0000
     1.0000   1.0000   1.0000   1.0000   1.0000   1.0000   1.0000   1.0000
     1.0000   1.0000   1.0000   1.0000   1.0000   1.0000   1.0002   1.0002
     1.0002   1.0002   1.0093   1.0094   1.0244   1.0245   0.4308   0.4308
    -0.0274  -0.0277  -0.0345  -0.0345  -0.0286  -0.0286  -0.0166  -0.0165
    -0.0007  -0.0007  -0.0003  -0.0003  -0.0002  -0.0002  -0.0000  -0.0000
    -0.0000  -0.0000  -0.0000

          k =-0.2357-0.7071 0.0000 ( 42432 PWs)   bands (ev):

    -2.5622  -2.5622  -2.3740  -2.3740  -1.6238  -1.6238  -1.0637  -1.0637
    -0.3204  -0.3204  -0.3204  -0.3204  -0.1351  -0.1351  -0.1351  -0.1351
     0.4187   0.4187   0.6037   0.6037   0.6037   0.6037   1.1554   1.1554
     1.1554   1.1554   1.3362   1.3362   1.8802   1.8802   2.0625   2.0625
     2.6142   2.6142   2.6142   2.6142   2.7893   2.7893   3.3318   3.3318
     3.4978   3.4978   3.5130   3.5130   3.5130   3.5130   4.0506   4.0506
     4.0506   4.0506   4.2254   4.2254   4.2254   4.2254   4.6954   4.6954
     4.7651   4.7651   4.9707   4.9707   4.9707   4.9707   5.5025   5.5025
     5.5025   5.5025   5.6082   5.6082   5.6455   5.6455   5.6669   5.6669
     5.6669   5.6669   5.7817   5.7817   6.4758   6.4758   6.8307   6.8308
     6.8308   6.8308   6.9248   6.9248   6.9248   6.9248   6.9571   6.9571
     6.9970   6.9970   7.0772   7.0772   7.8072   7.8072   7.8072   7.8072
     7.8638   7.8638   7.8800   7.8800   7.9464   7.9464   8.3886   8.3886
     8.4750   8.4750   8.9606   8.9606   9.2595   9.2595   9.3702   9.3702
     9.7822   9.7822   9.8611

     occupation numbers 
     1.0000   1.0000   1.0000   1.0000   1.0000   1.0000   1.0000   1.0000
     1.0000   1.0000   1.0000   1.0000   1.0000   1.0000   1.0000   1.0000
     1.0000   1.0000   1.0000   1.0000   1.0000   1.0000   1.0000   1.0000
     1.0000   1.0000   1.0000   1.0000   1.0000   1.0000   1.0000   1.0000
     1.0000   1.0000   1.0000   1.0000   1.0000   1.0000   1.0000   1.0000
     1.0000   1.0000   1.0000   1.0000   1.0000   1.0000   1.0000   1.0000
     1.0000   1.0000   1.0000   1.0000   1.0000   1.0000   1.0000   1.0000
     1.0000   1.0000   1.0000   1.0000   1.0000   1.0000   1.0000   1.0000
     1.0000   1.0000   1.0000   1.0000   1.0000   1.0000   1.0000   1.0000
     1.0000   1.0000   1.0000   1.0000   1.0000   1.0000   1.0000   1.0000
     1.0000   1.0000   1.0000   1.0000   1.0000   1.0000   1.0000   1.0000
     1.0000   1.0000   1.0000   1.0000   0.9311   0.9311   0.9311   0.9311
     0.8215   0.8215   0.7825   0.7825   0.5958   0.5958  -0.0272  -0.0272
    -0.0134  -0.0134  -0.0000  -0.0000  -0.0000  -0.0000  -0.0000  -0.0000
    -0.0000  -0.0000  -0.0000

          k = 0.2357 0.0000 0.0000 ( 42447 PWs)   bands (ev):

    -3.1282  -1.8110  -1.8110  -1.8110  -1.8110  -1.6238  -1.0637  -1.0637
    -1.0637  -1.0637  -0.8776  -0.8776  -0.8776  -0.8776  -0.1356   0.6036
     0.6036   0.6036   0.6036   1.3384   1.3384   1.3384   1.3384   1.8848
     1.8848   1.8848   1.8848   2.0689   2.0689   2.0689   2.0689   2.6079
     2.6079   2.6079   2.6079   2.6079   2.6079   2.6079   2.6079   2.7941
     2.7941   2.7941   2.7941   3.3308   3.3308   3.3309   3.3309   3.3309
     3.3309   3.3309   3.3309   4.0353   4.0353   4.0353   4.0353   4.1625
     4.2591   4.2591   4.2591   4.2591   5.0883   5.0883   6.2106   6.2106
     6.2107   6.2107   6.2107   6.2107   6.2109   6.2109   6.2780   6.2780
     6.2780   6.2780   6.4228   6.4228   6.4759   6.4759   6.9070   6.9070
     6.9070   6.9070   7.1708   7.1708   7.1708   7.1708   7.3391   7.6202
     7.6202   7.6202   7.6202   7.7965   7.7965   7.8665   7.8665   8.2973
     8.2973   8.2974   8.2974   8.2974   8.2974   8.2976   8.2976   8.4139
     8.4139   8.4139   8.4139   8.5205   8.5205   8.5205   8.5206   8.5625
     8.5625   8.5625   8.5625

     occupation numbers 
     1.0000   1.0000   1.0000   1.0000   1.0000   1.0000   1.0000   1.0000
     1.0000   1.0000   1.0000   1.0000   1.0000   1.0000   1.0000   1.0000
     1.0000   1.0000   1.0000   1.0000   1.0000   1.0000   1.0000   1.0000
     1.0000   1.0000   1.0000   1.0000   1.0000   1.0000   1.0000   1.0000
     1.0000   1.0000   1.0000   1.0000   1.0000   1.0000   1.0000   1.0000
     1.0000   1.0000   1.0000   1.0000   1.0000   1.0000   1.0000   1.0000
     1.0000   1.0000   1.0000   1.0000   1.0000   1.0000   1.0000   1.0000
     1.0000   1.0000   1.0000   1.0000   1.0000   1.0000   1.0000   1.0000
     1.0000   1.0000   1.0000   1.0000   1.0000   1.0000   1.0000   1.0000
     1.0000   1.0000   1.0000   1.0000   1.0000   1.0000   1.0000   1.0000
     1.0000   1.0000   1.0001   1.0001   1.0001   1.0001   1.0022   1.0344
     1.0344   1.0344   1.0344   0.9470   0.9470   0.8152   0.8152  -0.0351
    -0.0351  -0.0351  -0.0351  -0.0351  -0.0351  -0.0351  -0.0351  -0.0229
    -0.0229  -0.0229  -0.0229  -0.0081  -0.0081  -0.0081  -0.0081  -0.0048
    -0.0048  -0.0048  -0.0048

          k = 0.3536-0.1179-0.1179 ( 42432 PWs)   bands (ev):

    -3.0180  -2.2644  -1.8896  -1.8891  -1.8886  -1.5147  -1.1419  -1.1414
    -1.1409  -0.7689  -0.7689  -0.3982  -0.3978  -0.3971  -0.0270  -0.0270
     0.3412   0.7106   0.7108   0.7113   1.0775   1.4435   1.4440   1.4454
     1.4459   1.8068   1.8069   1.8100   1.8115   2.1713   2.1715   2.1747
     2.1748   2.1756   2.5387   2.5387   2.8897   2.8898   2.8977   2.8977
     2.9009   2.9010   3.2511   3.2512   3.2533   3.2581   3.2581   3.5864
     3.9689   3.9689   4.0120   4.3018   4.3139   4.3139   4.6565   4.6565
     4.7203   4.7203   4.8747   4.8747   4.9986   5.0888   5.0888   5.3672
     5.3672   5.4318   5.4318   5.4353   5.7942   5.9251   5.9251   6.0609
     6.0609   6.1318   6.1318   6.4860   6.4860   6.6443   6.6443   6.8265
     6.8265   6.8410   6.8410   6.8493   7.1597   7.3320   7.3320   7.6852
     7.6852   7.7990   7.7990   7.8436   7.8651   7.8652   7.8973   7.8974
     8.1104   8.1356   8.1356   8.2001   8.2001   8.3844   8.3844   8.5582
     8.5582   8.5691   8.6508   8.6508   8.8884   8.9393   8.9678   9.2186
     9.2187   9.2326   9.2328

     occupation numbers 
     1.0000   1.0000   1.0000   1.0000   1.0000   1.0000   1.0000   1.0000
     1.0000   1.0000   1.0000   1.0000   1.0000   1.0000   1.0000   1.0000
     1.0000   1.0000   1.0000   1.0000   1.0000   1.0000   1.0000   1.0000
     1.0000   1.0000   1.0000   1.0000   1.0000   1.0000   1.0000   1.0000
     1.0000   1.0000   1.0000   1.0000   1.0000   1.0000   1.0000   1.0000
     1.0000   1.0000   1.0000   1.0000   1.0000   1.0000   1.0000   1.0000
     1.0000   1.0000   1.0000   1.0000   1.0000   1.0000   1.0000   1.0000
     1.0000   1.0000   1.0000   1.0000   1.0000   1.0000   1.0000   1.0000
     1.0000   1.0000   1.0000   1.0000   1.0000   1.0000   1.0000   1.0000
     1.0000   1.0000   1.0000   1.0000   1.0000   1.0000   1.0000   1.0000
     1.0000   1.0000   1.0000   1.0000   1.0001   1.0020   1.0020   1.0312
     1.0312   0.9434   0.9434   0.8654   0.8183   0.8183   0.7374   0.7374
     0.1360   0.0886   0.0886   0.0054   0.0054  -0.0278  -0.0278  -0.0051
    -0.0051  -0.0044  -0.0013  -0.0013  -0.0000  -0.0000  -0.0000  -0.0000
    -0.0000  -0.0000  -0.0000

          k =-0.2357 0.4714 0.4714 ( 42450 PWs)   bands (ev):

    -2.8135  -2.6250  -2.0610  -1.8735  -1.8734  -1.3124  -1.3124  -1.1263
    -1.1253  -0.5676  -0.5676  -0.3820  -0.3820   0.1726   0.1726   0.1733
     0.3570   0.3583   0.9076   0.9097   0.9101   0.9108   1.0914   1.0917
     1.0935   1.0937   1.6431   1.6431   1.8239   1.8240   1.8260   2.3703
     2.3705   2.3724   2.3726   2.5523   2.5523   3.0772   3.0966   3.2576
     3.2576   3.2730   3.2730   3.7069   3.8159   3.8159   3.9478   3.9766
     3.9766   3.9914   3.9915   4.4587   4.4587   4.5126   4.5126   4.6360
     4.6863   4.6863   4.7053   4.7368   4.7368   5.1668   5.1668   5.2701
     5.2701   5.3396   5.3396   5.4298   5.4298   5.7814   5.7814   5.9587
     6.0404   6.0404   6.0723   6.1377   6.1377   6.1594   6.5967   6.5967
     6.6952   6.8235   6.8235   6.8435   6.8435   7.2951   7.2951   7.3749
     7.3749   7.5791   7.6304   7.6304   7.7873   7.9163   7.9164   8.0022
     8.0022   8.1620   8.1620   8.2541   8.2541   8.4412   8.4412   8.5769
     8.5769   8.7850   8.8762   8.8762   8.9792   8.9846   9.0873   9.0873
     9.1431   9.1431   9.2813

     occupation numbers 
     1.0000   1.0000   1.0000   1.0000   1.0000   1.0000   1.0000   1.0000
     1.0000   1.0000   1.0000   1.0000   1.0000   1.0000   1.0000   1.0000
     1.0000   1.0000   1.0000   1.0000   1.0000   1.0000   1.0000   1.0000
     1.0000   1.0000   1.0000   1.0000   1.0000   1.0000   1.0000   1.0000
     1.0000   1.0000   1.0000   1.0000   1.0000   1.0000   1.0000   1.0000
     1.0000   1.0000   1.0000   1.0000   1.0000   1.0000   1.0000   1.0000
     1.0000   1.0000   1.0000   1.0000   1.0000   1.0000   1.0000   1.0000
     1.0000   1.0000   1.0000   1.0000   1.0000   1.0000   1.0000   1.0000
     1.0000   1.0000   1.0000   1.0000   1.0000   1.0000   1.0000   1.0000
     1.0000   1.0000   1.0000   1.0000   1.0000   1.0000   1.0000   1.0000
     1.0000   1.0000   1.0000   1.0000   1.0000   1.0011   1.0011   1.0038
     1.0038   1.0292   1.0351   1.0351   0.9594   0.6847   0.6846   0.4232
     0.4232   0.0479   0.0479  -0.0268  -0.0268  -0.0184  -0.0184  -0.0039
    -0.0039  -0.0001  -0.0000  -0.0000  -0.0000  -0.0000  -0.0000  -0.0000
    -0.0000  -0.0000  -0.0000

          k =-0.1179 0.3536 0.3536 ( 42424 PWs)   bands (ev):

    -2.8921  -2.5151  -2.1392  -1.7642  -1.7642  -1.3902  -1.3902  -1.0182
    -1.0171  -1.0160  -0.6450  -0.2748  -0.2732   0.0957   0.0963   0.0971
     0.4642   0.4642   0.8316   0.8324   0.8336   0.8344   1.1992   1.1998
     1.2020   1.5631   1.5661   1.5663   1.9313   1.9316   1.9331   2.2953
     2.2956   2.2963   2.2966   2.6484   2.6563   2.6563   3.0213   3.0213
     3.3720   3.3720   3.7060   3.7060   3.7271   3.7313   3.7313   3.7421
     4.0640   4.0640   4.0866   4.1326   4.1326   4.4208   4.4208   4.4932
     4.7772   4.7773   4.7967   4.7968   4.8417   4.9916   5.1169   5.1169
     5.4714   5.4714   5.5249   5.5250   5.5534   5.9055   5.9057   5.9060
     5.9063   6.0363   6.0363   6.2276   6.2276   6.2665   6.5706   6.5706
     6.8858   6.8858   6.9584   6.9595   6.9597   7.1023   7.2712   7.2712
     7.2767   7.2768   7.6262   7.6262   7.9395   7.9395   8.0334   8.1028
     8.1028   8.1372   8.1373   8.2260   8.2260   8.5108   8.5108   8.6846
     8.6846   8.9924   8.9924   9.0294   9.0294   9.0760   9.1114   9.1114
     9.1657   9.1988   9.1989

     occupation numbers 
     1.0000   1.0000   1.0000   1.0000   1.0000   1.0000   1.0000   1.0000
     1.0000   1.0000   1.0000   1.0000   1.0000   1.0000   1.0000   1.0000
     1.0000   1.0000   1.0000   1.0000   1.0000   1.0000   1.0000   1.0000
     1.0000   1.0000   1.0000   1.0000   1.0000   1.0000   1.0000   1.0000
     1.0000   1.0000   1.0000   1.0000   1.0000   1.0000   1.0000   1.0000
     1.0000   1.0000   1.0000   1.0000   1.0000   1.0000   1.0000   1.0000
     1.0000   1.0000   1.0000   1.0000   1.0000   1.0000   1.0000   1.0000
     1.0000   1.0000   1.0000   1.0000   1.0000   1.0000   1.0000   1.0000
     1.0000   1.0000   1.0000   1.0000   1.0000   1.0000   1.0000   1.0000
     1.0000   1.0000   1.0000   1.0000   1.0000   1.0000   1.0000   1.0000
     1.0000   1.0000   1.0000   1.0000   1.0000   1.0000   1.0007   1.0007
     1.0008   1.0008   1.0348   1.0348   0.6166   0.6166   0.3299   0.1522
     0.1521   0.0857   0.0857  -0.0137  -0.0137  -0.0091  -0.0091  -0.0007
    -0.0007  -0.0000  -0.0000  -0.0000  -0.0000  -0.0000  -0.0000  -0.0000
    -0.0000  -0.0000  -0.0000

          k =-0.0000 0.2357 0.2357 ( 42446 PWs)   bands (ev):

    -3.0652  -2.1243  -2.1228  -1.5615  -1.5615  -1.3758  -1.3748  -1.3743
    -1.3734  -0.8164  -0.8148  -0.6302  -0.6287  -0.0740  -0.0740  -0.0733
     0.6637   0.6647   0.6653   0.6663   1.3990   1.3990   1.5791   1.5800
     1.5805   1.5815   2.1283   2.1293   2.1296   2.1300   2.1308   2.1314
     2.3046   2.3053   2.3093   2.3093   2.3106   2.3110   2.8559   3.0301
     3.0302   3.0307   3.0309   3.4735   3.4735   3.7026   3.7026   3.7363
     3.7366   3.7379   3.7379   3.7471   3.7478   4.2218   4.2218   4.4471
     4.4481   4.4486   4.4496   5.0326   5.0343   5.1461   5.2120   5.2134
     5.6373   5.6373   5.9172   5.9173   5.9179   5.9180   6.2346   6.2346
     6.4601   6.4601   6.4833   6.5337   6.5338   6.6248   6.6251   6.6255
     6.6258   7.0085   7.0085   7.3088   7.3092   7.3104   7.3108   7.3981
     7.3981   7.7682   7.7692   7.7700   7.7710   7.9244   7.9245   7.9245
     7.9853   7.9855   7.9908   7.9911   7.9916   7.9918   8.6603   8.6603
     8.7119   8.7121   8.7127   8.7129   9.1720   9.1723   9.1738   9.1742
     9.2419   9.2419   9.3172

     occupation numbers 
     1.0000   1.0000   1.0000   1.0000   1.0000   1.0000   1.0000   1.0000
     1.0000   1.0000   1.0000   1.0000   1.0000   1.0000   1.0000   1.0000
     1.0000   1.0000   1.0000   1.0000   1.0000   1.0000   1.0000   1.0000
     1.0000   1.0000   1.0000   1.0000   1.0000   1.0000   1.0000   1.0000
     1.0000   1.0000   1.0000   1.0000   1.0000   1.0000   1.0000   1.0000
     1.0000   1.0000   1.0000   1.0000   1.0000   1.0000   1.0000   1.0000
     1.0000   1.0000   1.0000   1.0000   1.0000   1.0000   1.0000   1.0000
     1.0000   1.0000   1.0000   1.0000   1.0000   1.0000   1.0000   1.0000
     1.0000   1.0000   1.0000   1.0000   1.0000   1.0000   1.0000   1.0000
     1.0000   1.0000   1.0000   1.0000   1.0000   1.0000   1.0000   1.0000
     1.0000   1.0000   1.0000   1.0014   1.0014   1.0014   1.0014   1.0052
     1.0052   0.9816   0.9805   0.9797   0.9786   0.6615   0.6611   0.6611
     0.4753   0.4749   0.4584   0.4573   0.4559   0.4553  -0.0011  -0.0011
    -0.0005  -0.0005  -0.0004  -0.0004  -0.0000  -0.0000  -0.0000  -0.0000
    -0.0000  -0.0000  -0.0000

          k = 0.4714 0.0000 0.0000 ( 42478 PWs)   bands (ev):

    -2.9393  -2.1861  -1.9984  -1.9984  -1.9984  -1.9984  -0.6917  -0.6916
    -0.6916  -0.6916  -0.5057  -0.5057  -0.5057  -0.5057   0.0499   0.0499
     0.0499   0.0499   0.7855   0.9710   0.9710   0.9710   0.9710   1.5216
     1.5216   1.5216   1.5216   2.2515   2.2516   2.2516   2.2516   2.4263
     2.4263   2.4263   2.4263   2.4263   2.4263   2.4263   2.4263   2.9568
     2.9753   2.9753   2.9753   2.9754   3.8669   3.8669   3.8670   3.8670
     3.8670   3.8670   3.8671   3.8671   5.1058   5.1058   5.1059   5.1059
     5.1513   5.1513   5.1513   5.1513   5.2216   5.2216   5.2216   5.2217
     5.2616   5.2616   5.3276   5.3276   5.3278   5.3278   5.3278   5.3279
     5.3281   5.3281   5.9551   5.9551   6.6045   6.6045   6.7179   6.7179
     6.7179   6.7179   7.2581   7.2581   7.2581   7.2581   7.3120   7.3120
     7.3447   7.3447   7.3447   7.3447   8.0404   8.0404   8.0404   8.0404
     8.1512   8.1512   8.1512   8.1512   8.4658   8.4658   8.4658   8.4658
     8.7369   8.7369   8.7979   8.7979   8.7979   8.7979   8.8718   9.4425
     9.4425   9.4426   9.4427

     occupation numbers 
     1.0000   1.0000   1.0000   1.0000   1.0000   1.0000   1.0000   1.0000
     1.0000   1.0000   1.0000   1.0000   1.0000   1.0000   1.0000   1.0000
     1.0000   1.0000   1.0000   1.0000   1.0000   1.0000   1.0000   1.0000
     1.0000   1.0000   1.0000   1.0000   1.0000   1.0000   1.0000   1.0000
     1.0000   1.0000   1.0000   1.0000   1.0000   1.0000   1.0000   1.0000
     1.0000   1.0000   1.0000   1.0000   1.0000   1.0000   1.0000   1.0000
     1.0000   1.0000   1.0000   1.0000   1.0000   1.0000   1.0000   1.0000
     1.0000   1.0000   1.0000   1.0000   1.0000   1.0000   1.0000   1.0000
     1.0000   1.0000   1.0000   1.0000   1.0000   1.0000   1.0000   1.0000
     1.0000   1.0000   1.0000   1.0000   1.0000   1.0000   1.0000   1.0000
     1.0000   1.0000   1.0006   1.0006   1.0006   1.0006   1.0015   1.0015
     1.0024   1.0024   1.0024   1.0024   0.3098   0.3098   0.3098   0.3098
     0.0634   0.0634   0.0634   0.0634  -0.0146  -0.0146  -0.0146  -0.0146
    -0.0003  -0.0003  -0.0001  -0.0001  -0.0001  -0.0001  -0.0000  -0.0000
    -0.0000  -0.0000  -0.0000

          k =-0.1179 0.5893 0.5893 ( 42451 PWs)   bands (ev):

    -2.7663  -2.3901  -2.3893  -2.0141  -2.0141  -1.6394  -0.8930  -0.8930
    -0.5223  -0.5213  -0.5202  -0.1512  -0.1508  -0.1504  -0.1499   0.2181
     0.2191   0.2192   0.2206   0.5881   0.5881   0.9560   0.9566   1.3192
     1.3236   1.6851   1.6852   1.6892   1.6892   2.0501   2.0501   2.0543
     2.0543   2.4064   2.4179   2.7692   2.7692   2.7800   3.1309   3.1310
     3.1393   3.1393   3.4984   3.4984   3.8464   3.8464   3.8597   3.8597
     4.2034   4.2035   4.2099   4.2100   4.5515   4.5515   4.6112   4.6112
     4.9222   4.9223   4.9562   4.9614   4.9614   5.1086   5.1086   5.3185
     5.3186   5.4578   5.4590   5.4592   5.6227   5.6600   5.6601   5.6697
     5.6697   5.8027   5.8027   6.0149   6.1814   6.3821   6.6772   6.6772
     6.7252   6.7252   6.8695   6.8695   7.0782   7.0782   7.2186   7.2186
     7.3276   7.4254   7.4254   7.4338   7.4406   7.5669   7.5670   7.8842
     7.8842   7.9133   7.9176   7.9176   8.1475   8.2195   8.4860   8.4860
     8.9137   8.9137   8.9825   8.9825   9.1894   9.1894   9.2784   9.2784
     9.3012   9.3013   9.5258

     occupation numbers 
     1.0000   1.0000   1.0000   1.0000   1.0000   1.0000   1.0000   1.0000
     1.0000   1.0000   1.0000   1.0000   1.0000   1.0000   1.0000   1.0000
     1.0000   1.0000   1.0000   1.0000   1.0000   1.0000   1.0000   1.0000
     1.0000   1.0000   1.0000   1.0000   1.0000   1.0000   1.0000   1.0000
     1.0000   1.0000   1.0000   1.0000   1.0000   1.0000   1.0000   1.0000
     1.0000   1.0000   1.0000   1.0000   1.0000   1.0000   1.0000   1.0000
     1.0000   1.0000   1.0000   1.0000   1.0000   1.0000   1.0000   1.0000
     1.0000   1.0000   1.0000   1.0000   1.0000   1.0000   1.0000   1.0000
     1.0000   1.0000   1.0000   1.0000   1.0000   1.0000   1.0000   1.0000
     1.0000   1.0000   1.0000   1.0000   1.0000   1.0000   1.0000   1.0000
     1.0000   1.0000   1.0000   1.0000   1.0000   1.0000   1.0003   1.0003
     1.0019   1.0073   1.0073   1.0081   1.0087   1.0273   1.0273   0.7718
     0.7718   0.6933   0.6812   0.6811   0.0690  -0.0096  -0.0119  -0.0119
    -0.0000  -0.0000  -0.0000  -0.0000  -0.0000  -0.0000  -0.0000  -0.0000
    -0.0000  -0.0000  -0.0000

          k = 0.0000 0.4714 0.4714 ( 42402 PWs)   bands (ev):

    -2.6878  -2.5002  -2.4987  -1.9359  -1.9359  -1.1880  -1.0028  -1.0018
    -1.0014  -1.0004  -0.4448  -0.4432   0.2950   0.2960   0.2966   0.2976
     0.4789   0.4799   0.4804   0.4804   0.4812   0.4820   1.0304   1.0305
     1.0323   1.0339   1.7631   1.7631   1.9405   1.9412   1.9469   1.9469
     1.9482   1.9485   3.1975   3.1975   3.2144   3.2154   3.2160   3.2170
     3.3913   3.3915   3.3920   3.3921   3.3937   3.3951   3.8235   3.8235
     3.9170   3.9170   4.0698   4.0698   4.6497   4.7535   4.7536   4.7550
     4.7551   4.8201   4.8203   4.8208   4.8209   4.8509   4.8516   5.2162
     5.2162   5.4925   5.4930   5.4932   6.0755   6.0765   6.0772   6.0782
     6.1864   6.1865   6.1885   6.1895   6.1900   6.1909   6.2728   6.2732
     6.2735   6.2739   6.7057   6.7057   6.8107   6.8124   6.8360   6.8811
     7.5897   7.5901   7.5913   7.5916   7.6816   7.6816   7.6913   7.6921
     7.9053   7.9056   7.9067   7.9070   8.3605   8.8986   8.8991   8.9004
     8.9009   8.9065   8.9691   8.9691   9.0307   9.0310   9.0315   9.0318
     9.0984   9.0985   9.3931

     occupation numbers 
     1.0000   1.0000   1.0000   1.0000   1.0000   1.0000   1.0000   1.0000
     1.0000   1.0000   1.0000   1.0000   1.0000   1.0000   1.0000   1.0000
     1.0000   1.0000   1.0000   1.0000   1.0000   1.0000   1.0000   1.0000
     1.0000   1.0000   1.0000   1.0000   1.0000   1.0000   1.0000   1.0000
     1.0000   1.0000   1.0000   1.0000   1.0000   1.0000   1.0000   1.0000
     1.0000   1.0000   1.0000   1.0000   1.0000   1.0000   1.0000   1.0000
     1.0000   1.0000   1.0000   1.0000   1.0000   1.0000   1.0000   1.0000
     1.0000   1.0000   1.0000   1.0000   1.0000   1.0000   1.0000   1.0000
     1.0000   1.0000   1.0000   1.0000   1.0000   1.0000   1.0000   1.0000
     1.0000   1.0000   1.0000   1.0000   1.0000   1.0000   1.0000   1.0000
     1.0000   1.0000   1.0000   1.0000   1.0000   1.0000   1.0000   1.0000
     1.0308   1.0309   1.0311   1.0311   1.0320   1.0320   1.0297   1.0295
     0.7159   0.7149   0.7119   0.7109  -0.0315  -0.0000  -0.0000  -0.0000
    -0.0000  -0.0000  -0.0000  -0.0000  -0.0000  -0.0000  -0.0000  -0.0000
    -0.0000  -0.0000  -0.0000

          k =-0.7071 0.0000 0.0000 ( 42394 PWs)   bands (ev):

    -2.6257  -2.6243  -2.0610  -2.0610  -2.0610  -2.0610  -0.3842  -0.3826
    -0.3826  -0.3823  -0.3821  -0.3818  -0.3818  -0.3802   0.1706   0.1729
     0.1729   0.1732   0.1732   0.1735   0.1735   0.1758   1.8187   1.8195
     1.8252   1.8257   1.8257   1.8261   1.8266   1.8270   1.8270   1.8280
     2.3658   2.3658   2.3658   2.3658   2.3658   2.3658   2.3658   2.3658
     3.9910   3.9910   3.9911   3.9914   3.9915   3.9919   3.9919   3.9919
     4.4049   4.4049   4.4057   4.4057   4.4057   4.4057   4.4065   4.4065
     4.6724   4.6724   4.6732   4.6732   4.6732   4.6733   4.6741   4.6741
     5.5497   5.5497   5.5512   5.5512   6.0708   6.0708   6.0708   6.0708
     6.1550   6.1550   6.1553   6.1554   6.1556   6.1558   6.1561   6.1561
     6.5972   6.5972   6.5972   6.5972   6.9029   6.9034   6.9043   6.9048
     7.5698   7.5698   7.5698   7.5698   7.6333   7.6333   7.6338   7.6344
     7.6345   7.6352   7.6357   7.6357   8.7964   8.7964   8.7967   8.7972
     8.7979   8.7985   8.7987   8.7987   9.1183   9.1187   9.1187   9.1192
     9.1199   9.1199   9.1204

     occupation numbers 
     1.0000   1.0000   1.0000   1.0000   1.0000   1.0000   1.0000   1.0000
     1.0000   1.0000   1.0000   1.0000   1.0000   1.0000   1.0000   1.0000
     1.0000   1.0000   1.0000   1.0000   1.0000   1.0000   1.0000   1.0000
     1.0000   1.0000   1.0000   1.0000   1.0000   1.0000   1.0000   1.0000
     1.0000   1.0000   1.0000   1.0000   1.0000   1.0000   1.0000   1.0000
     1.0000   1.0000   1.0000   1.0000   1.0000   1.0000   1.0000   1.0000
     1.0000   1.0000   1.0000   1.0000   1.0000   1.0000   1.0000   1.0000
     1.0000   1.0000   1.0000   1.0000   1.0000   1.0000   1.0000   1.0000
     1.0000   1.0000   1.0000   1.0000   1.0000   1.0000   1.0000   1.0000
     1.0000   1.0000   1.0000   1.0000   1.0000   1.0000   1.0000   1.0000
     1.0000   1.0000   1.0000   1.0000   1.0000   1.0000   1.0000   1.0000
     1.0277   1.0277   1.0277   1.0277   1.0352   1.0352   1.0352   1.0353
     1.0353   1.0353   1.0353   1.0353  -0.0001  -0.0001  -0.0001  -0.0001
    -0.0001  -0.0001  -0.0001  -0.0001  -0.0000  -0.0000  -0.0000  -0.0000
    -0.0000  -0.0000  -0.0000

          k = 0.7071 0.2357 0.4714 ( 42437 PWs)   bands (ev):

    -2.8764  -2.3121  -2.3106  -2.1235  -1.5622  -1.5607  -1.3746  -0.8162
    -0.8147  -0.6307  -0.6296  -0.6286  -0.0739  -0.0724   0.1103   0.1113
     0.1125   0.6637   0.6652   0.8465   0.8482   0.8486   0.8500   1.3965
     1.3980   1.3984   1.3999   1.5821   1.5838   2.1229   2.1235   2.3099
     2.3109   2.3125   2.8493   2.8499   2.8534   2.8549   3.0170   3.0335
     3.0347   3.0351   3.0364   3.5569   3.5584   3.5709   3.5716   3.7566
     4.1727   4.1732   4.3996   4.4330   4.4333   4.4538   4.4967   4.4983
     4.8689   4.8695   4.9299   4.9314   5.1084   5.1450   5.1452   5.1603
     5.1619   5.3193   5.5498   5.5506   5.7392   5.7399   5.8160   5.8161
     5.8671   5.9236   5.9253   6.0130   6.4292   6.4308   6.5393   6.5411
     6.6079   6.6096   6.6635   6.7074   7.1577   7.1584   7.2406   7.2424
     7.3191   7.4026   7.5743   7.7169   7.7170   8.0218   8.0235   8.0299
     8.0985   8.1718   8.2533   8.2579   8.2587   8.4629   8.4645   8.5706
     8.5713   8.7948   8.7949   8.8679   8.8694   8.8959   8.9290   9.0795
     9.0798   9.2411   9.2419

     occupation numbers 
     1.0000   1.0000   1.0000   1.0000   1.0000   1.0000   1.0000   1.0000
     1.0000   1.0000   1.0000   1.0000   1.0000   1.0000   1.0000   1.0000
     1.0000   1.0000   1.0000   1.0000   1.0000   1.0000   1.0000   1.0000
     1.0000   1.0000   1.0000   1.0000   1.0000   1.0000   1.0000   1.0000
     1.0000   1.0000   1.0000   1.0000   1.0000   1.0000   1.0000   1.0000
     1.0000   1.0000   1.0000   1.0000   1.0000   1.0000   1.0000   1.0000
     1.0000   1.0000   1.0000   1.0000   1.0000   1.0000   1.0000   1.0000
     1.0000   1.0000   1.0000   1.0000   1.0000   1.0000   1.0000   1.0000
     1.0000   1.0000   1.0000   1.0000   1.0000   1.0000   1.0000   1.0000
     1.0000   1.0000   1.0000   1.0000   1.0000   1.0000   1.0000   1.0000
     1.0000   1.0000   1.0000   1.0000   1.0001   1.0001   1.0004   1.0005
     1.0016   1.0055   1.0285   1.0201   1.0200   0.3639   0.3587   0.3399
     0.1615   0.0351  -0.0265  -0.0280  -0.0283  -0.0150  -0.0148  -0.0043
    -0.0042  -0.0001  -0.0001  -0.0000  -0.0000  -0.0000  -0.0000  -0.0000
    -0.0000  -0.0000  -0.0000

          k =-0.2357 0.7071 0.4714 ( 42437 PWs)   bands (ev):

    -2.8764  -2.3114  -2.3114  -2.1235  -1.5615  -1.5615  -1.3746  -0.8155
    -0.8154  -0.6303  -0.6297  -0.6289  -0.0732  -0.0732   0.1105   0.1116
     0.1120   0.6644   0.6644   0.8464   0.8485   0.8491   0.8494   1.3971
     1.3972   1.3991   1.3993   1.5829   1.5829   2.1232   2.1232   2.3100
     2.3117   2.3118   2.8496   2.8496   2.8541   2.8541   3.0170   3.0340
     3.0342   3.0357   3.0360   3.5577   3.5577   3.5712   3.5712   3.7566
     4.1730   4.1730   4.3996   4.4332   4.4332   4.4539   4.4975   4.4975
     4.8692   4.8692   4.9306   4.9307   5.1085   5.1451   5.1451   5.1611
     5.1611   5.3193   5.5502   5.5502   5.7395   5.7395   5.8161   5.8161
     5.8671   5.9244   5.9245   6.0130   6.4300   6.4300   6.5402   6.5402
     6.6087   6.6087   6.6635   6.7074   7.1580   7.1580   7.2415   7.2415
     7.3191   7.4026   7.5743   7.7170   7.7170   8.0227   8.0227   8.0299
     8.0985   8.1718   8.2533   8.2583   8.2583   8.4637   8.4637   8.5709
     8.5709   8.7940   8.7957   8.8687   8.8687   8.8959   8.9290   9.0796
     9.0796   9.2415   9.2415

     occupation numbers 
     1.0000   1.0000   1.0000   1.0000   1.0000   1.0000   1.0000   1.0000
     1.0000   1.0000   1.0000   1.0000   1.0000   1.0000   1.0000   1.0000
     1.0000   1.0000   1.0000   1.0000   1.0000   1.0000   1.0000   1.0000
     1.0000   1.0000   1.0000   1.0000   1.0000   1.0000   1.0000   1.0000
     1.0000   1.0000   1.0000   1.0000   1.0000   1.0000   1.0000   1.0000
     1.0000   1.0000   1.0000   1.0000   1.0000   1.0000   1.0000   1.0000
     1.0000   1.0000   1.0000   1.0000   1.0000   1.0000   1.0000   1.0000
     1.0000   1.0000   1.0000   1.0000   1.0000   1.0000   1.0000   1.0000
     1.0000   1.0000   1.0000   1.0000   1.0000   1.0000   1.0000   1.0000
     1.0000   1.0000   1.0000   1.0000   1.0000   1.0000   1.0000   1.0000
     1.0000   1.0000   1.0000   1.0000   1.0001   1.0001   1.0004   1.0004
     1.0016   1.0055   1.0285   1.0201   1.0201   0.3613   0.3613   0.3399
     0.1615   0.0351  -0.0265  -0.0282  -0.0282  -0.0149  -0.0149  -0.0043
    -0.0043  -0.0001  -0.0001  -0.0000  -0.0000  -0.0000  -0.0000  -0.0000
    -0.0000  -0.0000  -0.0000

          k = 0.5893 0.1179 0.3536 ( 42430 PWs)   bands (ev):

    -2.6410  -2.6403  -2.2647  -2.2640  -1.5150  -1.5145  -1.1416  -1.1411
    -0.7694  -0.7686  -0.3980  -0.3970  -0.0278  -0.0269   0.3414   0.3423
     0.3426   0.3434   0.7096   0.7098   0.7112   0.7117   1.0772   1.0774
     1.0785   1.0790   1.4408   1.4417   1.4452   1.4457   2.5269   2.5279
     2.5350   2.5356   2.5382   2.5384   2.8998   2.8999   3.2589   3.2596
     3.2610   3.2612   3.6104   3.6107   3.6116   3.6122   3.9447   3.9449
     3.9777   3.9779   4.3022   4.3024   4.3273   4.3275   4.3705   4.3711
     4.6927   4.6928   5.0255   5.0262   5.0753   5.0755   5.2248   5.2257
     5.4227   5.4229   5.5747   5.5750   5.7348   5.7348   5.7610   5.7611
     6.0998   6.1004   6.1328   6.1333   6.2973   6.2979   6.4522   6.4529
     6.4993   6.4995   6.6366   6.6369   6.8051   6.8054   7.1869   7.1873
     7.2092   7.2096   7.4462   7.4470   7.5499   7.5504   7.9994   8.0000
     8.2563   8.2564   8.3333   8.3335   8.3797   8.3799   8.4527   8.4529
     8.6901   8.6907   8.7316   8.7320   8.7472   8.7474   8.9396   8.9403
     9.1391   9.1398   9.6151

     occupation numbers 
     1.0000   1.0000   1.0000   1.0000   1.0000   1.0000   1.0000   1.0000
     1.0000   1.0000   1.0000   1.0000   1.0000   1.0000   1.0000   1.0000
     1.0000   1.0000   1.0000   1.0000   1.0000   1.0000   1.0000   1.0000
     1.0000   1.0000   1.0000   1.0000   1.0000   1.0000   1.0000   1.0000
     1.0000   1.0000   1.0000   1.0000   1.0000   1.0000   1.0000   1.0000
     1.0000   1.0000   1.0000   1.0000   1.0000   1.0000   1.0000   1.0000
     1.0000   1.0000   1.0000   1.0000   1.0000   1.0000   1.0000   1.0000
     1.0000   1.0000   1.0000   1.0000   1.0000   1.0000   1.0000   1.0000
     1.0000   1.0000   1.0000   1.0000   1.0000   1.0000   1.0000   1.0000
     1.0000   1.0000   1.0000   1.0000   1.0000   1.0000   1.0000   1.0000
     1.0000   1.0000   1.0000   1.0000   1.0000   1.0000   1.0002   1.0002
     1.0002   1.0002   1.0093   1.0094   1.0244   1.0245   0.4318   0.4299
    -0.0275  -0.0276  -0.0345  -0.0345  -0.0286  -0.0286  -0.0166  -0.0165
    -0.0007  -0.0007  -0.0003  -0.0003  -0.0002  -0.0002  -0.0000  -0.0000
    -0.0000  -0.0000  -0.0000

          k = 0.0000 0.7071-0.2357 ( 42432 PWs)   bands (ev):

    -2.5622  -2.5622  -2.3748  -2.3733  -1.6245  -1.6231  -1.0637  -1.0637
    -0.3218  -0.3206  -0.3202  -0.3189  -0.1361  -0.1355  -0.1347  -0.1341
     0.4187   0.4187   0.6027   0.6033   0.6042   0.6048   1.1539   1.1552
     1.1555   1.1568   1.3355   1.3369   1.8802   1.8802   2.0622   2.0628
     2.6128   2.6140   2.6144   2.6157   2.7890   2.7896   3.3318   3.3318
     3.4970   3.4985   3.5119   3.5126   3.5134   3.5140   4.0496   4.0499
     4.0513   4.0515   4.2250   4.2252   4.2256   4.2259   4.6954   4.6954
     4.7651   4.7651   4.9703   4.9704   4.9710   4.9710   5.5015   5.5018
     5.5032   5.5035   5.6082   5.6082   5.6451   5.6458   5.6659   5.6664
     5.6674   5.6679   5.7809   5.7824   6.4750   6.4766   6.8291   6.8306
     6.8309   6.8323   6.9238   6.9241   6.9255   6.9259   6.9571   6.9571
     6.9970   6.9970   7.0765   7.0778   7.8068   7.8069   7.8075   7.8076
     7.8637   7.8638   7.8797   7.8803   7.9457   7.9470   8.3886   8.3886
     8.4750   8.4750   8.9606   8.9606   9.2587   9.2603   9.3694   9.3709
     9.7822   9.7822   9.8611

     occupation numbers 
     1.0000   1.0000   1.0000   1.0000   1.0000   1.0000   1.0000   1.0000
     1.0000   1.0000   1.0000   1.0000   1.0000   1.0000   1.0000   1.0000
     1.0000   1.0000   1.0000   1.0000   1.0000   1.0000   1.0000   1.0000
     1.0000   1.0000   1.0000   1.0000   1.0000   1.0000   1.0000   1.0000
     1.0000   1.0000   1.0000   1.0000   1.0000   1.0000   1.0000   1.0000
     1.0000   1.0000   1.0000   1.0000   1.0000   1.0000   1.0000   1.0000
     1.0000   1.0000   1.0000   1.0000   1.0000   1.0000   1.0000   1.0000
     1.0000   1.0000   1.0000   1.0000   1.0000   1.0000   1.0000   1.0000
     1.0000   1.0000   1.0000   1.0000   1.0000   1.0000   1.0000   1.0000
     1.0000   1.0000   1.0000   1.0000   1.0000   1.0000   1.0000   1.0000
     1.0000   1.0000   1.0000   1.0000   1.0000   1.0000   1.0000   1.0000
     1.0000   1.0000   1.0000   1.0000   0.9318   0.9316   0.9306   0.9305
     0.8218   0.8215   0.7832   0.7816   0.5979   0.5938  -0.0272  -0.0272
    -0.0134  -0.0134  -0.0000  -0.0000  -0.0000  -0.0000  -0.0000  -0.0000
    -0.0000  -0.0000  -0.0000

          k =-0.7071 0.0000-0.2357 ( 42432 PWs)   bands (ev):

    -2.5629  -2.5615  -2.3740  -2.3740  -1.6238  -1.6238  -1.0644  -1.0630
    -0.3214  -0.3208  -0.3199  -0.3194  -0.1365  -0.1353  -0.1349  -0.1336
     0.4180   0.4194   0.6023   0.6036   0.6039   0.6052   1.1543   1.1549
     1.1558   1.1564   1.3362   1.3362   1.8799   1.8805   2.0625   2.0625
     2.6132   2.6138   2.6147   2.6153   2.7893   2.7893   3.3315   3.3321
     3.4978   3.4978   3.5115   3.5128   3.5131   3.5144   4.0502   4.0504
     4.0508   4.0510   4.2245   4.2248   4.2261   4.2264   4.6946   4.6961
     4.7648   4.7654   4.9697   4.9700   4.9714   4.9717   5.5021   5.5022
     5.5028   5.5029   5.6075   5.6090   5.6455   5.6455   5.6654   5.6667
     5.6670   5.6684   5.7817   5.7817   6.4758   6.4758   6.8297   6.8303
     6.8312   6.8318   6.9244   6.9245   6.9251   6.9252   6.9564   6.9578
     6.9962   6.9978   7.0772   7.0772   7.8062   7.8065   7.8079   7.8082
     7.8631   7.8645   7.8800   7.8800   7.9463   7.9464   8.3878   8.3894
     8.4743   8.4757   8.9601   8.9610   9.2594   9.2595   9.3702   9.3702
     9.7817   9.7829   9.8649

     occupation numbers 
     1.0000   1.0000   1.0000   1.0000   1.0000   1.0000   1.0000   1.0000
     1.0000   1.0000   1.0000   1.0000   1.0000   1.0000   1.0000   1.0000
     1.0000   1.0000   1.0000   1.0000   1.0000   1.0000   1.0000   1.0000
     1.0000   1.0000   1.0000   1.0000   1.0000   1.0000   1.0000   1.0000
     1.0000   1.0000   1.0000   1.0000   1.0000   1.0000   1.0000   1.0000
     1.0000   1.0000   1.0000   1.0000   1.0000   1.0000   1.0000   1.0000
     1.0000   1.0000   1.0000   1.0000   1.0000   1.0000   1.0000   1.0000
     1.0000   1.0000   1.0000   1.0000   1.0000   1.0000   1.0000   1.0000
     1.0000   1.0000   1.0000   1.0000   1.0000   1.0000   1.0000   1.0000
     1.0000   1.0000   1.0000   1.0000   1.0000   1.0000   1.0000   1.0000
     1.0000   1.0000   1.0000   1.0000   1.0000   1.0000   1.0000   1.0000
     1.0000   1.0000   1.0000   1.0000   0.9327   0.9322   0.9300   0.9295
     0.8232   0.8198   0.7825   0.7825   0.5958   0.5958  -0.0273  -0.0270
    -0.0134  -0.0133  -0.0000  -0.0000  -0.0000  -0.0000  -0.0000  -0.0000
    -0.0000  -0.0000  -0.0000

     the Fermi energy is     7.9774 ev

!    total energy              =   -2528.11876143 Ry
     total all-electron energy =     -2528.118761 Ry
     estimated scf accuracy    <          7.9E-17 Ry
     smearing contrib. (-TS)   =      -0.00504588 Ry
     internal energy E=F+TS    =   -2528.11371555 Ry

     The total energy is F=E-TS. E is the sum of the following terms:
     one-electron contribution =     202.39299868 Ry
     hartree contribution      =       0.52634482 Ry
     xc contribution           =    -134.65400766 Ry
     ewald contribution        =    -346.10266097 Ry
     one-center paw contrib.   =   -2250.27639042 Ry
      -> PAW hartree energy AE =       1.84496877 Ry
      -> PAW hartree energy PS =      -1.78903997 Ry
      -> PAW xc energy AE      =    -216.14815846 Ry
      -> PAW xc energy PS      =       5.12881244 Ry
      -> total E_H with PAW    =       0.58227363 Ry
      -> total E_XC with PAW   =    -345.67335368 Ry

     convergence has been achieved in  30 iterations

     negative rho (up, down):  4.432E-02 0.000E+00

     Forces acting on atoms (cartesian axes, Ry/au):

     atom    1 type  1   force =     0.00180428    0.00000000    0.00000000
     atom    2 type  1   force =    -0.00024285    0.00026028    0.00000000
     atom    3 type  1   force =    -0.00001703    0.00001205    0.00000000
     atom    4 type  1   force =    -0.00023682    0.00025207    0.00000000
     atom    5 type  1   force =     0.00004798   -0.00000076   -0.00000076
     atom    6 type  1   force =     0.00000121   -0.00000772   -0.00000296
     atom    7 type  1   force =     0.00000557   -0.00000775    0.00000775
     atom    8 type  1   force =    -0.00023682    0.00000000   -0.00025207
     atom    9 type  1   force =    -0.00000425   -0.00000000    0.00000000
     atom   10 type  1   force =     0.00000121    0.00000296    0.00000772
     atom   11 type  1   force =    -0.00001703    0.00000000   -0.00001205
     atom   12 type  1   force =     0.00000125    0.00000298    0.00000780
     atom   13 type  1   force =     0.00004798    0.00000076    0.00000076
     atom   14 type  1   force =    -0.00024285    0.00000000   -0.00026028
     atom   15 type  1   force =     0.00000534   -0.00000776    0.00000776
     atom   16 type  1   force =     0.00000125   -0.00000780   -0.00000298
     atom   17 type  1   force =    -0.00024285    0.00000000    0.00026028
     atom   18 type  1   force =     0.00000534   -0.00000776   -0.00000776
     atom   19 type  1   force =     0.00000125   -0.00000780    0.00000298
     atom   20 type  1   force =     0.00004798    0.00000076   -0.00000076
     atom   21 type  1   force =     0.00000121   -0.00000296   -0.00000772
     atom   22 type  1   force =     0.00001139    0.00000000    0.00000000
     atom   23 type  1   force =     0.00000125   -0.00000298    0.00000780
     atom   24 type  1   force =     0.00000318    0.00000000   -0.00000010
     atom   25 type  1   force =     0.00000121    0.00000772    0.00000296
     atom   26 type  1   force =     0.00000534    0.00000776    0.00000776
     atom   27 type  1   force =    -0.00000376   -0.00000000    0.00000538
     atom   28 type  1   force =     0.00000628   -0.00000000    0.00000000
     atom   29 type  1   force =    -0.00024285   -0.00026028   -0.00000000
     atom   30 type  1   force =    -0.00005111    0.00000000    0.00000000
     atom   31 type  1   force =    -0.00000376   -0.00000538    0.00000000
     atom   32 type  1   force =     0.00000318    0.00000010   -0.00000000
     atom   33 type  1   force =    -0.00001703    0.00000000    0.00001205
     atom   34 type  1   force =     0.00000125    0.00000298   -0.00000780
     atom   35 type  1   force =    -0.00000425    0.00000000    0.00000000
     atom   36 type  1   force =     0.00000121    0.00000296   -0.00000772
     atom   37 type  1   force =     0.00000557    0.00000775   -0.00000775
     atom   38 type  1   force =     0.00000125    0.00000780   -0.00000298
     atom   39 type  1   force =     0.00000628    0.00000000    0.00000000
     atom   40 type  1   force =    -0.00000366   -0.00000000   -0.00000542
     atom   41 type  1   force =    -0.00001703   -0.00001205   -0.00000000
     atom   42 type  1   force =    -0.00000376    0.00000538    0.00000000
     atom   43 type  1   force =     0.00000683    0.00000000    0.00000000
     atom   44 type  1   force =    -0.00000366    0.00000542    0.00000000
     atom   45 type  1   force =     0.00000534    0.00000776   -0.00000776
     atom   46 type  1   force =    -0.00000376   -0.00000000   -0.00000538
     atom   47 type  1   force =     0.00000628   -0.00000000   -0.00000000
     atom   48 type  1   force =     0.00000121    0.00000772   -0.00000296
     atom   49 type  1   force =    -0.00023682    0.00000000    0.00025207
     atom   50 type  1   force =     0.00004798   -0.00000076    0.00000076
     atom   51 type  1   force =     0.00000121   -0.00000772    0.00000296
     atom   52 type  1   force =     0.00000557   -0.00000775   -0.00000775
     atom   53 type  1   force =    -0.00023682   -0.00025207   -0.00000000
     atom   54 type  1   force =     0.00000318   -0.00000010    0.00000000
     atom   55 type  1   force =    -0.00000366   -0.00000542    0.00000000
     atom   56 type  1   force =    -0.00005089    0.00000000    0.00000000
     atom   57 type  1   force =     0.00000125    0.00000780    0.00000298
     atom   58 type  1   force =     0.00000628    0.00000000   -0.00000000
     atom   59 type  1   force =    -0.00000366    0.00000000    0.00000542
     atom   60 type  1   force =     0.00000557    0.00000775    0.00000775
     atom   61 type  1   force =     0.00000125   -0.00000298   -0.00000780
     atom   62 type  1   force =     0.00000318   -0.00000000    0.00000010
     atom   63 type  1   force =     0.00000121   -0.00000296    0.00000772
     atom   64 type  1   force =     0.00001139    0.00000000    0.00000000
     The non-local contrib.  to forces
     atom    1 type  1   force =     0.00449129   -0.00000000    0.00000000
     atom    2 type  1   force =    -0.00051593    0.00056562    0.00000000
     atom    3 type  1   force =    -0.00000882    0.00000115    0.00000000
     atom    4 type  1   force =    -0.00050622    0.00055118    0.00000000
     atom    5 type  1   force =    -0.00002213   -0.00000198   -0.00000198
     atom    6 type  1   force =     0.00000839   -0.00000380    0.00000320
     atom    7 type  1   force =    -0.00002289    0.00001068   -0.00001068
     atom    8 type  1   force =    -0.00050622    0.00000000   -0.00055118
     atom    9 type  1   force =    -0.00000783    0.00000000    0.00000000
     atom   10 type  1   force =     0.00000839   -0.00000320    0.00000380
     atom   11 type  1   force =    -0.00000882    0.00000000   -0.00000115
     atom   12 type  1   force =     0.00000856   -0.00000327    0.00000395
     atom   13 type  1   force =    -0.00002213    0.00000198    0.00000198
     atom   14 type  1   force =    -0.00051593   -0.00000000   -0.00056562
     atom   15 type  1   force =    -0.00002383    0.00001127   -0.00001127
     atom   16 type  1   force =     0.00000856   -0.00000395    0.00000327
     atom   17 type  1   force =    -0.00051593    0.00000000    0.00056562
     atom   18 type  1   force =    -0.00002383    0.00001127    0.00001127
     atom   19 type  1   force =     0.00000856   -0.00000395   -0.00000327
     atom   20 type  1   force =    -0.00002213    0.00000198   -0.00000198
     atom   21 type  1   force =     0.00000839    0.00000320   -0.00000380
     atom   22 type  1   force =     0.00000305   -0.00000000    0.00000000
     atom   23 type  1   force =     0.00000856    0.00000327    0.00000395
     atom   24 type  1   force =     0.00001664    0.00000000   -0.00000007
     atom   25 type  1   force =     0.00000839    0.00000380   -0.00000320
     atom   26 type  1   force =    -0.00002383   -0.00001127   -0.00001127
     atom   27 type  1   force =    -0.00002336   -0.00000000   -0.00000625
     atom   28 type  1   force =     0.00000791    0.00000004   -0.00000004
     atom   29 type  1   force =    -0.00051593   -0.00056562   -0.00000000
     atom   30 type  1   force =    -0.00005755    0.00000000   -0.00000000
     atom   31 type  1   force =    -0.00002336    0.00000625    0.00000000
     atom   32 type  1   force =     0.00001664    0.00000007    0.00000000
     atom   33 type  1   force =    -0.00000882    0.00000000    0.00000115
     atom   34 type  1   force =     0.00000856   -0.00000327   -0.00000395
     atom   35 type  1   force =    -0.00000783   -0.00000000    0.00000000
     atom   36 type  1   force =     0.00000839   -0.00000320   -0.00000380
     atom   37 type  1   force =    -0.00002289   -0.00001068    0.00001068
     atom   38 type  1   force =     0.00000856    0.00000395    0.00000327
     atom   39 type  1   force =     0.00000791   -0.00000004   -0.00000004
     atom   40 type  1   force =    -0.00002307    0.00000000    0.00000624
     atom   41 type  1   force =    -0.00000882   -0.00000115   -0.00000000
     atom   42 type  1   force =    -0.00002336   -0.00000625    0.00000000
     atom   43 type  1   force =    -0.00001280   -0.00000000    0.00000000
     atom   44 type  1   force =    -0.00002307   -0.00000624    0.00000000
     atom   45 type  1   force =    -0.00002383   -0.00001127    0.00001127
     atom   46 type  1   force =    -0.00002336    0.00000000    0.00000625
     atom   47 type  1   force =     0.00000791    0.00000004    0.00000004
     atom   48 type  1   force =     0.00000839    0.00000380    0.00000320
     atom   49 type  1   force =    -0.00050622    0.00000000    0.00055118
     atom   50 type  1   force =    -0.00002213   -0.00000198    0.00000198
     atom   51 type  1   force =     0.00000839   -0.00000380   -0.00000320
     atom   52 type  1   force =    -0.00002289    0.00001068    0.00001068
     atom   53 type  1   force =    -0.00050622   -0.00055118    0.00000000
     atom   54 type  1   force =     0.00001664   -0.00000007    0.00000000
     atom   55 type  1   force =    -0.00002307    0.00000624    0.00000000
     atom   56 type  1   force =    -0.00006018    0.00000000    0.00000000
     atom   57 type  1   force =     0.00000856    0.00000395   -0.00000327
     atom   58 type  1   force =     0.00000791   -0.00000004    0.00000004
     atom   59 type  1   force =    -0.00002307    0.00000000   -0.00000624
     atom   60 type  1   force =    -0.00002289   -0.00001068   -0.00001068
     atom   61 type  1   force =     0.00000856    0.00000327   -0.00000395
     atom   62 type  1   force =     0.00001664    0.00000000    0.00000007
     atom   63 type  1   force =     0.00000839    0.00000320    0.00000380
     atom   64 type  1   force =     0.00000305    0.00000000    0.00000000
     The ionic contribution  to forces
     atom    1 type  1   force =     0.01262829    0.00000000    0.00000000
     atom    2 type  1   force =    -0.00127678    0.00328750    0.00000000
     atom    3 type  1   force =    -0.00040784    0.00069200    0.00000000
     atom    4 type  1   force =    -0.00128467    0.00326356    0.00000000
     atom    5 type  1   force =     0.00196015   -0.00000803   -0.00000803
     atom    6 type  1   force =    -0.00002398    0.00043630    0.00012447
     atom    7 type  1   force =    -0.00055027    0.00043549   -0.00043549
     atom    8 type  1   force =    -0.00128467    0.00000000   -0.00326356
     atom    9 type  1   force =     0.00021433   -0.00000000    0.00000000
     atom   10 type  1   force =    -0.00002398   -0.00012447   -0.00043630
     atom   11 type  1   force =    -0.00040784    0.00000000   -0.00069200
     atom   12 type  1   force =    -0.00002645   -0.00012429   -0.00043696
     atom   13 type  1   force =     0.00196015    0.00000803    0.00000803
     atom   14 type  1   force =    -0.00127678    0.00000000   -0.00328750
     atom   15 type  1   force =    -0.00055158    0.00043777   -0.00043777
     atom   16 type  1   force =    -0.00002645    0.00043696    0.00012429
     atom   17 type  1   force =    -0.00127678   -0.00000000    0.00328750
     atom   18 type  1   force =    -0.00055158    0.00043777    0.00043777
     atom   19 type  1   force =    -0.00002645    0.00043696   -0.00012429
     atom   20 type  1   force =     0.00196015    0.00000803   -0.00000803
     atom   21 type  1   force =    -0.00002398    0.00012447    0.00043630
     atom   22 type  1   force =    -0.00020045   -0.00000000   -0.00000000
     atom   23 type  1   force =    -0.00002645    0.00012429   -0.00043696
     atom   24 type  1   force =     0.00051932   -0.00000000   -0.00000297
     atom   25 type  1   force =    -0.00002398   -0.00043630   -0.00012447
     atom   26 type  1   force =    -0.00055158   -0.00043777   -0.00043777
     atom   27 type  1   force =    -0.00030123   -0.00000000   -0.00025940
     atom   28 type  1   force =    -0.00000100    0.00000040   -0.00000040
     atom   29 type  1   force =    -0.00127678   -0.00328750    0.00000000
     atom   30 type  1   force =    -0.00164597    0.00000000    0.00000000
     atom   31 type  1   force =    -0.00030123    0.00025940   -0.00000000
     atom   32 type  1   force =     0.00051932    0.00000297   -0.00000000
     atom   33 type  1   force =    -0.00040784   -0.00000000    0.00069200
     atom   34 type  1   force =    -0.00002645   -0.00012429    0.00043696
     atom   35 type  1   force =     0.00021433   -0.00000000   -0.00000000
     atom   36 type  1   force =    -0.00002398   -0.00012447    0.00043630
     atom   37 type  1   force =    -0.00055027   -0.00043549    0.00043549
     atom   38 type  1   force =    -0.00002645   -0.00043696    0.00012429
     atom   39 type  1   force =    -0.00000100   -0.00000040   -0.00000040
     atom   40 type  1   force =    -0.00029913   -0.00000000    0.00025810
     atom   41 type  1   force =    -0.00040784   -0.00069200   -0.00000000
     atom   42 type  1   force =    -0.00030123   -0.00025940   -0.00000000
     atom   43 type  1   force =    -0.00020045   -0.00000000   -0.00000000
     atom   44 type  1   force =    -0.00029913   -0.00025810   -0.00000000
     atom   45 type  1   force =    -0.00055158   -0.00043777    0.00043777
     atom   46 type  1   force =    -0.00030123   -0.00000000    0.00025940
     atom   47 type  1   force =    -0.00000100    0.00000040    0.00000040
     atom   48 type  1   force =    -0.00002398   -0.00043630    0.00012447
     atom   49 type  1   force =    -0.00128467   -0.00000000    0.00326356
     atom   50 type  1   force =     0.00196015   -0.00000803    0.00000803
     atom   51 type  1   force =    -0.00002398    0.00043630   -0.00012447
     atom   52 type  1   force =    -0.00055027    0.00043549    0.00043549
     atom   53 type  1   force =    -0.00128467   -0.00326356    0.00000000
     atom   54 type  1   force =     0.00051932   -0.00000297    0.00000000
     atom   55 type  1   force =    -0.00029913    0.00025810    0.00000000
     atom   56 type  1   force =    -0.00163408    0.00000000   -0.00000000
     atom   57 type  1   force =    -0.00002645   -0.00043696   -0.00012429
     atom   58 type  1   force =    -0.00000100   -0.00000040    0.00000040
     atom   59 type  1   force =    -0.00029913   -0.00000000   -0.00025810
     atom   60 type  1   force =    -0.00055027   -0.00043549   -0.00043549
     atom   61 type  1   force =    -0.00002645    0.00012429    0.00043696
     atom   62 type  1   force =     0.00051932    0.00000000    0.00000297
     atom   63 type  1   force =    -0.00002398    0.00012447   -0.00043630
     atom   64 type  1   force =    -0.00020045    0.00000000    0.00000000
     The local contribution  to forces
     atom    1 type  1   force =    -0.01501623   -0.00000000    0.00000000
     atom    2 type  1   force =     0.00151428   -0.00355282   -0.00000000
     atom    3 type  1   force =     0.00039918   -0.00068104   -0.00000000
     atom    4 type  1   force =     0.00151911   -0.00352360    0.00000000
     atom    5 type  1   force =    -0.00188965    0.00000912    0.00000912
     atom    6 type  1   force =     0.00001723   -0.00044040   -0.00013042
     atom    7 type  1   force =     0.00057740   -0.00045328    0.00045328
     atom    8 type  1   force =     0.00151911   -0.00000000    0.00352360
     atom    9 type  1   force =    -0.00021122   -0.00000000    0.00000000
     atom   10 type  1   force =     0.00001723    0.00013042    0.00044040
     atom   11 type  1   force =     0.00039918   -0.00000000    0.00068104
     atom   12 type  1   force =     0.00001958    0.00013033    0.00044100
     atom   13 type  1   force =    -0.00188965   -0.00000912   -0.00000912
     atom   14 type  1   force =     0.00151428   -0.00000000    0.00355282
     atom   15 type  1   force =     0.00057936   -0.00045613    0.00045613
     atom   16 type  1   force =     0.00001958   -0.00044100   -0.00013033
     atom   17 type  1   force =     0.00151428   -0.00000000   -0.00355282
     atom   18 type  1   force =     0.00057936   -0.00045613   -0.00045613
     atom   19 type  1   force =     0.00001958   -0.00044100    0.00013033
     atom   20 type  1   force =    -0.00188965   -0.00000912    0.00000912
     atom   21 type  1   force =     0.00001723   -0.00013042   -0.00044040
     atom   22 type  1   force =     0.00020893   -0.00000000   -0.00000000
     atom   23 type  1   force =     0.00001958   -0.00013033    0.00044100
     atom   24 type  1   force =    -0.00053185   -0.00000000    0.00000293
     atom   25 type  1   force =     0.00001723    0.00044040    0.00013042
     atom   26 type  1   force =     0.00057936    0.00045613    0.00045613
     atom   27 type  1   force =     0.00031954   -0.00000000    0.00027069
     atom   28 type  1   force =    -0.00000017   -0.00000044    0.00000044
     atom   29 type  1   force =     0.00151428    0.00355282   -0.00000000
     atom   30 type  1   force =     0.00164919   -0.00000000   -0.00000000
     atom   31 type  1   force =     0.00031954   -0.00027069   -0.00000000
     atom   32 type  1   force =    -0.00053185   -0.00000293   -0.00000000
     atom   33 type  1   force =     0.00039918   -0.00000000   -0.00068104
     atom   34 type  1   force =     0.00001958    0.00013033   -0.00044100
     atom   35 type  1   force =    -0.00021122   -0.00000000   -0.00000000
     atom   36 type  1   force =     0.00001723    0.00013042   -0.00044040
     atom   37 type  1   force =     0.00057740    0.00045328   -0.00045328
     atom   38 type  1   force =     0.00001958    0.00044100   -0.00013033
     atom   39 type  1   force =    -0.00000017    0.00000044    0.00000044
     atom   40 type  1   force =     0.00031727   -0.00000000   -0.00026941
     atom   41 type  1   force =     0.00039918    0.00068104   -0.00000000
     atom   42 type  1   force =     0.00031954    0.00027069   -0.00000000
     atom   43 type  1   force =     0.00021935   -0.00000000   -0.00000000
     atom   44 type  1   force =     0.00031727    0.00026941   -0.00000000
     atom   45 type  1   force =     0.00057936    0.00045613   -0.00045613
     atom   46 type  1   force =     0.00031954   -0.00000000   -0.00027069
     atom   47 type  1   force =    -0.00000017   -0.00000044   -0.00000044
     atom   48 type  1   force =     0.00001723    0.00044040   -0.00013042
     atom   49 type  1   force =     0.00151911   -0.00000000   -0.00352360
     atom   50 type  1   force =    -0.00188965    0.00000912   -0.00000912
     atom   51 type  1   force =     0.00001723   -0.00044040    0.00013042
     atom   52 type  1   force =     0.00057740   -0.00045328   -0.00045328
     atom   53 type  1   force =     0.00151911    0.00352360   -0.00000000
     atom   54 type  1   force =    -0.00053185    0.00000293   -0.00000000
     atom   55 type  1   force =     0.00031727   -0.00026941   -0.00000000
     atom   56 type  1   force =     0.00164000   -0.00000000   -0.00000000
     atom   57 type  1   force =     0.00001958    0.00044100    0.00013033
     atom   58 type  1   force =    -0.00000017    0.00000044   -0.00000044
     atom   59 type  1   force =     0.00031727   -0.00000000    0.00026941
     atom   60 type  1   force =     0.00057740    0.00045328    0.00045328
     atom   61 type  1   force =     0.00001958   -0.00013033   -0.00044100
     atom   62 type  1   force =    -0.00053185   -0.00000000   -0.00000293
     atom   63 type  1   force =     0.00001723   -0.00013042    0.00044040
     atom   64 type  1   force =     0.00020893   -0.00000000   -0.00000000
     The core correction contribution to forces
     atom    1 type  1   force =    -0.00029907   -0.00000000    0.00000000
     atom    2 type  1   force =     0.00003559   -0.00004002   -0.00000000
     atom    3 type  1   force =     0.00000046   -0.00000006   -0.00000000
     atom    4 type  1   force =     0.00003497   -0.00003906   -0.00000000
     atom    5 type  1   force =    -0.00000039    0.00000013    0.00000013
     atom    6 type  1   force =    -0.00000043    0.00000019   -0.00000021
     atom    7 type  1   force =     0.00000133   -0.00000064    0.00000064
     atom    8 type  1   force =     0.00003497   -0.00000000    0.00003906
     atom    9 type  1   force =     0.00000047   -0.00000000    0.00000000
     atom   10 type  1   force =    -0.00000043    0.00000021   -0.00000019
     atom   11 type  1   force =     0.00000046   -0.00000000    0.00000006
     atom   12 type  1   force =    -0.00000044    0.00000021   -0.00000020
     atom   13 type  1   force =    -0.00000039   -0.00000013   -0.00000013
     atom   14 type  1   force =     0.00003559   -0.00000000    0.00004002
     atom   15 type  1   force =     0.00000138   -0.00000068    0.00000068
     atom   16 type  1   force =    -0.00000044    0.00000020   -0.00000021
     atom   17 type  1   force =     0.00003559   -0.00000000   -0.00004002
     atom   18 type  1   force =     0.00000138   -0.00000068   -0.00000068
     atom   19 type  1   force =    -0.00000044    0.00000020    0.00000021
     atom   20 type  1   force =    -0.00000039   -0.00000013    0.00000013
     atom   21 type  1   force =    -0.00000043   -0.00000021    0.00000019
     atom   22 type  1   force =    -0.00000013    0.00000000    0.00000000
     atom   23 type  1   force =    -0.00000044   -0.00000021   -0.00000020
     atom   24 type  1   force =    -0.00000093    0.00000000    0.00000000
     atom   25 type  1   force =    -0.00000043   -0.00000019    0.00000021
     atom   26 type  1   force =     0.00000138    0.00000068    0.00000068
     atom   27 type  1   force =     0.00000129   -0.00000000    0.00000034
     atom   28 type  1   force =    -0.00000047   -0.00000000    0.00000000
     atom   29 type  1   force =     0.00003559    0.00004002    0.00000000
     atom   30 type  1   force =     0.00000321   -0.00000000   -0.00000000
     atom   31 type  1   force =     0.00000129   -0.00000034   -0.00000000
     atom   32 type  1   force =    -0.00000093   -0.00000000   -0.00000000
     atom   33 type  1   force =     0.00000046   -0.00000000   -0.00000006
     atom   34 type  1   force =    -0.00000044    0.00000021    0.00000020
     atom   35 type  1   force =     0.00000047    0.00000000    0.00000000
     atom   36 type  1   force =    -0.00000043    0.00000021    0.00000019
     atom   37 type  1   force =     0.00000133    0.00000064   -0.00000064
     atom   38 type  1   force =    -0.00000044   -0.00000020   -0.00000021
     atom   39 type  1   force =    -0.00000047    0.00000000    0.00000000
     atom   40 type  1   force =     0.00000128    0.00000000   -0.00000034
     atom   41 type  1   force =     0.00000046    0.00000006    0.00000000
     atom   42 type  1   force =     0.00000129    0.00000034    0.00000000
     atom   43 type  1   force =     0.00000074    0.00000000   -0.00000000
     atom   44 type  1   force =     0.00000128    0.00000034   -0.00000000
     atom   45 type  1   force =     0.00000138    0.00000068   -0.00000068
     atom   46 type  1   force =     0.00000129   -0.00000000   -0.00000034
     atom   47 type  1   force =    -0.00000047   -0.00000000   -0.00000000
     atom   48 type  1   force =    -0.00000043   -0.00000019   -0.00000021
     atom   49 type  1   force =     0.00003497   -0.00000000   -0.00003906
     atom   50 type  1   force =    -0.00000039    0.00000013   -0.00000013
     atom   51 type  1   force =    -0.00000043    0.00000019    0.00000021
     atom   52 type  1   force =     0.00000133   -0.00000064   -0.00000064
     atom   53 type  1   force =     0.00003497    0.00003906    0.00000000
     atom   54 type  1   force =    -0.00000093    0.00000000   -0.00000000
     atom   55 type  1   force =     0.00000128   -0.00000034   -0.00000000
     atom   56 type  1   force =     0.00000336   -0.00000000   -0.00000000
     atom   57 type  1   force =    -0.00000044   -0.00000020    0.00000021
     atom   58 type  1   force =    -0.00000047    0.00000000   -0.00000000
     atom   59 type  1   force =     0.00000128   -0.00000000    0.00000034
     atom   60 type  1   force =     0.00000133    0.00000064    0.00000064
     atom   61 type  1   force =    -0.00000044   -0.00000021    0.00000020
     atom   62 type  1   force =    -0.00000093   -0.00000000   -0.00000000
     atom   63 type  1   force =    -0.00000043   -0.00000021   -0.00000019
     atom   64 type  1   force =    -0.00000013   -0.00000000   -0.00000000
     The Hubbard contrib.    to forces
     atom    1 type  1   force =     0.00000000    0.00000000    0.00000000
     atom    2 type  1   force =     0.00000000    0.00000000    0.00000000
     atom    3 type  1   force =     0.00000000    0.00000000    0.00000000
     atom    4 type  1   force =     0.00000000    0.00000000    0.00000000
     atom    5 type  1   force =     0.00000000    0.00000000    0.00000000
     atom    6 type  1   force =     0.00000000    0.00000000    0.00000000
     atom    7 type  1   force =     0.00000000    0.00000000    0.00000000
     atom    8 type  1   force =     0.00000000    0.00000000    0.00000000
     atom    9 type  1   force =     0.00000000    0.00000000    0.00000000
     atom   10 type  1   force =     0.00000000    0.00000000    0.00000000
     atom   11 type  1   force =     0.00000000    0.00000000    0.00000000
     atom   12 type  1   force =     0.00000000    0.00000000    0.00000000
     atom   13 type  1   force =     0.00000000    0.00000000    0.00000000
     atom   14 type  1   force =     0.00000000    0.00000000    0.00000000
     atom   15 type  1   force =     0.00000000    0.00000000    0.00000000
     atom   16 type  1   force =     0.00000000    0.00000000    0.00000000
     atom   17 type  1   force =     0.00000000    0.00000000    0.00000000
     atom   18 type  1   force =     0.00000000    0.00000000    0.00000000
     atom   19 type  1   force =     0.00000000    0.00000000    0.00000000
     atom   20 type  1   force =     0.00000000    0.00000000    0.00000000
     atom   21 type  1   force =     0.00000000    0.00000000    0.00000000
     atom   22 type  1   force =     0.00000000    0.00000000    0.00000000
     atom   23 type  1   force =     0.00000000    0.00000000    0.00000000
     atom   24 type  1   force =     0.00000000    0.00000000    0.00000000
     atom   25 type  1   force =     0.00000000    0.00000000    0.00000000
     atom   26 type  1   force =     0.00000000    0.00000000    0.00000000
     atom   27 type  1   force =     0.00000000    0.00000000    0.00000000
     atom   28 type  1   force =     0.00000000    0.00000000    0.00000000
     atom   29 type  1   force =     0.00000000    0.00000000    0.00000000
     atom   30 type  1   force =     0.00000000    0.00000000    0.00000000
     atom   31 type  1   force =     0.00000000    0.00000000    0.00000000
     atom   32 type  1   force =     0.00000000    0.00000000    0.00000000
     atom   33 type  1   force =     0.00000000    0.00000000    0.00000000
     atom   34 type  1   force =     0.00000000    0.00000000    0.00000000
     atom   35 type  1   force =     0.00000000    0.00000000    0.00000000
     atom   36 type  1   force =     0.00000000    0.00000000    0.00000000
     atom   37 type  1   force =     0.00000000    0.00000000    0.00000000
     atom   38 type  1   force =     0.00000000    0.00000000    0.00000000
     atom   39 type  1   force =     0.00000000    0.00000000    0.00000000
     atom   40 type  1   force =     0.00000000    0.00000000    0.00000000
     atom   41 type  1   force =     0.00000000    0.00000000    0.00000000
     atom   42 type  1   force =     0.00000000    0.00000000    0.00000000
     atom   43 type  1   force =     0.00000000    0.00000000    0.00000000
     atom   44 type  1   force =     0.00000000    0.00000000    0.00000000
     atom   45 type  1   force =     0.00000000    0.00000000    0.00000000
     atom   46 type  1   force =     0.00000000    0.00000000    0.00000000
     atom   47 type  1   force =     0.00000000    0.00000000    0.00000000
     atom   48 type  1   force =     0.00000000    0.00000000    0.00000000
     atom   49 type  1   force =     0.00000000    0.00000000    0.00000000
     atom   50 type  1   force =     0.00000000    0.00000000    0.00000000
     atom   51 type  1   force =     0.00000000    0.00000000    0.00000000
     atom   52 type  1   force =     0.00000000    0.00000000    0.00000000
     atom   53 type  1   force =     0.00000000    0.00000000    0.00000000
     atom   54 type  1   force =     0.00000000    0.00000000    0.00000000
     atom   55 type  1   force =     0.00000000    0.00000000    0.00000000
     atom   56 type  1   force =     0.00000000    0.00000000    0.00000000
     atom   57 type  1   force =     0.00000000    0.00000000    0.00000000
     atom   58 type  1   force =     0.00000000    0.00000000    0.00000000
     atom   59 type  1   force =     0.00000000    0.00000000    0.00000000
     atom   60 type  1   force =     0.00000000    0.00000000    0.00000000
     atom   61 type  1   force =     0.00000000    0.00000000    0.00000000
     atom   62 type  1   force =     0.00000000    0.00000000    0.00000000
     atom   63 type  1   force =     0.00000000    0.00000000    0.00000000
     atom   64 type  1   force =     0.00000000    0.00000000    0.00000000
     The SCF correction term to forces
     atom    1 type  1   force =     0.00000000   -0.00000000    0.00000000
     atom    2 type  1   force =     0.00000000    0.00000000   -0.00000000
     atom    3 type  1   force =     0.00000000    0.00000000   -0.00000000
     atom    4 type  1   force =     0.00000000    0.00000000    0.00000000
     atom    5 type  1   force =     0.00000000   -0.00000000   -0.00000000
     atom    6 type  1   force =     0.00000000    0.00000000   -0.00000000
     atom    7 type  1   force =     0.00000000    0.00000000   -0.00000000
     atom    8 type  1   force =     0.00000000   -0.00000000   -0.00000000
     atom    9 type  1   force =    -0.00000000   -0.00000000    0.00000000
     atom   10 type  1   force =     0.00000000    0.00000000   -0.00000000
     atom   11 type  1   force =     0.00000000    0.00000000   -0.00000000
     atom   12 type  1   force =    -0.00000000   -0.00000000   -0.00000000
     atom   13 type  1   force =     0.00000000    0.00000000    0.00000000
     atom   14 type  1   force =     0.00000000    0.00000000   -0.00000000
     atom   15 type  1   force =     0.00000000    0.00000000   -0.00000000
     atom   16 type  1   force =    -0.00000000    0.00000000    0.00000000
     atom   17 type  1   force =     0.00000000   -0.00000000    0.00000000
     atom   18 type  1   force =     0.00000000    0.00000000    0.00000000
     atom   19 type  1   force =    -0.00000000    0.00000000   -0.00000000
     atom   20 type  1   force =     0.00000000    0.00000000   -0.00000000
     atom   21 type  1   force =     0.00000000   -0.00000000    0.00000000
     atom   22 type  1   force =     0.00000000   -0.00000000    0.00000000
     atom   23 type  1   force =    -0.00000000    0.00000000   -0.00000000
     atom   24 type  1   force =    -0.00000000   -0.00000000    0.00000000
     atom   25 type  1   force =     0.00000000   -0.00000000    0.00000000
     atom   26 type  1   force =     0.00000000   -0.00000000   -0.00000000
     atom   27 type  1   force =    -0.00000000    0.00000000   -0.00000000
     atom   28 type  1   force =    -0.00000000   -0.00000000    0.00000000
     atom   29 type  1   force =     0.00000000   -0.00000000    0.00000000
     atom   30 type  1   force =     0.00000000    0.00000000    0.00000000
     atom   31 type  1   force =    -0.00000000    0.00000000   -0.00000000
     atom   32 type  1   force =    -0.00000000   -0.00000000    0.00000000
     atom   33 type  1   force =     0.00000000   -0.00000000    0.00000000
     atom   34 type  1   force =    -0.00000000   -0.00000000    0.00000000
     atom   35 type  1   force =    -0.00000000    0.00000000   -0.00000000
     atom   36 type  1   force =     0.00000000    0.00000000    0.00000000
     atom   37 type  1   force =     0.00000000   -0.00000000    0.00000000
     atom   38 type  1   force =    -0.00000000   -0.00000000    0.00000000
     atom   39 type  1   force =    -0.00000000    0.00000000    0.00000000
     atom   40 type  1   force =    -0.00000000   -0.00000000    0.00000000
     atom   41 type  1   force =     0.00000000   -0.00000000    0.00000000
     atom   42 type  1   force =    -0.00000000   -0.00000000   -0.00000000
     atom   43 type  1   force =    -0.00000000    0.00000000   -0.00000000
     atom   44 type  1   force =    -0.00000000   -0.00000000    0.00000000
     atom   45 type  1   force =     0.00000000   -0.00000000    0.00000000
     atom   46 type  1   force =    -0.00000000    0.00000000    0.00000000
     atom   47 type  1   force =    -0.00000000   -0.00000000   -0.00000000
     atom   48 type  1   force =     0.00000000   -0.00000000   -0.00000000
     atom   49 type  1   force =     0.00000000   -0.00000000    0.00000000
     atom   50 type  1   force =     0.00000000   -0.00000000    0.00000000
     atom   51 type  1   force =     0.00000000    0.00000000    0.00000000
     atom   52 type  1   force =     0.00000000    0.00000000    0.00000000
     atom   53 type  1   force =     0.00000000   -0.00000000    0.00000000
     atom   54 type  1   force =    -0.00000000    0.00000000    0.00000000
     atom   55 type  1   force =    -0.00000000    0.00000000   -0.00000000
     atom   56 type  1   force =     0.00000000   -0.00000000    0.00000000
     atom   57 type  1   force =    -0.00000000   -0.00000000   -0.00000000
     atom   58 type  1   force =    -0.00000000    0.00000000   -0.00000000
     atom   59 type  1   force =    -0.00000000    0.00000000   -0.00000000
     atom   60 type  1   force =     0.00000000   -0.00000000   -0.00000000
     atom   61 type  1   force =    -0.00000000    0.00000000    0.00000000
     atom   62 type  1   force =    -0.00000000   -0.00000000   -0.00000000
     atom   63 type  1   force =     0.00000000   -0.00000000   -0.00000000
     atom   64 type  1   force =     0.00000000   -0.00000000    0.00000000

     Total force =     0.002064     Total SCF correction =     0.000000


     Computing stress (Cartesian axis) and pressure


     negative rho (up, down):  4.432E-02 0.000E+00
          total   stress  (Ry/bohr**3)                   (kbar)     P=       -0.04
  -0.00000026   0.00000000  -0.00000000           -0.04        0.00       -0.00
   0.00000000  -0.00000026   0.00000000            0.00       -0.04        0.00
  -0.00000000   0.00000000  -0.00000026           -0.00        0.00       -0.04

     kinetic stress (kbar)   1464.97      0.00     -0.00
                                0.00   1464.97     -0.00
                               -0.00     -0.00   1464.97

     local   stress (kbar)    -46.88      0.00      0.00
                                0.00    -46.89     -0.00
                                0.00     -0.00    -46.89

     nonloc. stress (kbar)   1751.55      0.00      0.00
                                0.00   1751.55      0.00
                                0.00      0.00   1751.55

     hartree stress (kbar)      3.63     -0.00      0.00
                               -0.00      3.63      0.00
                                0.00      0.00      3.63

     exc-cor stress (kbar)    -86.34      0.00     -0.00
                                0.00    -86.34     -0.00
                               -0.00     -0.00    -86.34

     corecor stress (kbar)   -699.36     -0.00      0.00
                               -0.00   -699.36     -0.00
                                0.00     -0.00   -699.36

     ewald   stress (kbar)  -2387.60      0.00     -0.00
                                0.00  -2387.59     -0.00
                               -0.00     -0.00  -2387.59

     hubbard stress (kbar)      0.00      0.00      0.00
                                0.00      0.00      0.00
                                0.00      0.00      0.00

     DFT-D   stress (kbar)      0.00      0.00      0.00
                                0.00      0.00      0.00
                                0.00      0.00      0.00

     XDM     stress (kbar)      0.00      0.00      0.00
                                0.00      0.00      0.00
                                0.00      0.00      0.00

     dft-nl  stress (kbar)      0.00      0.00      0.00
                                0.00      0.00      0.00
                                0.00      0.00      0.00

     TS-vdW  stress (kbar)      0.00      0.00      0.00
                                0.00      0.00      0.00
                                0.00      0.00      0.00

     MDB     stress (kbar)      0.00      0.00      0.00
                                0.00      0.00      0.00
                                0.00      0.00      0.00

     3D-RISM stress (kbar)      0.00      0.00      0.00
                                0.00      0.00      0.00
                                0.00      0.00      0.00


     Writing all to output data dir ./scratch_runs/atom01_x_minus/al.save/ :
     XML data file, charge density, pseudopotentials, collected wavefunctions
 
     init_run     :     54.67s CPU     56.91s WALL (       1 calls)
     electrons    :   1171.36s CPU   1194.06s WALL (       1 calls)
     forces       :      7.87s CPU      7.95s WALL (       1 calls)
     stress       :     24.31s CPU     24.37s WALL (       1 calls)

     Called by init_run:
     wfcinit      :     53.74s CPU     55.76s WALL (       1 calls)
     wfcinit:atom :      0.30s CPU      0.74s WALL (      30 calls)
     wfcinit:wfcr :     51.09s CPU     52.35s WALL (      30 calls)
     potinit      :      0.69s CPU      0.86s WALL (       1 calls)
     hinit0       :      0.06s CPU      0.07s WALL (       1 calls)

     Called by electrons:
     c_bands      :    989.64s CPU   1007.32s WALL (      31 calls)
     sum_band     :    155.67s CPU    160.62s WALL (      31 calls)
     v_of_rho     :      1.40s CPU      1.44s WALL (      31 calls)
     v_h          :      0.08s CPU      0.08s WALL (      31 calls)
     v_xc         :      1.41s CPU      1.46s WALL (      33 calls)
     newd         :      1.39s CPU      1.43s WALL (      31 calls)
     PAW_pot      :     23.54s CPU     23.70s WALL (      31 calls)
     mix_rho      :      0.38s CPU      0.38s WALL (      31 calls)

     Called by c_bands:
     init_us_2    :     31.47s CPU     31.51s WALL (    1950 calls)
     cegterg      :    930.99s CPU    948.61s WALL (     930 calls)

     Called by sum_band:
     sum_band:wei :      0.16s CPU      0.16s WALL (      31 calls)
     sum_band:loo :    153.92s CPU    158.82s WALL (      31 calls)
     sum_band:buf :      2.06s CPU      2.06s WALL (     930 calls)
     sum_band:ini :     14.85s CPU     14.86s WALL (     930 calls)
     sum_band:cal :     43.01s CPU     43.10s WALL (     930 calls)
     sum_band:bec :      0.44s CPU      0.44s WALL (     930 calls)
     addusdens    :      1.30s CPU      1.30s WALL (      31 calls)
                                        0.00s GPU  (      31 calls)
     addusd:skk   :      0.30s CPU      0.30s WALL (      31 calls)
                                        0.00s GPU  (      31 calls)

     Called by *egterg:
     cdiaghg      :     47.48s CPU     47.52s WALL (    3250 calls)
     cegterg:over :     71.72s CPU     71.88s WALL (    2350 calls)
     cegterg:upda :     32.90s CPU     32.91s WALL (    2350 calls)
     cegterg:last :     56.61s CPU     56.61s WALL (    1630 calls)
     h_psi        :    607.75s CPU    626.02s WALL (    3310 calls)
     s_psi        :    102.19s CPU    102.21s WALL (    3310 calls)
     g_psi        :      2.12s CPU      2.13s WALL (    2350 calls)

     Called by h_psi:
     h_psi:calbec :    111.89s CPU    112.14s WALL (    3310 calls)
     vloc_psi     :    389.48s CPU    406.93s WALL (    3310 calls)
     add_vuspsi   :    101.67s CPU    101.77s WALL (    3310 calls)

     General routines
     calbec       :    178.05s CPU    178.46s WALL (    4750 calls)
     fft          :      0.54s CPU      0.58s WALL (     367 calls)
     ffts         :      0.05s CPU      0.05s WALL (      31 calls)
     fftw         :    383.88s CPU    403.25s WALL (  647000 calls)
 
     Parallel routines

     PAW routines
     PAW_pot      :     23.54s CPU     23.70s WALL (      31 calls)
     PAW_symme    :      0.01s CPU      0.01s WALL (      62 calls)
 
     PWSCF        :  20m59.13s CPU  21m25.46s WALL

 
   This run was terminated on:   0:30:17  16Jun2026            

=------------------------------------------------------------------------------=
   JOB DONE.
=------------------------------------------------------------------------------=

===== TIMING =====
Job:           atom01_x_minus
Start:         2026-06-16T00:08:49+02:00
End:           2026-06-16T00:30:17+02:00
Duration (s):  1288
Duration (H:M:S): 00:21:28
==================
