
     Program PWSCF v.7.4 starts on 26Apr2026 at 10:10:34 

     This program is part of the open-source Quantum ESPRESSO suite
     for quantum simulation of materials; please cite
         "P. Giannozzi et al., J. Phys.:Condens. Matter 21 395502 (2009);
         "P. Giannozzi et al., J. Phys.:Condens. Matter 29 465901 (2017);
         "P. Giannozzi et al., J. Chem. Phys. 152 154105 (2020);
          URL http://www.quantum-espresso.org", 
     in publications or presentations arising from this work. More details at
     http://www.quantum-espresso.org/quote

     Parallel version (MPI), running on    12 processors

     MPI processes distributed on     1 nodes
     52321 MiB available memory on the printing compute node when the environment starts
 
     Reading input from ./scratch_runs/atom01_x_minus/atom01_x_minus.in

     Current dimensions of program PWSCF are:
     Max number of different atomic species (ntypx) = 10
     Max number of k-points (npk) =  40000
     Max angular momentum in pseudopotentials (lmaxx) =  4
     Message from routine setup:
     using ibrav=0 with symmetry is DISCOURAGED, use correct ibrav instead
 
     R & G space division:  proc/nbgrp/npool/nimage =      12
     Subspace diagonalization in iterative solution of the eigenvalue problem:
     a serial algorithm will be used

 
     Parallelization info
     --------------------
     sticks:   dense  smooth     PW     G-vecs:    dense   smooth      PW
     Min         166     166     47                 4907     4907     738
     Max         167     167     49                 4909     4909     740
     Sum        1993    1993    571                58887    58887    8873
 
     Using Slab Decomposition
 


     bravais-lattice index     =            0
     lattice parameter (alat)  =      14.4148  a.u.
     unit-cell volume          =    2117.9088 (a.u.)^3
     number of atoms/cell      =           16
     number of atomic types    =            1
     number of electrons       =        64.00
     number of Kohn-Sham states=           32
     kinetic-energy cutoff     =      35.0000  Ry
     charge density cutoff     =     140.0000  Ry
     scf convergence threshold =      1.0E-16
     mixing beta               =       0.7000
     number of iterations used =            8  plain     mixing
     Exchange-correlation= SLA  PW   NOGX NOGC
                           (   1   4   0   0   0   0   0)

     celldm(1)=  14.414760  celldm(2)=   0.000000  celldm(3)=   0.000000
     celldm(4)=   0.000000  celldm(5)=   0.000000  celldm(6)=   0.000000

     crystal axes: (cart. coord. in units of alat)
               a(1) = (  -0.707107   0.000000   0.707107 )  
               a(2) = (   0.000000   0.707107   0.707107 )  
               a(3) = (  -0.707107   0.707107   0.000000 )  

     reciprocal axes: (cart. coord. in units 2 pi/alat)
               b(1) = ( -0.707107 -0.707107  0.707107 )  
               b(2) = (  0.707107  0.707107  0.707107 )  
               b(3) = ( -0.707107  0.707107 -0.707107 )  


     PseudoPot. # 1 for Si read from file:
     ./Si.upf
     MD5 check sum: 9e2d726316af3d4752eea8ab0afbb951
     Pseudo is Norm-conserving + core correction, Zval =  4.0
     Generated using ONCVPSP code by D. R. Hamann
     Using radial grid of 1510 points,  6 beta functions with: 
                l(1) =   0
                l(2) =   0
                l(3) =   1
                l(4) =   1
                l(5) =   2
                l(6) =   2

     atomic species   valence    mass     pseudopotential
     Si                4.00    28.08600     Si( 1.00)

      4 Sym. Ops. (no inversion) found



   Cartesian axes

     site n.     atom                  positions (alat units)
         1        Si     tau(   1) = (  -0.0013110   0.0000000   0.0000000  )
         2        Si     tau(   2) = (  -0.1767767   0.1767767   0.1767767  )
         3        Si     tau(   3) = (  -0.3535534   0.0000000   0.3535534  )
         4        Si     tau(   4) = (  -0.5303301   0.1767767   0.5303301  )
         5        Si     tau(   5) = (   0.0000000   0.3535534   0.3535534  )
         6        Si     tau(   6) = (  -0.1767767   0.5303301   0.5303301  )
         7        Si     tau(   7) = (  -0.3535534   0.3535534   0.0000000  )
         8        Si     tau(   8) = (  -0.5303301   0.5303301   0.1767767  )
         9        Si     tau(   9) = (  -0.3535534   0.3535534   0.7071068  )
        10        Si     tau(  10) = (  -0.5303301   0.5303301   0.8838835  )
        11        Si     tau(  11) = (  -0.7071068   0.3535534   0.3535534  )
        12        Si     tau(  12) = (  -0.8838835   0.5303301   0.5303301  )
        13        Si     tau(  13) = (  -0.3535534   0.7071068   0.3535534  )
        14        Si     tau(  14) = (  -0.5303301   0.8838835   0.5303301  )
        15        Si     tau(  15) = (  -0.7071068   0.7071068   0.7071068  )
        16        Si     tau(  16) = (  -0.8838835   0.8838835   0.8838835  )

     number of k points=    46
                       cart. coord. in units 2pi/alat
        k(    1) = (   0.0000000   0.0000000   0.0000000), wk =   0.0092593
        k(    2) = (  -0.1178511   0.1178511  -0.1178511), wk =   0.0370370
        k(    3) = (  -0.2357023   0.2357023  -0.2357023), wk =   0.0370370
        k(    4) = (   0.3535534  -0.3535534   0.3535534), wk =   0.0185185
        k(    5) = (   0.0000000   0.2357023   0.0000000), wk =   0.0370370
        k(    6) = (  -0.1178511   0.3535534  -0.1178511), wk =   0.0740741
        k(    7) = (   0.4714045  -0.2357023   0.4714045), wk =   0.0740741
        k(    8) = (   0.3535534  -0.1178511   0.3535534), wk =   0.0740741
        k(    9) = (   0.2357023  -0.0000000   0.2357023), wk =   0.0740741
        k(   10) = (   0.0000000   0.4714045   0.0000000), wk =   0.0370370
        k(   11) = (   0.5892557  -0.1178511   0.5892557), wk =   0.0740741
        k(   12) = (   0.4714045  -0.0000000   0.4714045), wk =   0.0740741
        k(   13) = (   0.0000000  -0.7071068   0.0000000), wk =   0.0185185
        k(   14) = (   0.4714045  -0.2357023   0.7071068), wk =   0.0740741
        k(   15) = (   0.3535534  -0.1178511   0.5892557), wk =   0.0370370
        k(   16) = (  -0.2357023  -0.7071068   0.0000000), wk =   0.0370370
        k(   17) = (  -0.1178511   0.1178511   0.1178511), wk =   0.0370370
        k(   18) = (  -0.2357023   0.2357023   0.2357023), wk =   0.0370370
        k(   19) = (   0.3535534  -0.3535534  -0.3535534), wk =   0.0185185
        k(   20) = (   0.2357023   0.0000000   0.0000000), wk =   0.0185185
        k(   21) = (   0.3535534  -0.1178511   0.1178511), wk =   0.0370370
        k(   22) = (  -0.3535534   0.1178511   0.1178511), wk =   0.0370370
        k(   23) = (  -0.1178511  -0.3535534  -0.1178511), wk =   0.0740741
        k(   24) = (  -0.2357023   0.4714045  -0.4714045), wk =   0.0370370
        k(   25) = (   0.2357023  -0.4714045  -0.4714045), wk =   0.0370370
        k(   26) = (   0.4714045   0.2357023   0.4714045), wk =   0.0740741
        k(   27) = (  -0.1178511   0.3535534  -0.3535534), wk =   0.0370370
        k(   28) = (   0.1178511  -0.3535534  -0.3535534), wk =   0.0370370
        k(   29) = (   0.3535534   0.1178511   0.3535534), wk =   0.0740741
        k(   30) = (  -0.0000000   0.2357023  -0.2357023), wk =   0.0185185
        k(   31) = (   0.0000000  -0.2357023  -0.2357023), wk =   0.0185185
        k(   32) = (   0.4714045   0.0000000   0.0000000), wk =   0.0185185
        k(   33) = (  -0.1178511   0.5892557  -0.5892557), wk =   0.0370370
        k(   34) = (   0.1178511  -0.5892557  -0.5892557), wk =   0.0370370
        k(   35) = (   0.5892557   0.1178511   0.5892557), wk =   0.0740741
        k(   36) = (   0.0000000   0.4714045  -0.4714045), wk =   0.0185185
        k(   37) = (   0.0000000  -0.4714045  -0.4714045), wk =   0.0185185
        k(   38) = (  -0.7071068   0.0000000   0.0000000), wk =   0.0092593
        k(   39) = (  -0.2357023   0.4714045  -0.7071068), wk =   0.0740741
        k(   40) = (   0.7071068   0.2357023   0.4714045), wk =   0.0370370
        k(   41) = (  -0.7071068   0.2357023  -0.4714045), wk =   0.0370370
        k(   42) = (  -0.1178511   0.3535534  -0.5892557), wk =   0.0740741
        k(   43) = (   0.1178511  -0.3535534  -0.5892557), wk =   0.0740741
        k(   44) = (   0.3535534   0.5892557   0.1178511), wk =   0.0370370
        k(   45) = (  -0.7071068  -0.2357023   0.0000000), wk =   0.0370370
        k(   46) = (   0.0000000   0.7071068  -0.2357023), wk =   0.0370370

     Dense  grid:    58887 G-vectors     FFT dimensions: (  60,  60,  60)

     Estimated max dynamical RAM per process >      22.63 MB

     Estimated total dynamical RAM >     271.58 MB

     Initial potential from superposition of free atoms

     starting charge      63.9911, renormalised to      64.0000
     Starting wfcs are   64 randomized atomic wfcs

     total cpu time spent up to now is        0.7 secs

     per-process dynamical memory:    67.8 Mb

     Self-consistent Calculation

     iteration #  1     ecut=    35.00 Ry     beta= 0.70
     Davidson diagonalization with overlap
     ethr =  1.00E-02,  avg # of iterations =  2.0

     Threshold (ethr) on eigenvalues was too large:
     Diagonalizing with lowered threshold

     Davidson diagonalization with overlap
     ethr =  6.13E-04,  avg # of iterations =  2.1

     total cpu time spent up to now is        2.7 secs

     total energy              =    -136.38042716 Ry
     estimated scf accuracy    <       0.46427622 Ry

     iteration #  2     ecut=    35.00 Ry     beta= 0.70
     Davidson diagonalization with overlap
     ethr =  7.25E-04,  avg # of iterations =  1.0

     total cpu time spent up to now is        3.5 secs

     total energy              =    -136.39925727 Ry
     estimated scf accuracy    <       0.01974745 Ry

     iteration #  3     ecut=    35.00 Ry     beta= 0.70
     Davidson diagonalization with overlap
     ethr =  3.09E-05,  avg # of iterations =  4.0

     total cpu time spent up to now is        4.7 secs

     total energy              =    -136.40605316 Ry
     estimated scf accuracy    <       0.00076013 Ry

     iteration #  4     ecut=    35.00 Ry     beta= 0.70
     Davidson diagonalization with overlap
     ethr =  1.19E-06,  avg # of iterations =  4.8

     total cpu time spent up to now is        6.1 secs

     total energy              =    -136.40661462 Ry
     estimated scf accuracy    <       0.00003055 Ry

     iteration #  5     ecut=    35.00 Ry     beta= 0.70
     Davidson diagonalization with overlap
     ethr =  4.77E-08,  avg # of iterations =  5.4

     total cpu time spent up to now is        7.5 secs

     total energy              =    -136.40663476 Ry
     estimated scf accuracy    <       0.00000394 Ry

     iteration #  6     ecut=    35.00 Ry     beta= 0.70
     Davidson diagonalization with overlap
     ethr =  6.15E-09,  avg # of iterations =  3.8

     total cpu time spent up to now is        8.6 secs

     total energy              =    -136.40663574 Ry
     estimated scf accuracy    <       0.00000037 Ry

     iteration #  7     ecut=    35.00 Ry     beta= 0.70
     Davidson diagonalization with overlap
     ethr =  5.85E-10,  avg # of iterations =  4.7

     total cpu time spent up to now is       10.0 secs

     total energy              =    -136.40663591 Ry
     estimated scf accuracy    <       0.00000007 Ry

     iteration #  8     ecut=    35.00 Ry     beta= 0.70
     Davidson diagonalization with overlap
     ethr =  1.04E-10,  avg # of iterations =  3.5

     total cpu time spent up to now is       10.9 secs

     total energy              =    -136.40663590 Ry
     estimated scf accuracy    <       0.00000004 Ry

     iteration #  9     ecut=    35.00 Ry     beta= 0.70
     Davidson diagonalization with overlap
     ethr =  5.64E-11,  avg # of iterations =  2.3

     total cpu time spent up to now is       11.9 secs

     total energy              =    -136.40663591 Ry
     estimated scf accuracy    <          1.4E-09 Ry

     iteration # 10     ecut=    35.00 Ry     beta= 0.70
     Davidson diagonalization with overlap
     ethr =  2.11E-12,  avg # of iterations =  5.9

     total cpu time spent up to now is       13.5 secs

     total energy              =    -136.40663591 Ry
     estimated scf accuracy    <          3.0E-10 Ry

     iteration # 11     ecut=    35.00 Ry     beta= 0.70
     Davidson diagonalization with overlap
     ethr =  4.68E-13,  avg # of iterations =  2.5

     total cpu time spent up to now is       14.4 secs

     total energy              =    -136.40663591 Ry
     estimated scf accuracy    <          2.4E-10 Ry

     iteration # 12     ecut=    35.00 Ry     beta= 0.70
     Davidson diagonalization with overlap
     ethr =  3.79E-13,  avg # of iterations =  2.1

     total cpu time spent up to now is       15.3 secs

     total energy              =    -136.40663591 Ry
     estimated scf accuracy    <          5.0E-11 Ry

     iteration # 13     ecut=    35.00 Ry     beta= 0.70
     Davidson diagonalization with overlap
     ethr =  1.00E-13,  avg # of iterations =  3.5

     total cpu time spent up to now is       16.4 secs

     total energy              =    -136.40663591 Ry
     estimated scf accuracy    <          8.5E-12 Ry

     iteration # 14     ecut=    35.00 Ry     beta= 0.70
     Davidson diagonalization with overlap
     ethr =  1.00E-13,  avg # of iterations =  1.0

     total cpu time spent up to now is       17.2 secs

     total energy              =    -136.40663591 Ry
     estimated scf accuracy    <          6.8E-12 Ry

     iteration # 15     ecut=    35.00 Ry     beta= 0.70
     Davidson diagonalization with overlap
     ethr =  1.00E-13,  avg # of iterations =  1.0

     total cpu time spent up to now is       18.0 secs

     total energy              =    -136.40663591 Ry
     estimated scf accuracy    <          1.3E-12 Ry

     iteration # 16     ecut=    35.00 Ry     beta= 0.70
     Davidson diagonalization with overlap
     ethr =  1.00E-13,  avg # of iterations =  1.0

     total cpu time spent up to now is       18.8 secs

     total energy              =    -136.40663591 Ry
     estimated scf accuracy    <          6.8E-14 Ry

     iteration # 17     ecut=    35.00 Ry     beta= 0.70
     Davidson diagonalization with overlap
     ethr =  1.00E-13,  avg # of iterations =  1.0

     total cpu time spent up to now is       19.5 secs

     total energy              =    -136.40663591 Ry
     estimated scf accuracy    <          1.0E-13 Ry

     iteration # 18     ecut=    35.00 Ry     beta= 0.70
     Davidson diagonalization with overlap
     ethr =  1.00E-13,  avg # of iterations =  1.0

     total cpu time spent up to now is       20.3 secs

     total energy              =    -136.40663591 Ry
     estimated scf accuracy    <          1.2E-13 Ry

     iteration # 19     ecut=    35.00 Ry     beta= 0.70
     Davidson diagonalization with overlap
     ethr =  1.00E-13,  avg # of iterations =  1.0

     total cpu time spent up to now is       21.1 secs

     total energy              =    -136.40663591 Ry
     estimated scf accuracy    <          8.6E-14 Ry

     iteration # 20     ecut=    35.00 Ry     beta= 0.70
     Davidson diagonalization with overlap
     ethr =  1.00E-13,  avg # of iterations =  1.0

     total cpu time spent up to now is       21.9 secs

     total energy              =    -136.40663591 Ry
     estimated scf accuracy    <          1.9E-14 Ry

     iteration # 21     ecut=    35.00 Ry     beta= 0.70
     Davidson diagonalization with overlap
     ethr =  1.00E-13,  avg # of iterations =  1.0

     total cpu time spent up to now is       22.6 secs

     total energy              =    -136.40663591 Ry
     estimated scf accuracy    <          1.2E-14 Ry

     iteration # 22     ecut=    35.00 Ry     beta= 0.70
     Davidson diagonalization with overlap
     ethr =  1.00E-13,  avg # of iterations =  1.0

     total cpu time spent up to now is       23.4 secs

     End of self-consistent calculation

          k = 0.0000 0.0000 0.0000 (  7391 PWs)   bands (ev):

    -5.8518  -3.4706  -3.4677  -3.4637  -3.4609  -1.6465  -1.6424  -1.6384
    -1.6384  -1.6344  -1.6303  -0.8427  -0.8382  -0.8367  -0.8321   3.3415
     3.3447   3.3451   3.3452   3.3456   3.3487   5.0254   5.0330   5.0348
     5.0355   5.0365   5.0372   5.0390   5.0465   6.2428   6.2489   6.2550

          k =-0.1179 0.1179-0.1179 (  7432 PWs)   bands (ev):

    -5.7593  -3.8132  -3.4310  -3.4306  -3.4243  -2.2466  -2.2460  -2.2394
    -0.9633  -0.9624  -0.9559  -0.7337  -0.7294  -0.7254  -0.3147   3.0025
     3.0026   3.0064   3.4194   3.4220   3.4233   4.4352   4.4368   4.4426
     4.8483   4.8528   4.8535   5.0821   5.0885   5.3809   6.0965   6.1040

          k =-0.2357 0.2357-0.2357 (  7423 PWs)   bands (ev):

    -5.4845  -4.4495  -3.3104  -3.3103  -3.3037  -2.7311  -2.7307  -2.7240
    -0.4564  -0.4521  -0.4477  -0.3712  -0.3701  -0.3636   0.8379   2.5229
     2.5234   2.5270   3.4143   3.4150   3.4207   3.6454   3.6482   3.6495
     3.8370   4.4383   4.4420   4.4430   5.2309   5.2374   5.7855   5.7924

          k = 0.3536-0.3536 0.3536 (  7366 PWs)   bands (ev):

    -5.0406  -5.0357  -3.0877  -3.0857  -3.0823  -3.0808  -3.0786  -3.0712
    -0.2114  -0.2062  -0.2009  -0.2004  -0.1993  -0.1930   2.2660   2.2696
     2.6278   2.6279   2.6294   2.6303   2.6329   2.6406   3.9955   4.0029
     4.0033   4.0052   4.0063   4.0071   5.4671   5.4787   5.4793   5.4808

          k = 0.0000 0.2357 0.0000 (  7463 PWs)   bands (ev):

    -5.7283  -3.5601  -3.5565  -3.5527  -3.5491  -2.8689  -1.6041  -1.5978
    -1.5977  -1.5914  -0.5513  -0.5458  -0.5450  -0.5396  -0.2625   3.0160
     3.0182   3.0202   3.0223   3.4562   3.4563   4.3312   4.3365   4.3385
     4.3438   4.9972   4.9995   5.0008   5.0032   5.5548   5.8073   5.8075

          k =-0.1179 0.3536-0.1179 (  7428 PWs)   bands (ev):

    -5.5138  -4.1541  -3.5734  -3.5694  -3.3711  -3.1881  -2.1480  -2.1435
    -0.9527  -0.9474  -0.6189  -0.2059  -0.1994   0.4110   0.4520   2.3981
     2.4013   3.1966   3.2086   3.2121   3.2809   3.6333   3.6383   3.6418
     4.3035   4.3607   4.6307   4.6625   4.6652   5.2450   5.4368   5.6309

          k = 0.4714-0.2357 0.4714 (  7399 PWs)   bands (ev):

    -5.1232  -4.7750  -3.7205  -3.4586  -3.4543  -2.7444  -2.5932  -2.5893
    -0.6322  -0.5528  -0.5468   0.1531   0.1598   0.7449   1.7896   2.1983
     2.2005   2.2589   2.7779   2.9526   2.9568   3.1918   3.5665   3.5704
     3.9637   4.0734   4.0762   4.1885   4.5203   5.1200   5.3017   5.5599

          k = 0.3536-0.1179 0.3536 (  7410 PWs)   bands (ev):

    -5.2728  -4.5770  -3.9082  -3.1988  -3.1943  -2.9454  -2.9421  -2.2435
    -0.8733  -0.5737  -0.5674   0.1784   0.1849   0.5042   1.3178   1.9248
     2.7025   2.7037   2.7360   2.7389   3.2722   3.5578   3.5608   3.7688
     3.8056   4.0555   4.0596   4.3855   4.8263   4.9090   4.9436   5.8937

          k = 0.2357-0.0000 0.2357 (  7411 PWs)   bands (ev):

    -5.6058  -3.9370  -3.9354  -3.2223  -3.2193  -2.7911  -2.7865  -1.7736
    -1.3733  -0.7188  -0.7126  -0.3008  -0.2950   0.0592   0.0642   2.3021
     3.0541   3.0551   3.2553   3.2585   3.5418   3.5991   3.6000   4.5689
     4.5734   4.6403   4.6448   4.6494   4.8191   4.8204   5.3596   6.1316

          k = 0.0000 0.4714 0.0000 (  7371 PWs)   bands (ev):

    -5.3596  -3.9157  -3.7107  -3.7065  -3.7027  -3.6984  -1.5164  -1.5103
    -1.5102  -1.5040   0.1575   0.1631   0.1642   0.1699   1.2079   2.5049
     2.5073   2.5089   2.5112   3.1280   3.1327   3.1344   3.1392   3.7860
     3.7860   4.2057   4.9291   4.9321   4.9332   4.9362   5.0296   5.0298

          k = 0.5893-0.1179 0.5893 (  7391 PWs)   bands (ev):

    -5.0269  -4.3438  -4.3072  -3.6926  -3.6882  -3.1322  -2.0324  -2.0286
    -0.9602  -0.9549  -0.1221   0.5195   0.5265   1.3371   1.7931   2.0537
     2.0556   2.1319   2.6475   2.6511   2.8557   2.8591   3.1034   3.2735
     3.8431   4.0716   4.4998   4.5590   4.5621   4.6735   4.6905   5.3086

          k = 0.4714-0.0000 0.4714 (  7408 PWs)   bands (ev):

    -4.8858  -4.5299  -4.5294  -3.5230  -3.5185  -2.5223  -2.5113  -2.5080
    -0.6669  -0.6608  -0.5824   0.5589   0.5658   1.7151   1.7635   1.7686
     2.1388   2.1395   2.4976   2.5861   2.5881   3.4151   3.4189   3.7705
     3.8977   3.9008   4.1001   4.2110   4.2171   4.4692   4.4698   5.6795

          k = 0.0000-0.7071 0.0000 (  7344 PWs)   bands (ev):

    -4.7518  -4.7517  -3.7760  -3.7716  -3.7678  -3.7634  -1.4689  -1.4628
    -1.4627  -1.4566   0.7155   0.7160   0.7225   0.7231   2.2872   2.2896
     2.2910   2.2931   2.3947   2.3968   2.3972   2.3995   2.7171   2.7171
     4.3215   4.3215   4.3215   4.3216   4.8970   4.9002   4.9013   4.9046

          k = 0.4714-0.2357 0.7071 (  7406 PWs)   bands (ev):

    -5.2404  -4.2095  -4.2088  -3.8145  -3.0849  -3.0831  -2.5674  -1.9811
    -1.0693  -0.4424  -0.3797  -0.3751   0.9094   0.9136   1.0297   1.8812
     2.3825   2.5785   2.5800   3.0169   3.3431   3.4133   3.4996   3.7578
     3.7633   3.7856   4.2349   4.2363   4.5711   4.9163   4.9189   5.5329

          k = 0.3536-0.1179 0.5893 (  7402 PWs)   bands (ev):

    -4.7986  -4.7938  -4.0982  -4.0938  -2.8864  -2.8784  -2.5176  -2.5121
    -0.6283  -0.6240  -0.2230  -0.2179   1.2300   1.2372   1.8990   1.9017
     2.2280   2.2344   2.2399   2.2431   3.3140   3.3173   3.5465   3.5529
     3.7714   3.7754   4.0239   4.0327   4.2917   4.2934   5.2514   5.2542

          k =-0.2357-0.7071 0.0000 (  7402 PWs)   bands (ev):

    -4.6390  -4.6390  -4.3058  -4.3058  -3.0673  -3.0673  -2.2659  -2.2658
    -0.7254  -0.7253  -0.0220  -0.0220   1.5209   1.5210   1.9249   1.9251
     1.9874   1.9876   2.3030   2.3030   3.0679   3.0684   3.0898   3.0905
     3.8619   3.8621   4.1271   4.1271   4.5912   4.5912   4.9533   4.9533

          k =-0.1179 0.1179 0.1179 (  7432 PWs)   bands (ev):

    -5.7592  -3.8113  -3.4340  -3.4275  -3.4271  -2.2490  -2.2423  -2.2418
    -0.9646  -0.9579  -0.9572  -0.7316  -0.7277  -0.7231  -0.3198   2.9993
     3.0032   3.0032   3.4214   3.4226   3.4252   4.4295   4.4354   4.4371
     4.8531   4.8536   4.8580   5.0835   5.0900   5.3750   6.0999   6.1076

          k =-0.2357 0.2357 0.2357 (  7423 PWs)   bands (ev):

    -5.4844  -4.4486  -3.3134  -3.3067  -3.3066  -2.7338  -2.7271  -2.7267
    -0.4541  -0.4494  -0.4457  -0.3712  -0.3650  -0.3634   0.8336   2.5186
     2.5223   2.5227   3.4086   3.4143   3.4149   3.6477   3.6488   3.6516
     3.8324   4.4419   4.4427   4.4464   5.2327   5.2391   5.7881   5.7951

          k = 0.3536-0.3536-0.3536 (  7366 PWs)   bands (ev):

    -5.0402  -5.0353  -3.0916  -3.0842  -3.0820  -3.0805  -3.0771  -3.0751
    -0.2082  -0.2019  -0.2008  -0.2003  -0.1950  -0.1897   2.2618   2.2655
     2.6185   2.6259   2.6286   2.6295   2.6309   2.6310   4.0018   4.0025
     4.0036   4.0056   4.0058   4.0131   5.4743   5.4756   5.4762   5.4880

          k = 0.2357 0.0000 0.0000 (  7463 PWs)   bands (ev):

    -5.7283  -3.5590  -3.5564  -3.5527  -3.5503  -2.8688  -1.6019  -1.5979
    -1.5977  -1.5936  -0.5502  -0.5464  -0.5443  -0.5405  -0.2626   3.0183
     3.0192   3.0192   3.0201   3.4540   3.4584   4.3349   4.3366   4.3384
     4.3402   4.9913   4.9990   5.0013   5.0089   5.5548   5.8027   5.8120

          k = 0.3536-0.1179 0.1179 (  7428 PWs)   bands (ev):

    -5.5138  -4.1542  -3.5731  -3.5675  -3.3714  -3.1909  -2.1479  -2.1430
    -0.9520  -0.9491  -0.6127  -0.2069  -0.2040   0.4123   0.4523   2.3987
     2.3996   3.1960   3.2107   3.2111   3.2821   3.6329   3.6330   3.6406
     4.3019   4.3642   4.6278   4.6642   4.6728   5.2400   5.4329   5.6373

          k =-0.3536 0.1179 0.1179 (  7428 PWs)   bands (ev):

    -5.5137  -4.1529  -3.5754  -3.5696  -3.3712  -3.1878  -2.1489  -2.1439
    -0.9505  -0.9474  -0.6192  -0.2010  -0.1980   0.4120   0.4471   2.3973
     2.3981   3.1935   3.2116   3.2118   3.2774   3.6336   3.6358   3.6447
     4.2993   4.3613   4.6343   4.6580   4.6665   5.2483   5.4408   5.6319

          k =-0.1179-0.3536-0.1179 (  7428 PWs)   bands (ev):

    -5.5137  -4.1531  -3.5734  -3.5694  -3.3716  -3.1906  -2.1483  -2.1439
    -0.9520  -0.9467  -0.6131  -0.2056  -0.1991   0.4130   0.4479   2.3955
     2.3987   3.1928   3.2104   3.2140   3.2787   3.6302   3.6352   3.6418
     4.2977   4.3646   4.6316   4.6656   4.6684   5.2436   5.4364   5.6385

          k =-0.2357 0.4714-0.4714 (  7399 PWs)   bands (ev):

    -5.1231  -4.7751  -3.7212  -3.4582  -3.4529  -2.7474  -2.5934  -2.5876
    -0.6259  -0.5516  -0.5515   0.1529   0.1545   0.7480   1.7905   2.1987
     2.2018   2.2584   2.7768   2.9528   2.9534   3.1916   3.5682   3.5686
     3.9612   4.0755   4.0822   4.1859   4.5232   5.1160   5.3073   5.5547

          k = 0.2357-0.4714-0.4714 (  7399 PWs)   bands (ev):

    -5.1229  -4.7744  -3.7207  -3.4600  -3.4548  -2.7438  -2.5951  -2.5894
    -0.6326  -0.5474  -0.5472   0.1592   0.1609   0.7466   1.7851   2.1943
     2.1977   2.2560   2.7739   2.9518   2.9524   3.1873   3.5700   3.5705
     3.9662   4.0710   4.0776   4.1915   4.5211   5.1232   5.3025   5.5639

          k = 0.4714 0.2357 0.4714 (  7399 PWs)   bands (ev):

    -5.1229  -4.7745  -3.7214  -3.4587  -3.4544  -2.7469  -2.5933  -2.5895
    -0.6265  -0.5520  -0.5458   0.1539   0.1606   0.7497   1.7861   2.1956
     2.1980   2.2553   2.7729   2.9486   2.9526   3.1869   3.5682   3.5719
     3.9640   4.0769   4.0797   4.1890   4.5241   5.1193   5.3082   5.5587

          k =-0.1179 0.3536-0.3536 (  7410 PWs)   bands (ev):

    -5.2729  -4.5769  -3.9092  -3.1982  -3.1933  -2.9458  -2.9395  -2.2466
    -0.8683  -0.5747  -0.5719   0.1790   0.1795   0.5083   1.3171   1.9255
     2.7024   2.7087   2.7358   2.7367   3.2741   3.5598   3.5651   3.7682
     3.8031   4.0560   4.0571   4.3829   4.8286   4.9051   4.9483   5.8882

          k = 0.1179-0.3536-0.3536 (  7410 PWs)   bands (ev):

    -5.2725  -4.5763  -3.9084  -3.1998  -3.1948  -2.9482  -2.9418  -2.2423
    -0.8744  -0.5688  -0.5660   0.1846   0.1850   0.5052   1.3138   1.9222
     2.6962   2.7027   2.7340   2.7350   3.2674   3.5566   3.5619   3.7644
     3.8080   4.0591   4.0603   4.3887   4.8279   4.9120   4.9438   5.8986

          k = 0.3536 0.1179 0.3536 (  7410 PWs)   bands (ev):

    -5.2727  -4.5762  -3.9094  -3.1988  -3.1943  -2.9455  -2.9422  -2.2456
    -0.8695  -0.5733  -0.5669   0.1791   0.1856   0.5094   1.3131   1.9229
     2.7003   2.7025   2.7327   2.7349   3.2691   3.5608   3.5638   3.7636
     3.8058   4.0567   4.0607   4.3863   4.8298   4.9079   4.9491   5.8931

          k =-0.0000 0.2357-0.2357 (  7411 PWs)   bands (ev):

    -5.6058  -3.9409  -3.9328  -3.2228  -3.2161  -2.7906  -2.7859  -1.7773
    -1.3693  -0.7209  -0.7167  -0.3006  -0.2983   0.0606   0.0669   2.3042
     3.0538   3.0557   3.2554   3.2607   3.5394   3.5989   3.6070   4.5686
     4.5699   4.6457   4.6478   4.6496   4.8110   4.8214   5.3589   6.1258

          k = 0.0000-0.2357-0.2357 (  7411 PWs)   bands (ev):

    -5.6057  -3.9396  -3.9315  -3.2255  -3.2188  -2.7918  -2.7871  -1.7699
    -1.3772  -0.7147  -0.7107  -0.2975  -0.2953   0.0564   0.0627   2.2999
     3.0536   3.0555   3.2531   3.2584   3.5439   3.5919   3.6002   4.5729
     4.5743   4.6387   4.6425   4.6441   4.8179   4.8284   5.3601   6.1374

          k = 0.4714 0.0000 0.0000 (  7371 PWs)   bands (ev):

    -5.3596  -3.9158  -3.7082  -3.7063  -3.7029  -3.7008  -1.5147  -1.5103
    -1.5102  -1.5058   0.1594   0.1617   0.1657   0.1680   1.2079   2.5078
     2.5081   2.5081   2.5084   3.1314   3.1330   3.1342   3.1358   3.7836
     3.7883   4.2057   4.9237   4.9315   4.9337   4.9405   5.0268   5.0335

          k =-0.1179 0.5893-0.5893 (  7391 PWs)   bands (ev):

    -5.0269  -4.3442  -4.3073  -3.6920  -3.6869  -3.1342  -2.0328  -2.0272
    -0.9596  -0.9571  -0.1167   0.5189   0.5202   1.3393   1.7951   2.0546
     2.0558   2.1311   2.6470   2.6504   2.8565   2.8578   3.1014   3.2748
     3.8434   4.0690   4.4968   4.5599   4.5687   4.6795   4.6873   5.3042

          k = 0.1179-0.5893-0.5893 (  7391 PWs)   bands (ev):

    -5.0268  -4.3431  -4.3072  -3.6938  -3.6887  -3.1312  -2.0340  -2.0284
    -0.9576  -0.9550  -0.1243   0.5261   0.5275   1.3323   1.7947   2.0523
     2.0535   2.1302   2.6472   2.6506   2.8579   2.8593   3.1003   3.2747
     3.8385   4.0741   4.5030   4.5527   4.5620   4.6743   4.6933   5.3126

          k = 0.5893 0.1179 0.5893 (  7391 PWs)   bands (ev):

    -5.0267  -4.3435  -4.3075  -3.6926  -3.6882  -3.1331  -2.0326  -2.0288
    -0.9597  -0.9544  -0.1190   0.5199   0.5268   1.3345   1.7966   2.0523
     2.0544   2.1295   2.6465   2.6500   2.8566   2.8600   3.0984   3.2760
     3.8389   4.0718   4.5001   4.5599   4.5629   4.6796   4.6903   5.3081

          k = 0.0000 0.4714-0.4714 (  7408 PWs)   bands (ev):

    -4.8861  -4.5341  -4.5255  -3.5224  -3.5174  -2.5238  -2.5123  -2.5058
    -0.6666  -0.6658  -0.5785   0.5586   0.5589   1.7161   1.7645   1.7695
     2.1395   2.1439   2.5021   2.5855   2.5891   3.4148   3.4166   3.7699
     3.8982   3.9064   4.0973   4.2142   4.2183   4.4613   4.4718   5.6746

          k = 0.0000-0.4714-0.4714 (  7408 PWs)   bands (ev):

    -4.8855  -4.5338  -4.5252  -3.5240  -3.5191  -2.5198  -2.5135  -2.5081
    -0.6618  -0.6611  -0.5864   0.5658   0.5662   1.7143   1.7625   1.7676
     2.1343   2.1389   2.4936   2.5849   2.5886   3.4175   3.4193   3.7714
     3.8918   3.9002   4.1027   4.2100   4.2139   4.4670   4.4776   5.6843

          k =-0.7071 0.0000 0.0000 (  7344 PWs)   bands (ev):

    -4.7561  -4.7474  -3.7731  -3.7713  -3.7681  -3.7662  -1.4674  -1.4628
    -1.4628  -1.4582   0.7148   0.7157   0.7229   0.7238   2.2896   2.2902
     2.2903   2.2911   2.3947   2.3954   2.3987   2.3993   2.7156   2.7185
     4.3133   4.3189   4.3241   4.3293   4.8926   4.8996   4.9018   4.9091

          k =-0.2357 0.4714-0.7071 (  7406 PWs)   bands (ev):

    -5.2404  -4.2097  -4.2086  -3.8145  -3.0855  -3.0824  -2.5675  -1.9811
    -1.0694  -0.4426  -0.3808  -0.3738   0.9086   0.9145   1.0296   1.8812
     2.3827   2.5785   2.5799   3.0170   3.3431   3.4132   3.4997   3.7599
     3.7611   3.7858   4.2325   4.2385   4.5710   4.9138   4.9214   5.5329

          k = 0.7071 0.2357 0.4714 (  7406 PWs)   bands (ev):

    -5.2402  -4.2131  -4.2046  -3.8149  -3.0885  -3.0812  -2.5688  -1.9780
    -1.0732  -0.4397  -0.3768  -0.3728   0.9070   0.9130   1.0320   1.8795
     2.3829   2.5734   2.5798   3.0149   3.3428   3.4156   3.4955   3.7587
     3.7632   3.7838   4.2351   4.2383   4.5717   4.9158   4.9203   5.5378

          k =-0.7071 0.2357-0.4714 (  7406 PWs)   bands (ev):

    -5.2405  -4.2136  -4.2052  -3.8141  -3.0867  -3.0795  -2.5661  -1.9842
    -1.0654  -0.4455  -0.3819  -0.3777   0.9101   0.9160   1.0272   1.8829
     2.3824   2.5785   2.5849   3.0191   3.3437   3.4106   3.5039   3.7573
     3.7624   3.7882   4.2328   4.2361   4.5703   4.9148   4.9193   5.5281

          k =-0.1179 0.3536-0.5893 (  7402 PWs)   bands (ev):

    -4.7988  -4.7938  -4.0986  -4.0934  -2.8823  -2.8797  -2.5188  -2.5141
    -0.6263  -0.6203  -0.2276  -0.2209   1.2315   1.2363   1.8986   1.9030
     2.2320   2.2330   2.2387   2.2442   3.3131   3.3144   3.5495   3.5536
     3.7698   3.7729   4.0293   4.0305   4.2918   4.2976   5.2460   5.2539

          k = 0.1179-0.3536-0.5893 (  7402 PWs)   bands (ev):

    -4.7984  -4.7934  -4.0990  -4.0938  -2.8841  -2.8816  -2.5174  -2.5127
    -0.6283  -0.6224  -0.2225  -0.2158   1.2342   1.2389   1.8962   1.9007
     2.2282   2.2324   2.2362   2.2388   3.3121   3.3135   3.5477   3.5519
     3.7731   3.7760   4.0301   4.0311   4.2896   4.2953   5.2505   5.2585

          k = 0.3536 0.5893 0.1179 (  7402 PWs)   bands (ev):

    -4.7984  -4.7936  -4.0986  -4.0942  -2.8854  -2.8774  -2.5194  -2.5139
    -0.6246  -0.6203  -0.2255  -0.2204   1.2333   1.2403   1.8975   1.9003
     2.2282   2.2324   2.2358   2.2415   3.3092   3.3125   3.5486   3.5546
     3.7707   3.7747   4.0279   4.0368   4.2937   4.2955   5.2503   5.2530

          k =-0.7071-0.2357 0.0000 (  7402 PWs)   bands (ev):

    -4.6433  -4.6347  -4.3063  -4.3052  -3.0687  -3.0658  -2.2691  -2.2627
    -0.7266  -0.7242  -0.0259  -0.0180   1.5169   1.5250   1.9247   1.9257
     1.9872   1.9875   2.3019   2.3041   3.0679   3.0692   3.0885   3.0911
     3.8603   3.8634   4.1240   4.1301   4.5897   4.5927   4.9493   4.9574

          k = 0.0000 0.7071-0.2357 (  7402 PWs)   bands (ev):

    -4.6393  -4.6388  -4.3100  -4.3015  -3.0711  -3.0635  -2.2681  -2.2637
    -0.7290  -0.7217  -0.0223  -0.0217   1.5203   1.5217   1.9242   1.9260
     1.9863   1.9883   2.2996   2.3065   3.0664   3.0695   3.0878   3.0929
     3.8614   3.8626   4.1251   4.1291   4.5875   4.5948   4.9516   4.9552

     highest occupied level (ev):     6.2550

!    total energy              =    -136.40663591 Ry
     estimated scf accuracy    <          7.5E-17 Ry

     The total energy is the sum of the following terms:
     one-electron contribution =      40.03497340 Ry
     hartree contribution      =       8.62264405 Ry
     xc contribution           =     -49.77051495 Ry
     ewald contribution        =    -135.29373841 Ry

     convergence has been achieved in  22 iterations

     Forces acting on atoms (cartesian axes, Ry/au):

     atom    1 type  1   force =     0.00538227    0.00000000    0.00000000
     atom    2 type  1   force =    -0.00138250    0.00093610    0.00093610
     atom    3 type  1   force =    -0.00017604    0.00000049    0.00019360
     atom    4 type  1   force =    -0.00137011   -0.00091245    0.00091245
     atom    5 type  1   force =     0.00033753    0.00000000   -0.00000000
     atom    6 type  1   force =    -0.00138250   -0.00093610   -0.00093610
     atom    7 type  1   force =    -0.00017604    0.00019360    0.00000049
     atom    8 type  1   force =    -0.00137011    0.00091245   -0.00091245
     atom    9 type  1   force =    -0.00017604   -0.00019360   -0.00000049
     atom   10 type  1   force =     0.00005088    0.00005160   -0.00005160
     atom   11 type  1   force =     0.00033691    0.00000000   -0.00000000
     atom   12 type  1   force =     0.00005121   -0.00005177   -0.00005177
     atom   13 type  1   force =    -0.00017604   -0.00000049   -0.00019360
     atom   14 type  1   force =     0.00005088   -0.00005160    0.00005160
     atom   15 type  1   force =    -0.00005153    0.00000000    0.00000000
     atom   16 type  1   force =     0.00005121    0.00005177    0.00005177

     Total force =     0.006627     Total SCF correction =     0.000000

     Writing all to output data dir ./scratch_runs/atom01_x_minus/si_sup.save/ :
     XML data file, charge density, pseudopotentials, collected wavefunctions
 
     init_run     :      0.61s CPU      0.65s WALL (       1 calls)
     electrons    :     22.25s CPU     22.73s WALL (       1 calls)
     forces       :      0.16s CPU      0.17s WALL (       1 calls)

     Called by init_run:
     wfcinit      :      0.57s CPU      0.60s WALL (       1 calls)
     potinit      :      0.00s CPU      0.00s WALL (       1 calls)
     hinit0       :      0.00s CPU      0.01s WALL (       1 calls)

     Called by electrons:
     c_bands      :     19.77s CPU     20.15s WALL (      23 calls)
     sum_band     :      2.45s CPU      2.54s WALL (      23 calls)
     v_of_rho     :      0.02s CPU      0.02s WALL (      23 calls)
     mix_rho      :      0.02s CPU      0.02s WALL (      23 calls)

     Called by c_bands:
     init_us_2    :      0.64s CPU      0.65s WALL (    2208 calls)
     cegterg      :     16.44s CPU     16.81s WALL (    1058 calls)

     Called by *egterg:
     cdiaghg      :      1.95s CPU      1.97s WALL (    3616 calls)
     h_psi        :     13.49s CPU     13.85s WALL (    3708 calls)
     g_psi        :      0.04s CPU      0.04s WALL (    2604 calls)

     Called by h_psi:
     h_psi:calbec :      1.79s CPU      1.85s WALL (    3708 calls)
     vloc_psi     :     10.10s CPU     10.36s WALL (    3708 calls)
     add_vuspsi   :      1.55s CPU      1.58s WALL (    3708 calls)

     General routines
     calbec       :      1.90s CPU      1.97s WALL (    3892 calls)
     fft          :      0.01s CPU      0.01s WALL (      73 calls)
     ffts         :      0.00s CPU      0.00s WALL (      23 calls)
     fftw         :     10.23s CPU     10.53s WALL (  216490 calls)
 
     Parallel routines
 
     PWSCF        :     23.13s CPU     23.72s WALL

 
   This run was terminated on:  10:10:58  26Apr2026            

=------------------------------------------------------------------------------=
   JOB DONE.
=------------------------------------------------------------------------------=

===== TIMING =====
Job:           atom01_x_minus
Start:         2026-04-26T10:10:33+02:00
End:           2026-04-26T10:10:58+02:00
Duration (s):  25
Duration (H:M:S): 00:00:25
==================
