
     Program PWSCF v.7.4 starts on 10Jun2026 at 18:39: 5 

     This program is part of the open-source Quantum ESPRESSO suite
     for quantum simulation of materials; please cite
         "P. Giannozzi et al., J. Phys.:Condens. Matter 21 395502 (2009);
         "P. Giannozzi et al., J. Phys.:Condens. Matter 29 465901 (2017);
         "P. Giannozzi et al., J. Chem. Phys. 152 154105 (2020);
          URL http://www.quantum-espresso.org", 
     in publications or presentations arising from this work. More details at
     http://www.quantum-espresso.org/quote

     Parallel version (MPI), running on    12 processors

     MPI processes distributed on     1 nodes
     223196 MiB available memory on the printing compute node when the environment starts
 
     Reading input from ./scratch_runs/atom02_z_minus/atom02_z_minus.in

     Current dimensions of program PWSCF are:
     Max number of different atomic species (ntypx) = 10
     Max number of k-points (npk) =  40000
     Max angular momentum in pseudopotentials (lmaxx) =  4
     file Si_NC_PBE.upf: wavefunction(s)  4f renormalized
     Message from routine setup:
     using ibrav=0 with symmetry is DISCOURAGED, use correct ibrav instead
 
     R & G space division:  proc/nbgrp/npool/nimage =      12
     Subspace diagonalization in iterative solution of the eigenvalue problem:
     a serial algorithm will be used

 
     Parallelization info
     --------------------
     sticks:   dense  smooth     PW     G-vecs:    dense   smooth      PW
     Min         242     242     67                 8614     8614    1257
     Max         243     243     68                 8618     8618    1260
     Sum        2905    2905    805               103379   103379   15089
 
     Using Slab Decomposition
 


     bravais-lattice index     =            0
     lattice parameter (alat)  =      14.5142  a.u.
     unit-cell volume          =    2162.0514 (a.u.)^3
     number of atoms/cell      =           16
     number of atomic types    =            1
     number of electrons       =        64.00
     number of Kohn-Sham states=           32
     kinetic-energy cutoff     =      50.0000  Ry
     charge density cutoff     =     200.0000  Ry
     scf convergence threshold =      1.0E-08
     mixing beta               =       0.7000
     number of iterations used =            8  plain     mixing
     Exchange-correlation= PBE
                           (   1   4   3   4   0   0   0)

     celldm(1)=  14.514219  celldm(2)=   0.000000  celldm(3)=   0.000000
     celldm(4)=   0.000000  celldm(5)=   0.000000  celldm(6)=   0.000000

     crystal axes: (cart. coord. in units of alat)
               a(1) = (  -0.707107   0.000000   0.707107 )  
               a(2) = (   0.000000   0.707107   0.707107 )  
               a(3) = (  -0.707107   0.707107   0.000000 )  

     reciprocal axes: (cart. coord. in units 2 pi/alat)
               b(1) = ( -0.707107 -0.707107  0.707107 )  
               b(2) = (  0.707107  0.707107  0.707107 )  
               b(3) = ( -0.707107  0.707107 -0.707107 )  


     PseudoPot. # 1 for Si read from file:
     ../../../pseudopotentzialak/Si_NC_PBE.upf
     MD5 check sum: 2f548285ada518390005852429903be6
     Pseudo is Norm-conserving, Zval =  4.0
     Generated using FHI98PP, converted with fhi2upf.x v.5.0.2
     Using radial grid of  495 points,  3 beta functions with: 
                l(1) =   0
                l(2) =   1
                l(3) =   3

     atomic species   valence    mass     pseudopotential
     Si                4.00    28.08600     Si( 1.00)

      4 Sym. Ops. (no inversion) found ( 2 have fractional translation)



   Cartesian axes

     site n.     atom                  positions (alat units)
         1        Si     tau(   1) = (   0.0000000   0.0000000   0.0000000  )
         2        Si     tau(   2) = (  -0.1767767   0.1767767   0.1754747  )
         3        Si     tau(   3) = (  -0.3535534   0.0000000   0.3535534  )
         4        Si     tau(   4) = (  -0.5303301   0.1767767   0.5303301  )
         5        Si     tau(   5) = (   0.0000000   0.3535534   0.3535534  )
         6        Si     tau(   6) = (  -0.1767767   0.5303301   0.5303301  )
         7        Si     tau(   7) = (  -0.3535534   0.3535534   0.0000000  )
         8        Si     tau(   8) = (  -0.5303301   0.5303301   0.1767767  )
         9        Si     tau(   9) = (  -0.3535534   0.3535534   0.7071068  )
        10        Si     tau(  10) = (  -0.5303301   0.5303301   0.8838835  )
        11        Si     tau(  11) = (  -0.7071068   0.3535534   0.3535534  )
        12        Si     tau(  12) = (  -0.8838835   0.5303301   0.5303301  )
        13        Si     tau(  13) = (  -0.3535534   0.7071068   0.3535534  )
        14        Si     tau(  14) = (  -0.5303301   0.8838835   0.5303301  )
        15        Si     tau(  15) = (  -0.7071068   0.7071068   0.7071068  )
        16        Si     tau(  16) = (  -0.8838835   0.8838835   0.8838835  )

     number of k points=    46
                       cart. coord. in units 2pi/alat
        k(    1) = (   0.0000000   0.0000000   0.0000000), wk =   0.0092593
        k(    2) = (  -0.1178511   0.1178511  -0.1178511), wk =   0.0370370
        k(    3) = (  -0.2357023   0.2357023  -0.2357023), wk =   0.0370370
        k(    4) = (   0.3535534  -0.3535534   0.3535534), wk =   0.0185185
        k(    5) = (   0.0000000   0.2357023   0.0000000), wk =   0.0370370
        k(    6) = (  -0.1178511   0.3535534  -0.1178511), wk =   0.0740741
        k(    7) = (   0.4714045  -0.2357023   0.4714045), wk =   0.0740741
        k(    8) = (   0.3535534  -0.1178511   0.3535534), wk =   0.0740741
        k(    9) = (   0.2357023  -0.0000000   0.2357023), wk =   0.0740741
        k(   10) = (   0.0000000   0.4714045   0.0000000), wk =   0.0370370
        k(   11) = (   0.5892557  -0.1178511   0.5892557), wk =   0.0740741
        k(   12) = (   0.4714045  -0.0000000   0.4714045), wk =   0.0740741
        k(   13) = (   0.0000000  -0.7071068   0.0000000), wk =   0.0185185
        k(   14) = (   0.4714045  -0.2357023   0.7071068), wk =   0.0370370
        k(   15) = (   0.3535534  -0.1178511   0.5892557), wk =   0.0740741
        k(   16) = (  -0.2357023  -0.7071068   0.0000000), wk =   0.0370370
        k(   17) = (   0.1178511   0.1178511  -0.1178511), wk =   0.0370370
        k(   18) = (   0.2357023   0.2357023  -0.2357023), wk =   0.0370370
        k(   19) = (  -0.3535534  -0.3535534   0.3535534), wk =   0.0185185
        k(   20) = (   0.0000000   0.0000000   0.2357023), wk =   0.0185185
        k(   21) = (   0.3535534   0.1178511  -0.1178511), wk =   0.0740741
        k(   22) = (   0.1178511  -0.1178511   0.3535534), wk =   0.0370370
        k(   23) = (   0.1178511   0.1178511  -0.3535534), wk =   0.0370370
        k(   24) = (  -0.2357023  -0.4714045   0.4714045), wk =   0.0740741
        k(   25) = (  -0.4714045   0.4714045  -0.2357023), wk =   0.0370370
        k(   26) = (  -0.4714045  -0.4714045   0.2357023), wk =   0.0370370
        k(   27) = (  -0.1178511  -0.3535534   0.3535534), wk =   0.0740741
        k(   28) = (  -0.3535534   0.3535534  -0.1178511), wk =   0.0370370
        k(   29) = (  -0.3535534  -0.3535534   0.1178511), wk =   0.0370370
        k(   30) = (  -0.2357023   0.2357023  -0.0000000), wk =   0.0185185
        k(   31) = (  -0.2357023  -0.2357023   0.0000000), wk =   0.0185185
        k(   32) = (   0.0000000   0.0000000   0.4714045), wk =   0.0185185
        k(   33) = (  -0.1178511  -0.5892557   0.5892557), wk =   0.0740741
        k(   34) = (  -0.5892557   0.5892557  -0.1178511), wk =   0.0370370
        k(   35) = (  -0.5892557  -0.5892557   0.1178511), wk =   0.0370370
        k(   36) = (  -0.4714045   0.4714045   0.0000000), wk =   0.0185185
        k(   37) = (  -0.4714045  -0.4714045   0.0000000), wk =   0.0185185
        k(   38) = (   0.0000000   0.0000000  -0.7071068), wk =   0.0092593
        k(   39) = (  -0.2357023  -0.4714045   0.7071068), wk =   0.0370370
        k(   40) = (   0.7071068   0.2357023   0.4714045), wk =   0.0740741
        k(   41) = (  -0.4714045   0.7071068  -0.2357023), wk =   0.0740741
        k(   42) = (  -0.1178511  -0.3535534   0.5892557), wk =   0.0740741
        k(   43) = (   0.5892557   0.1178511   0.3535534), wk =   0.0370370
        k(   44) = (  -0.5892557   0.1178511  -0.3535534), wk =   0.0370370
        k(   45) = (   0.0000000   0.7071068  -0.2357023), wk =   0.0370370
        k(   46) = (   0.2357023   0.0000000  -0.7071068), wk =   0.0370370

     Dense  grid:   103379 G-vectors     FFT dimensions: (  72,  72,  72)

     Estimated max dynamical RAM per process >      36.10 MB

     Estimated total dynamical RAM >     433.23 MB

     Initial potential from superposition of free atoms

     starting charge      63.9887, renormalised to      64.0000
     Starting wfcs are  256 randomized atomic wfcs

     total cpu time spent up to now is        8.6 secs

     per-process dynamical memory:    95.3 Mb

     Self-consistent Calculation

     iteration #  1     ecut=    50.00 Ry     beta= 0.70
     Davidson diagonalization with overlap
     ethr =  1.00E-02,  avg # of iterations =  2.0

     Threshold (ethr) on eigenvalues was too large:
     Diagonalizing with lowered threshold

     Davidson diagonalization with overlap
     ethr =  6.72E-04,  avg # of iterations =  1.0

     total cpu time spent up to now is       12.4 secs

     total energy              =    -126.07720988 Ry
     estimated scf accuracy    <       0.44929077 Ry

     iteration #  2     ecut=    50.00 Ry     beta= 0.70
     Davidson diagonalization with overlap
     ethr =  7.02E-04,  avg # of iterations =  1.0

     total cpu time spent up to now is       13.9 secs

     total energy              =    -126.09638220 Ry
     estimated scf accuracy    <       0.02090833 Ry

     iteration #  3     ecut=    50.00 Ry     beta= 0.70
     Davidson diagonalization with overlap
     ethr =  3.27E-05,  avg # of iterations =  2.0

     total cpu time spent up to now is       15.9 secs

     total energy              =    -126.09924979 Ry
     estimated scf accuracy    <       0.00040148 Ry

     iteration #  4     ecut=    50.00 Ry     beta= 0.70
     Davidson diagonalization with overlap
     ethr =  6.27E-07,  avg # of iterations =  4.5

     total cpu time spent up to now is       18.5 secs

     total energy              =    -126.09945167 Ry
     estimated scf accuracy    <       0.00002821 Ry

     iteration #  5     ecut=    50.00 Ry     beta= 0.70
     Davidson diagonalization with overlap
     ethr =  4.41E-08,  avg # of iterations =  3.5

     total cpu time spent up to now is       20.9 secs

     total energy              =    -126.09946598 Ry
     estimated scf accuracy    <       0.00000208 Ry

     iteration #  6     ecut=    50.00 Ry     beta= 0.70
     Davidson diagonalization with overlap
     ethr =  3.25E-09,  avg # of iterations =  3.3

     total cpu time spent up to now is       23.2 secs

     total energy              =    -126.09946648 Ry
     estimated scf accuracy    <       0.00000025 Ry

     iteration #  7     ecut=    50.00 Ry     beta= 0.70
     Davidson diagonalization with overlap
     ethr =  3.94E-10,  avg # of iterations =  3.5

     total cpu time spent up to now is       25.4 secs

     End of self-consistent calculation

          k = 0.0000 0.0000 0.0000 ( 12939 PWs)   bands (ev):

    -5.7481  -3.4194  -3.4165  -3.4126  -3.4097  -1.6081  -1.6041  -1.6000
    -1.6000  -1.5960  -1.5920  -0.7550  -0.7505  -0.7489  -0.7443   3.3670
     3.3703   3.3707   3.3707   3.3711   3.3743   5.0124   5.0200   5.0218
     5.0225   5.0234   5.0241   5.0260   5.0335   6.2150   6.2210   6.2271

          k =-0.1179 0.1179-0.1179 ( 12939 PWs)   bands (ev):

    -5.6570  -3.7479  -3.3819  -3.3755  -3.3751  -2.2022  -2.1955  -2.1949
    -0.9375  -0.9308  -0.9301  -0.6497  -0.6456  -0.6412  -0.2467   3.0460
     3.0498   3.0498   3.4457   3.4469   3.4495   4.4333   4.4391   4.4408
     4.8460   4.8466   4.8509   5.0704   5.0769   5.3571   6.0757   6.0833

          k =-0.2357 0.2357-0.2357 ( 12885 PWs)   bands (ev):

    -5.3864  -4.3693  -3.2598  -3.2532  -3.2531  -2.6818  -2.6752  -2.6747
    -0.3901  -0.3851  -0.3818  -0.3517  -0.3457  -0.3437   0.8836   2.5891
     2.5928   2.5931   3.4395   3.4452   3.4458   3.6682   3.6693   3.6721
     3.8358   4.4461   4.4469   4.4506   5.2191   5.2255   5.7695   5.7765

          k = 0.3536-0.3536 0.3536 ( 12938 PWs)   bands (ev):

    -4.9497  -4.9448  -3.0376  -3.0303  -3.0281  -3.0265  -3.0232  -3.0211
    -0.1723  -0.1660  -0.1649  -0.1644  -0.1590  -0.1538   2.2886   2.2924
     2.6793   2.6865   2.6892   2.6901   2.6916   2.6918   4.0156   4.0163
     4.0173   4.0194   4.0196   4.0269   5.4592   5.4605   5.4611   5.4729

          k = 0.0000 0.2357 0.0000 ( 12951 PWs)   bands (ev):

    -5.6265  -3.5034  -3.4998  -3.4961  -3.4925  -2.8114  -1.5683  -1.5620
    -1.5620  -1.5556  -0.4747  -0.4694  -0.4683  -0.4631  -0.2449   3.0623
     3.0644   3.0664   3.0685   3.4804   3.4804   4.3385   4.3438   4.3458
     4.3510   4.9862   4.9885   4.9898   4.9920   5.5216   5.7925   5.7926

          k =-0.1179 0.3536-0.1179 ( 12894 PWs)   bands (ev):

    -5.4152  -4.0797  -3.5132  -3.5092  -3.3067  -3.1416  -2.1069  -2.1025
    -0.9271  -0.9218  -0.5432  -0.1442  -0.1376   0.4209   0.5016   2.4703
     2.4734   3.2298   3.2526   3.2562   3.3195   3.6553   3.6601   3.6634
     4.2870   4.3744   4.6307   4.6674   4.6701   5.2279   5.4289   5.6214

          k = 0.4714-0.2357 0.4714 ( 12908 PWs)   bands (ev):

    -5.0307  -4.6886  -3.6524  -3.3972  -3.3930  -2.7048  -2.5490  -2.5452
    -0.5764  -0.5221  -0.5158   0.1897   0.1965   0.7634   1.8160   2.2739
     2.2763   2.3256   2.7869   2.9962   3.0001   3.2342   3.6023   3.6060
     3.9799   4.0978   4.1006   4.1983   4.5346   5.1156   5.2974   5.5380

          k = 0.3536-0.1179 0.3536 ( 12892 PWs)   bands (ev):

    -5.1781  -4.4939  -3.8394  -3.1391  -3.1346  -2.8995  -2.8962  -2.2090
    -0.8377  -0.5167  -0.5102   0.1923   0.1987   0.5505   1.3512   2.0140
     2.7522   2.7542   2.7947   2.7970   3.2741   3.5954   3.5984   3.7874
     3.8228   4.0779   4.0820   4.3935   4.8389   4.9052   4.9441   5.8674

          k = 0.2357-0.0000 0.2357 ( 12901 PWs)   bands (ev):

    -5.5059  -3.8689  -3.8674  -3.1741  -3.1712  -2.7362  -2.7316  -1.7415
    -1.3372  -0.6426  -0.6363  -0.2845  -0.2787   0.1208   0.1259   2.3798
     3.1003   3.1013   3.2958   3.2989   3.5637   3.6233   3.6241   4.5729
     4.5774   4.6271   4.6428   4.6477   4.8151   4.8163   5.3601   6.1029

          k = 0.0000 0.4714 0.0000 ( 12907 PWs)   bands (ev):

    -5.2634  -3.8418  -3.6461  -3.6419  -3.6382  -3.6340  -1.4867  -1.4805
    -1.4804  -1.4742   0.2067   0.2121   0.2135   0.2189   1.2056   2.5775
     2.5798   2.5815   2.5837   3.1703   3.1750   3.1766   3.1813   3.8058
     3.8058   4.1756   4.9215   4.9245   4.9256   4.9285   5.0306   5.0308

          k = 0.5893-0.1179 0.5893 ( 12907 PWs)   bands (ev):

    -4.9358  -4.2650  -4.2278  -3.6266  -3.6222  -3.0801  -1.9986  -1.9948
    -0.9350  -0.9297  -0.0837   0.5472   0.5541   1.3579   1.7907   2.1400
     2.1421   2.2071   2.7086   2.7119   2.9202   2.9237   3.0884   3.3224
     3.8665   4.0872   4.5028   4.5676   4.5705   4.6852   4.6963   5.2926

          k = 0.4714-0.0000 0.4714 ( 12878 PWs)   bands (ev):

    -4.7976  -4.4475  -4.4469  -3.4585  -3.4541  -2.4822  -2.4722  -2.4688
    -0.6288  -0.6227  -0.5531   0.5697   0.5766   1.7791   1.7843   1.8134
     2.2149   2.2156   2.5002   2.6548   2.6567   3.4615   3.4654   3.8124
     3.9281   3.9311   4.1113   4.2263   4.2324   4.4771   4.4777   5.6565

          k = 0.0000-0.7071 0.0000 ( 12896 PWs)   bands (ev):

    -4.6649  -4.6649  -3.7085  -3.7040  -3.7003  -3.6959  -1.4426  -1.4366
    -1.4365  -1.4303   0.7336   0.7341   0.7406   0.7412   2.3701   2.3724
     2.3739   2.3759   2.4705   2.4725   2.4730   2.4751   2.6981   2.6982
     4.3337   4.3338   4.3338   4.3338   4.8910   4.8942   4.8952   4.8984

          k = 0.4714-0.2357 0.7071 ( 12905 PWs)   bands (ev):

    -5.1461  -4.1374  -4.1290  -3.7434  -3.0382  -3.0310  -2.5213  -1.9468
    -1.0421  -0.4232  -0.3258  -0.3219   0.9442   0.9501   1.0329   1.9737
     2.4572   2.6305   2.6368   3.0736   3.3845   3.4531   3.4856   3.7854
     3.7898   3.8106   4.2515   4.2546   4.5911   4.9117   4.9161   5.5200

          k = 0.3536-0.1179 0.5893 ( 12886 PWs)   bands (ev):

    -4.7116  -4.7067  -4.0239  -4.0187  -2.8339  -2.8314  -2.4777  -2.4730
    -0.5943  -0.5884  -0.1974  -0.1907   1.2457   1.2505   1.9845   1.9890
     2.2451   2.2497   2.3067   2.3087   3.3560   3.3574   3.5899   3.5941
     3.8021   3.8050   4.0573   4.0584   4.3041   4.3098   5.2387   5.2467

          k =-0.2357-0.7071 0.0000 ( 12912 PWs)   bands (ev):

    -4.5546  -4.5541  -4.2318  -4.2233  -3.0179  -3.0103  -2.2305  -2.2260
    -0.7063  -0.6989  -0.0002   0.0005   1.5287   1.5301   2.0159   2.0178
     2.0738   2.0759   2.2930   2.2998   3.1242   3.1274   3.1446   3.1497
     3.8942   3.8954   4.1451   4.1489   4.5925   4.5997   4.9483   4.9519

          k = 0.1179 0.1179-0.1179 ( 12939 PWs)   bands (ev):

    -5.6570  -3.7498  -3.3790  -3.3786  -3.3722  -2.1998  -2.1992  -2.1926
    -0.9362  -0.9354  -0.9288  -0.6518  -0.6475  -0.6434  -0.2415   3.0492
     3.0492   3.0530   3.4437   3.4464   3.4476   4.4390   4.4406   4.4463
     4.8412   4.8458   4.8464   5.0690   5.0754   5.3631   6.0722   6.0798

          k = 0.2357 0.2357-0.2357 ( 12885 PWs)   bands (ev):

    -5.3866  -4.3703  -3.2568  -3.2567  -3.2501  -2.6792  -2.6788  -2.6721
    -0.3924  -0.3880  -0.3835  -0.3516  -0.3508  -0.3441   0.8880   2.5934
     2.5938   2.5974   3.4453   3.4459   3.4515   3.6659   3.6687   3.6699
     3.8404   4.4424   4.4462   4.4471   5.2174   5.2239   5.7669   5.7738

          k =-0.3536-0.3536 0.3536 ( 12938 PWs)   bands (ev):

    -4.9502  -4.9452  -3.0338  -3.0317  -3.0284  -3.0268  -3.0246  -3.0173
    -0.1755  -0.1704  -0.1650  -0.1645  -0.1634  -0.1571   2.2929   2.2966
     2.6884   2.6886   2.6901   2.6910   2.6937   2.7012   4.0093   4.0167
     4.0171   4.0190   4.0200   4.0208   5.4520   5.4636   5.4641   5.4656

          k = 0.0000 0.0000 0.2357 ( 12951 PWs)   bands (ev):

    -5.6265  -3.5023  -3.4998  -3.4961  -3.4936  -2.8113  -1.5661  -1.5621
    -1.5620  -1.5579  -0.4737  -0.4700  -0.4677  -0.4640  -0.2449   3.0645
     3.0654   3.0654   3.0664   3.4781   3.4825   4.3422   4.3439   4.3457
     4.3474   4.9802   4.9880   4.9902   4.9978   5.5217   5.7879   5.7972

          k = 0.3536 0.1179-0.1179 ( 12894 PWs)   bands (ev):

    -5.4153  -4.0808  -3.5132  -3.5092  -3.3062  -3.1392  -2.1066  -2.1022
    -0.9278  -0.9225  -0.5490  -0.1446  -0.1380   0.4189   0.5058   2.4728
     2.4759   3.2337   3.2508   3.2543   3.3217   3.6583   3.6625   3.6641
     4.2929   4.3704   4.6298   4.6643   4.6669   5.2293   5.4293   5.6138

          k = 0.1179-0.1179 0.3536 ( 12894 PWs)   bands (ev):

    -5.4152  -4.0796  -3.5152  -3.5095  -3.3064  -3.1388  -2.1075  -2.1026
    -0.9256  -0.9225  -0.5494  -0.1395  -0.1365   0.4198   0.5009   2.4720
     2.4729   3.2305   3.2538   3.2541   3.3182   3.6582   3.6608   3.6665
     4.2886   4.3710   4.6335   4.6598   4.6682   5.2326   5.4333   5.6148

          k = 0.1179 0.1179-0.3536 ( 12894 PWs)   bands (ev):

    -5.4153  -4.0809  -3.5129  -3.5073  -3.3066  -3.1419  -2.1066  -2.1016
    -0.9271  -0.9241  -0.5427  -0.1456  -0.1427   0.4201   0.5063   2.4734
     2.4743   3.2330   3.2529   3.2532   3.3229   3.6570   3.6581   3.6630
     4.2912   4.3739   4.6269   4.6660   4.6745   5.2243   5.4253   5.6203

          k =-0.2357-0.4714 0.4714 ( 12908 PWs)   bands (ev):

    -5.0310  -4.6890  -3.6515  -3.3972  -3.3929  -2.7023  -2.5489  -2.5450
    -0.5821  -0.5228  -0.5168   0.1889   0.1957   0.7586   1.8197   2.2766
     2.2788   2.3291   2.7919   3.0002   3.0043   3.2391   3.6006   3.6045
     3.9795   4.0943   4.0971   4.1979   4.5308   5.1164   5.2908   5.5392

          k =-0.4714 0.4714-0.2357 ( 12908 PWs)   bands (ev):

    -5.0308  -4.6884  -3.6518  -3.3986  -3.3934  -2.7017  -2.5508  -2.5451
    -0.5825  -0.5175  -0.5172   0.1951   0.1968   0.7603   1.8150   2.2726
     2.2760   2.3262   2.7879   2.9993   3.0000   3.2345   3.6041   3.6046
     3.9821   4.0919   4.0985   4.2009   4.5317   5.1195   5.2917   5.5433

          k =-0.4714-0.4714 0.2357 ( 12908 PWs)   bands (ev):

    -5.0310  -4.6891  -3.6522  -3.3968  -3.3914  -2.7054  -2.5490  -2.5433
    -0.5757  -0.5217  -0.5215   0.1888   0.1903   0.7618   1.8206   2.2770
     2.2800   2.3286   2.7908   3.0003   3.0010   3.2389   3.6023   3.6027
     3.9770   4.0964   4.1031   4.1953   4.5338   5.1123   5.2965   5.5340

          k =-0.1179-0.3536 0.3536 ( 12892 PWs)   bands (ev):

    -5.1782  -4.4947  -3.8382  -3.1390  -3.1346  -2.8995  -2.8961  -2.2069
    -0.8414  -0.5170  -0.5106   0.1916   0.1981   0.5452   1.3560   2.0158
     2.7543   2.7555   2.7981   2.8008   3.2773   3.5925   3.5955   3.7926
     3.8227   4.0767   4.0808   4.3927   4.8354   4.9063   4.9385   5.8680

          k =-0.3536 0.3536-0.1179 ( 12892 PWs)   bands (ev):

    -5.1780  -4.4940  -3.8384  -3.1400  -3.1351  -2.9023  -2.8959  -2.2057
    -0.8425  -0.5121  -0.5094   0.1978   0.1982   0.5462   1.3519   2.0132
     2.7479   2.7543   2.7961   2.7971   3.2724   3.5913   3.5965   3.7882
     3.8251   4.0804   4.0814   4.3959   4.8371   4.9093   4.9388   5.8730

          k =-0.3536-0.3536 0.1179 ( 12892 PWs)   bands (ev):

    -5.1783  -4.4946  -3.8392  -3.1385  -3.1335  -2.8999  -2.8936  -2.2101
    -0.8364  -0.5180  -0.5152   0.1922   0.1927   0.5494   1.3553   2.0165
     2.7542   2.7604   2.7978   2.7987   3.2792   3.5945   3.5997   3.7920
     3.8201   4.0773   4.0783   4.3901   4.8378   4.9023   4.9432   5.8625

          k =-0.2357 0.2357-0.0000 ( 12901 PWs)   bands (ev):

    -5.5058  -3.8715  -3.8634  -3.1773  -3.1707  -2.7369  -2.7322  -1.7378
    -1.3412  -0.6383  -0.6344  -0.2811  -0.2790   0.1181   0.1243   2.3776
     3.0998   3.1017   3.2936   3.2988   3.5660   3.6161   3.6243   4.5770
     4.5784   4.6229   4.6421   4.6434   4.8139   4.8243   5.3606   6.1087

          k =-0.2357-0.2357 0.0000 ( 12901 PWs)   bands (ev):

    -5.5059  -3.8728  -3.8648  -3.1746  -3.1680  -2.7357  -2.7310  -1.7452
    -1.3332  -0.6446  -0.6405  -0.2843  -0.2820   0.1224   0.1286   2.3819
     3.1000   3.1019   3.2959   3.3012   3.5614   3.6231   3.6312   4.5727
     4.5740   4.6323   4.6465   4.6475   4.8069   4.8173   5.3594   6.0971

          k = 0.0000 0.0000 0.4714 ( 12907 PWs)   bands (ev):

    -5.2634  -3.8419  -3.6437  -3.6417  -3.6384  -3.6363  -1.4849  -1.4805
    -1.4805  -1.4761   0.2084   0.2107   0.2149   0.2172   1.2056   2.5804
     2.5806   2.5807   2.5809   3.1737   3.1751   3.1765   3.1780   3.8033
     3.8081   4.1756   4.9162   4.9240   4.9261   4.9329   5.0277   5.0345

          k =-0.1179-0.5893 0.5893 ( 12907 PWs)   bands (ev):

    -4.9360  -4.2653  -4.2275  -3.6266  -3.6222  -3.0792  -1.9984  -1.9946
    -0.9354  -0.9302  -0.0868   0.5468   0.5538   1.3605   1.7873   2.1414
     2.1433   2.2095   2.7096   2.7130   2.9193   2.9228   3.0934   3.3199
     3.8706   4.0870   4.5025   4.5667   4.5697   4.6791   4.6965   5.2931

          k =-0.5893 0.5893-0.1179 ( 12907 PWs)   bands (ev):

    -4.9359  -4.2646  -4.2276  -3.6279  -3.6228  -3.0781  -2.0000  -1.9945
    -0.9329  -0.9303  -0.0891   0.5535   0.5549   1.3556   1.7888   2.1400
     2.1413   2.2078   2.7092   2.7126   2.9216   2.9229   3.0903   3.3212
     3.8660   4.0896   4.5057   4.5604   4.5696   4.6799   4.6993   5.2971

          k =-0.5893-0.5893 0.1179 ( 12907 PWs)   bands (ev):

    -4.9359  -4.2658  -4.2277  -3.6260  -3.6209  -3.0811  -1.9987  -1.9932
    -0.9349  -0.9324  -0.0814   0.5461   0.5475   1.3628   1.7893   2.1423
     2.1435   2.2087   2.7091   2.7125   2.9202   2.9214   3.0914   3.3212
     3.8709   4.0844   4.4995   4.5676   4.5763   4.6852   4.6932   5.2887

          k =-0.4714 0.4714 0.0000 ( 12878 PWs)   bands (ev):

    -4.7973  -4.4514  -4.4428  -3.4597  -3.4547  -2.4797  -2.4742  -2.4690
    -0.6237  -0.6231  -0.5571   0.5766   0.5770   1.7784   1.7833   1.8122
     2.2104   2.2149   2.4961   2.6536   2.6572   3.4640   3.4657   3.8133
     3.9221   3.9305   4.1139   4.2252   4.2292   4.4750   4.4855   5.6613

          k =-0.4714-0.4714 0.0000 ( 12878 PWs)   bands (ev):

    -4.7979  -4.4516  -4.4431  -3.4579  -3.4529  -2.4836  -2.4731  -2.4667
    -0.6284  -0.6277  -0.5491   0.5694   0.5697   1.7804   1.7853   1.8140
     2.2156   2.2199   2.5046   2.6542   2.6577   3.4613   3.4630   3.8118
     3.9286   3.9367   4.1084   4.2295   4.2338   4.4692   4.4796   5.6517

          k = 0.0000 0.0000-0.7071 ( 12896 PWs)   bands (ev):

    -4.6692  -4.6606  -3.7056  -3.7038  -3.7006  -3.6987  -1.4411  -1.4366
    -1.4365  -1.4320   0.7328   0.7338   0.7410   0.7420   2.3726   2.3731
     2.3732   2.3739   2.4704   2.4711   2.4745   2.4750   2.6966   2.6996
     4.3256   4.3312   4.3363   4.3416   4.8866   4.8936   4.8957   4.9030

          k =-0.2357-0.4714 0.7071 ( 12905 PWs)   bands (ev):

    -5.1464  -4.1379  -4.1296  -3.7426  -3.0364  -3.0293  -2.5186  -1.9531
    -1.0341  -0.4290  -0.3308  -0.3269   0.9474   0.9531   1.0281   1.9771
     2.4567   2.6356   2.6418   3.0778   3.3853   3.4480   3.4940   3.7840
     3.7890   3.8150   4.2492   4.2523   4.5897   4.9106   4.9151   5.5103

          k = 0.7071 0.2357 0.4714 ( 12905 PWs)   bands (ev):

    -5.1462  -4.1338  -4.1331  -3.7430  -3.0347  -3.0328  -2.5199  -1.9500
    -1.0381  -0.4260  -0.3287  -0.3240   0.9465   0.9507   1.0306   1.9755
     2.4568   2.6355   2.6370   3.0757   3.3848   3.4508   3.4897   3.7845
     3.7900   3.8125   4.2512   4.2526   4.5905   4.9122   4.9147   5.5151

          k =-0.4714 0.7071-0.2357 ( 12905 PWs)   bands (ev):

    -5.1462  -4.1341  -4.1329  -3.7430  -3.0352  -3.0322  -2.5200  -1.9500
    -1.0382  -0.4261  -0.3299  -0.3228   0.9457   0.9517   1.0304   1.9755
     2.4569   2.6355   2.6369   3.0757   3.3847   3.4507   3.4898   3.7865
     3.7877   3.8126   4.2488   4.2549   4.5904   4.9096   4.9173   5.5151

          k =-0.1179-0.3536 0.5893 ( 12886 PWs)   bands (ev):

    -4.7120  -4.7070  -4.0235  -4.0183  -2.8320  -2.8295  -2.4792  -2.4744
    -0.5923  -0.5863  -0.2025  -0.1958   1.2431   1.2478   1.9869   1.9912
     2.2497   2.2540   2.3082   2.3106   3.3569   3.3583   3.5916   3.5958
     3.7987   3.8018   4.0565   4.0577   4.3063   4.3121   5.2342   5.2421

          k = 0.5893 0.1179 0.3536 ( 12886 PWs)   bands (ev):

    -4.7118  -4.7070  -4.0231  -4.0187  -2.8362  -2.8282  -2.4779  -2.4724
    -0.5943  -0.5900  -0.1979  -0.1928   1.2416   1.2487   1.9872   1.9900
     2.2490   2.2534   2.3061   2.3116   3.3579   3.3612   3.5887   3.5950
     3.8003   3.8043   4.0512   4.0599   4.3062   4.3079   5.2396   5.2424

          k =-0.5893 0.1179-0.3536 ( 12886 PWs)   bands (ev):

    -4.7116  -4.7068  -4.0235  -4.0191  -2.8352  -2.8272  -2.4797  -2.4742
    -0.5907  -0.5863  -0.2004  -0.1952   1.2448   1.2519   1.9858   1.9886
     2.2458   2.2499   2.3055   2.3113   3.3531   3.3565   3.5907   3.5968
     3.7997   3.8036   4.0552   4.0640   4.3082   4.3099   5.2385   5.2412

          k = 0.0000 0.7071-0.2357 ( 12912 PWs)   bands (ev):

    -4.5544  -4.5543  -4.2276  -4.2276  -3.0141  -3.0141  -2.2283  -2.2282
    -0.7026  -0.7026   0.0001   0.0002   1.5293   1.5294   2.0166   2.0168
     2.0749   2.0751   2.2963   2.2964   3.1257   3.1263   3.1466   3.1473
     3.8948   3.8949   4.1470   4.1470   4.5962   4.5962   4.9501   4.9501

          k = 0.2357 0.0000-0.7071 ( 12912 PWs)   bands (ev):

    -4.5586  -4.5500  -4.2281  -4.2270  -3.0156  -3.0126  -2.2315  -2.2251
    -0.7039  -0.7015  -0.0038   0.0041   1.5253   1.5334   2.0165   2.0174
     2.0747   2.0751   2.2952   2.2974   3.1258   3.1270   3.1453   3.1478
     3.8931   3.8963   4.1439   4.1500   4.5946   4.5977   4.9461   4.9541

     highest occupied level (ev):     6.2271

!    total energy              =    -126.09946655 Ry
     estimated scf accuracy    <          5.9E-09 Ry

     The total energy is the sum of the following terms:
     one-electron contribution =      38.04882986 Ry
     hartree contribution      =       8.75716812 Ry
     xc contribution           =     -38.53882598 Ry
     ewald contribution        =    -134.36663856 Ry

     convergence has been achieved in   7 iterations

     Forces acting on atoms (cartesian axes, Ry/au):

     atom    1 type  1   force =     0.00090983   -0.00090983   -0.00137349
     atom    2 type  1   force =     0.00000000    0.00000000    0.00533338
     atom    3 type  1   force =     0.00088697    0.00088697   -0.00136170
     atom    4 type  1   force =     0.00018581   -0.00000040   -0.00017638
     atom    5 type  1   force =    -0.00088697   -0.00088697   -0.00136170
     atom    6 type  1   force =     0.00000040   -0.00018581   -0.00017638
     atom    7 type  1   force =    -0.00090983    0.00090983   -0.00137349
     atom    8 type  1   force =     0.00000000    0.00000000    0.00033389
     atom    9 type  1   force =    -0.00005609    0.00005609    0.00005424
     atom   10 type  1   force =    -0.00000000   -0.00000000    0.00033296
     atom   11 type  1   force =    -0.00005529   -0.00005529    0.00005422
     atom   12 type  1   force =    -0.00000040    0.00018581   -0.00017638
     atom   13 type  1   force =     0.00005529    0.00005529    0.00005422
     atom   14 type  1   force =    -0.00018581    0.00000040   -0.00017638
     atom   15 type  1   force =     0.00005609   -0.00005609    0.00005424
     atom   16 type  1   force =     0.00000000    0.00000000   -0.00004126

     Total force =     0.006550     Total SCF correction =     0.000086

     Writing all to output data dir ./scratch_runs/atom02_z_minus/si_sup.save/ :
     XML data file, charge density, pseudopotentials, collected wavefunctions
 
     init_run     :      7.66s CPU      8.58s WALL (       1 calls)
     electrons    :     16.36s CPU     16.75s WALL (       1 calls)
     forces       :      0.24s CPU      0.24s WALL (       1 calls)

     Called by init_run:
     wfcinit      :      7.54s CPU      8.42s WALL (       1 calls)
     potinit      :      0.01s CPU      0.02s WALL (       1 calls)
     hinit0       :      0.00s CPU      0.03s WALL (       1 calls)

     Called by electrons:
     c_bands      :     14.18s CPU     14.52s WALL (       8 calls)
     sum_band     :      2.11s CPU      2.16s WALL (       8 calls)
     v_of_rho     :      0.07s CPU      0.07s WALL (       8 calls)
     mix_rho      :      0.01s CPU      0.01s WALL (       8 calls)

     Called by c_bands:
     init_us_2    :      0.61s CPU      0.62s WALL (     828 calls)
     cegterg      :     12.89s CPU     13.21s WALL (     368 calls)

     Called by *egterg:
     cdiaghg      :      1.49s CPU      1.50s WALL (    1278 calls)
     h_psi        :     15.39s CPU     16.55s WALL (    1370 calls)
     g_psi        :      0.04s CPU      0.04s WALL (     956 calls)

     Called by h_psi:
     h_psi:calbec :      1.50s CPU      1.52s WALL (    1370 calls)
     vloc_psi     :     12.71s CPU     13.81s WALL (    1370 calls)
     add_vuspsi   :      1.07s CPU      1.10s WALL (    1370 calls)

     General routines
     calbec       :      1.68s CPU      1.70s WALL (    1554 calls)
     fft          :      0.02s CPU      0.05s WALL (      82 calls)
     ffts         :      0.00s CPU      0.00s WALL (       8 calls)
     fftw         :     12.37s CPU     13.42s WALL (   98930 calls)
 
     Parallel routines
 
     PWSCF        :     24.41s CPU     25.84s WALL

 
   This run was terminated on:  18:39:31  10Jun2026            

=------------------------------------------------------------------------------=
   JOB DONE.
=------------------------------------------------------------------------------=

===== TIMING =====
Job:           atom02_z_minus
Start:         2026-06-10T18:39:04+02:00
End:           2026-06-10T18:39:31+02:00
Duration (s):  27
Duration (H:M:S): 00:00:27
==================
