
     Program PWSCF v.7.4 starts on  9May2026 at 11:56:53 

     This program is part of the open-source Quantum ESPRESSO suite
     for quantum simulation of materials; please cite
         "P. Giannozzi et al., J. Phys.:Condens. Matter 21 395502 (2009);
         "P. Giannozzi et al., J. Phys.:Condens. Matter 29 465901 (2017);
         "P. Giannozzi et al., J. Chem. Phys. 152 154105 (2020);
          URL http://www.quantum-espresso.org", 
     in publications or presentations arising from this work. More details at
     http://www.quantum-espresso.org/quote

     Parallel version (MPI), running on    12 processors

     MPI processes distributed on     1 nodes
     154709 MiB available memory on the printing compute node when the environment starts
 
     Waiting for input...
     Reading input from standard input

     Current dimensions of program PWSCF are:
     Max number of different atomic species (ntypx) = 10
     Max number of k-points (npk) =  40000
     Max angular momentum in pseudopotentials (lmaxx) =  4

     File ./tmp/graphene.update deleted, as requested

     File ./tmp/graphene.bfgs deleted, as requested
     file C.upf: wavefunction(s)  2S 2P renormalized
 
     R & G space division:  proc/nbgrp/npool/nimage =      12
     Subspace diagonalization in iterative solution of the eigenvalue problem:
     a serial algorithm will be used

 
     Parallelization info
     --------------------
     sticks:   dense  smooth     PW     G-vecs:    dense   smooth      PW
     Min          49      49     16                 7111     7111    1300
     Max          50      50     17                 7132     7132    1317
     Sum         595     595    199                85433    85433   15715
 
     Using Slab Decomposition
 


     bravais-lattice index     =            0
     lattice parameter (alat)  =       4.6588  a.u.
     unit-cell volume          =     632.2600 (a.u.)^3
     number of atoms/cell      =            2
     number of atomic types    =            1
     number of electrons       =         8.00
     number of Kohn-Sham states=            8
     kinetic-energy cutoff     =     100.0000  Ry
     charge density cutoff     =     400.0000  Ry
     scf convergence threshold =      1.0E-09
     mixing beta               =       0.7000
     number of iterations used =            8  plain     mixing
     energy convergence thresh.=      1.0E-05
     force convergence thresh. =      1.0E-04
     press convergence thresh. =      5.0E-01
     Exchange-correlation= SLA  PW   PBX  PBC
                           (   1   4   3   4   0   0   0)
     nstep                     =           50


     celldm(1)=   4.658790  celldm(2)=   0.000000  celldm(3)=   0.000000
     celldm(4)=   0.000000  celldm(5)=   0.000000  celldm(6)=   0.000000

     crystal axes: (cart. coord. in units of alat)
               a(1) = (   1.000000   0.000000   0.000000 )  
               a(2) = (  -0.500000   0.866025   0.000000 )  
               a(3) = (   0.000000   0.000000   7.220142 )  

     reciprocal axes: (cart. coord. in units 2 pi/alat)
               b(1) = (  1.000000  0.577350  0.000000 )  
               b(2) = (  0.000000  1.154701  0.000000 )  
               b(3) = (  0.000000  0.000000  0.138501 )  


     PseudoPot. # 1 for C  read from file:
     ./C.upf
     MD5 check sum: 5d2aebdfa2cae82b50a7e79e9516da0f
     Pseudo is Projector augmented-wave + core cor, Zval =  4.0
     Generated using "atomic" code by A. Dal Corso  v.5.1
     Shape of augmentation charge: PSQ
     Using radial grid of 1073 points,  4 beta functions with: 
                l(1) =   0
                l(2) =   0
                l(3) =   1
                l(4) =   1
     Q(r) pseudized with 0 coefficients 


     atomic species   valence    mass     pseudopotential
     C                 4.00    12.01070     C ( 1.00)

     No symmetry found



   Cartesian axes

     site n.     atom                  positions (alat units)
         1        C      tau(   1) = (   0.4749641   0.2453946   3.6100711  )
         2        C      tau(   2) = (  -0.0249641   0.5340283   3.6100711  )

     number of k points=   784  Marzari-Vanderbilt smearing, width (Ry)=  0.0200

     Number of k-points >= 100: set verbosity='high' to print them.

     Dense  grid:    85433 G-vectors     FFT dimensions: (  30,  30, 216)

     Estimated max dynamical RAM per process >      95.82 MB

     Estimated total dynamical RAM >       1.12 GB
 ----2D----2D----2D----2D----2D----2D----2D----2D----2D----2D----2D----2D
  The code is running with the 2D cutoff
  Please refer to:
  Sohier, T., Calandra, M., & Mauri, F. (2017), 
  Density functional perturbation theory for gated two-dimensional heterostructu
 res:
  Theoretical developments and application to flexural phonons in graphene.
  Physical Review B, 96(7), 75448. https://doi.org/10.1103/PhysRevB.96.075448
 ----2D----2D----2D----2D----2D----2D----2D----2D----2D----2D----2D----2D

     Check: negative core charge=   -0.000002

     Initial potential from superposition of free atoms

     starting charge       7.9999, renormalised to       8.0000

     negative rho (up, down):  9.152E-05 0.000E+00
     Starting wfcs are    8 randomized atomic wfcs
     Checking if some PAW data can be deallocated... 

     total cpu time spent up to now is        1.5 secs

     per-process dynamical memory:   147.3 Mb

     Self-consistent Calculation

     iteration #  1     ecut=   100.00 Ry     beta= 0.70
     Davidson diagonalization with overlap
     ethr =  1.00E-02,  avg # of iterations =  5.6

     negative rho (up, down):  8.697E-05 0.000E+00

     total cpu time spent up to now is        6.4 secs

     total energy              =     -36.86260281 Ry
     estimated scf accuracy    <       0.18956911 Ry

     iteration #  2     ecut=   100.00 Ry     beta= 0.70
     Davidson diagonalization with overlap
     ethr =  2.37E-03,  avg # of iterations =  4.0

     negative rho (up, down):  9.958E-05 0.000E+00

     total cpu time spent up to now is        9.9 secs

     total energy              =     -36.88772371 Ry
     estimated scf accuracy    <       0.00192147 Ry

     iteration #  3     ecut=   100.00 Ry     beta= 0.70
     Davidson diagonalization with overlap
     c_bands:  1 eigenvalues not converged
     c_bands:  1 eigenvalues not converged
     c_bands:  1 eigenvalues not converged
     ethr =  2.40E-05,  avg # of iterations = 10.1

     negative rho (up, down):  1.104E-04 0.000E+00

     total cpu time spent up to now is       16.4 secs

     total energy              =     -36.88805860 Ry
     estimated scf accuracy    <       0.00015797 Ry

     iteration #  4     ecut=   100.00 Ry     beta= 0.70
     Davidson diagonalization with overlap
     c_bands:  1 eigenvalues not converged
     c_bands:  1 eigenvalues not converged
     c_bands:  1 eigenvalues not converged
     c_bands:  1 eigenvalues not converged
     c_bands:  1 eigenvalues not converged
     c_bands:  1 eigenvalues not converged
     c_bands:  1 eigenvalues not converged
     c_bands:  1 eigenvalues not converged
     c_bands:  1 eigenvalues not converged
     c_bands:  1 eigenvalues not converged
     ethr =  1.97E-06,  avg # of iterations =  4.4

     negative rho (up, down):  1.112E-04 0.000E+00

     total cpu time spent up to now is       20.1 secs

     total energy              =     -36.88807411 Ry
     estimated scf accuracy    <       0.00000457 Ry

     iteration #  5     ecut=   100.00 Ry     beta= 0.70
     Davidson diagonalization with overlap
     c_bands:  1 eigenvalues not converged
     ethr =  5.72E-08,  avg # of iterations =  2.5

     negative rho (up, down):  1.116E-04 0.000E+00

     total cpu time spent up to now is       23.5 secs

     total energy              =     -36.88807556 Ry
     estimated scf accuracy    <       0.00000034 Ry

     iteration #  6     ecut=   100.00 Ry     beta= 0.70
     Davidson diagonalization with overlap
     ethr =  4.20E-09,  avg # of iterations =  2.3

     negative rho (up, down):  1.116E-04 0.000E+00

     total cpu time spent up to now is       26.9 secs

     total energy              =     -36.88807568 Ry
     estimated scf accuracy    <       0.00000005 Ry

     iteration #  7     ecut=   100.00 Ry     beta= 0.70
     Davidson diagonalization with overlap
     ethr =  6.29E-10,  avg # of iterations =  2.0

     negative rho (up, down):  1.116E-04 0.000E+00

     total cpu time spent up to now is       30.0 secs

     total energy              =     -36.88807569 Ry
     estimated scf accuracy    <          5.2E-09 Ry

     iteration #  8     ecut=   100.00 Ry     beta= 0.70
     Davidson diagonalization with overlap
     ethr =  6.55E-11,  avg # of iterations =  2.2

     negative rho (up, down):  1.116E-04 0.000E+00

     total cpu time spent up to now is       33.3 secs

     End of self-consistent calculation

     Number of k-points >= 100: set verbosity='high' to print the bands.

     the Fermi energy is    -4.3750 ev

!    total energy              =     -36.88807569 Ry
     total all-electron energy =      -152.416271 Ry
     estimated scf accuracy    <          4.0E-10 Ry
     smearing contrib. (-TS)   =       0.00005293 Ry
     internal energy E=F+TS    =     -36.88812861 Ry

     The total energy is F=E-TS. E is the sum of the following terms:
     one-electron contribution =    -313.05496959 Ry
     hartree contribution      =     157.40577053 Ry
     xc contribution           =      -9.27528356 Ry
     ewald contribution        =     140.37044101 Ry
     one-center paw contrib.   =     -12.33408702 Ry

     convergence has been achieved in   8 iterations

     negative rho (up, down):  1.116E-04 0.000E+00

     Forces acting on atoms (cartesian axes, Ry/au):

     atom    1 type  1   force =     0.00034981   -0.00020197   -0.00000002
     atom    2 type  1   force =    -0.00034981    0.00020197    0.00000002

     Total force =     0.000571     Total SCF correction =     0.000017


     Computing stress (Cartesian axis) and pressure


     negative rho (up, down):  1.116E-04 0.000E+00
          total   stress  (Ry/bohr**3)                   (kbar)     P=        1.21
   0.00001264  -0.00000028  -0.00000000            1.86       -0.04       -0.00
  -0.00000028   0.00001232  -0.00000000           -0.04        1.81       -0.00
  -0.00000000  -0.00000000  -0.00000027           -0.00       -0.00       -0.04


     BFGS Geometry Optimization
     Energy error            =      6.0E-06 Ry
     Gradient error          =      3.5E-04 Ry/Bohr
     Cell gradient error     =      1.8E+00 kbar

     number of scf cycles    =   1
     number of bfgs steps    =   0

     enthalpy           new  =     -36.8880756896 Ry

     new trust radius        =       0.0020647661 bohr
     new conv_thr            =       0.0000000010 Ry

     new unit-cell volume =    632.71694 a.u.^3 (    93.75898 Ang^3 )
     density =      0.42544 g/cm^3

CELL_PARAMETERS (angstrom)
   2.466094464   0.000000000   0.000000000
  -1.232662687   2.135910995   0.000000000
   0.000000000   0.000000000  17.800000000

ATOMIC_POSITIONS (crystal)
C                0.6166927787        0.2833072192        0.4999999995
C                0.2833072213        0.6166927808        0.5000000005



     Writing config-only to output data dir ./tmp/graphene.save/ :
     XML data file
     NEW-OLD atomic charge density approx. for the potential
     New effective cutoffs (rho, wfc):  399.88  100.00

     Check: negative core charge=   -0.000002

     negative rho (up, down):  1.120E-04 0.000E+00

     total cpu time spent up to now is       34.4 secs

     per-process dynamical memory:   152.6 Mb

     Self-consistent Calculation

     iteration #  1     ecut=   100.00 Ry     beta= 0.70
     Davidson diagonalization with overlap
     ethr =  1.00E-06,  avg # of iterations =  2.0

     Threshold (ethr) on eigenvalues was too large:
     Diagonalizing with lowered threshold

     Davidson diagonalization with overlap
     ethr =  4.45E-09,  avg # of iterations =  1.3

     negative rho (up, down):  1.122E-04 0.000E+00

     total cpu time spent up to now is       40.6 secs

     total energy              =     -36.88807992 Ry
     estimated scf accuracy    <       0.00000035 Ry

     iteration #  2     ecut=   100.00 Ry     beta= 0.70
     Davidson diagonalization with overlap
     ethr =  4.44E-09,  avg # of iterations =  2.0

     negative rho (up, down):  1.122E-04 0.000E+00

     total cpu time spent up to now is       43.7 secs

     total energy              =     -36.88807999 Ry
     estimated scf accuracy    <          3.6E-09 Ry

     iteration #  3     ecut=   100.00 Ry     beta= 0.70
     Davidson diagonalization with overlap
     ethr =  4.44E-11,  avg # of iterations =  2.6

     negative rho (up, down):  1.123E-04 0.000E+00

     total cpu time spent up to now is       47.2 secs

     End of self-consistent calculation

     Number of k-points >= 100: set verbosity='high' to print the bands.

     the Fermi energy is    -4.3779 ev

!    total energy              =     -36.88807999 Ry
     total all-electron energy =      -152.416276 Ry
     estimated scf accuracy    <          3.6E-10 Ry
     smearing contrib. (-TS)   =       0.00005298 Ry
     internal energy E=F+TS    =     -36.88813297 Ry

     The total energy is F=E-TS. E is the sum of the following terms:
     one-electron contribution =    -312.82551242 Ry
     hartree contribution      =     157.29024938 Ry
     xc contribution           =      -9.27365447 Ry
     ewald contribution        =     140.25480064 Ry
     one-center paw contrib.   =     -12.33401609 Ry

     convergence has been achieved in   3 iterations

     negative rho (up, down):  1.123E-04 0.000E+00

     Forces acting on atoms (cartesian axes, Ry/au):

     atom    1 type  1   force =    -0.00034371    0.00020080    0.00000001
     atom    2 type  1   force =     0.00034371   -0.00020080   -0.00000001

     Total force =     0.000563     Total SCF correction =     0.000039


     Computing stress (Cartesian axis) and pressure


     negative rho (up, down):  1.123E-04 0.000E+00
          total   stress  (Ry/bohr**3)                   (kbar)     P=        0.64
   0.00000717  -0.00000084  -0.00000000            1.05       -0.12       -0.00
  -0.00000084   0.00000626   0.00000000           -0.12        0.92        0.00
  -0.00000000   0.00000000  -0.00000032           -0.00        0.00       -0.05

     Energy error            =      4.3E-06 Ry
     Gradient error          =      3.4E-04 Ry/Bohr
     Cell gradient error     =      9.8E-01 kbar

     number of scf cycles    =   2
     number of bfgs steps    =   1

     enthalpy           old  =     -36.8880756896 Ry
     enthalpy           new  =     -36.8880799899 Ry

     CASE: enthalpy          _new < enthalpy          _old

     new trust radius        =       0.0026350630 bohr
     new conv_thr            =            1.0E-11 Ry

     new unit-cell volume =    633.30996 a.u.^3 (    93.84685 Ang^3 )
     density =      0.42504 g/cm^3

CELL_PARAMETERS (angstrom)
   2.467113585   0.000000000   0.000000000
  -1.232662687   2.137029762   0.000000000
   0.000000000   0.000000000  17.800000000

ATOMIC_POSITIONS (crystal)
C                0.6166242812        0.2833772476        0.4999999997
C                0.2833757188        0.6166227524        0.5000000003



     Writing config-only to output data dir ./tmp/graphene.save/ :
     XML data file
     NEW-OLD atomic charge density approx. for the potential
     New effective cutoffs (rho, wfc):  399.78  100.00

     Check: negative core charge=   -0.000002

     negative rho (up, down):  1.128E-04 0.000E+00

     total cpu time spent up to now is       48.3 secs

     per-process dynamical memory:   154.0 Mb

     Self-consistent Calculation

     iteration #  1     ecut=   100.00 Ry     beta= 0.70
     Davidson diagonalization with overlap
     ethr =  1.00E-06,  avg # of iterations =  2.0

     Threshold (ethr) on eigenvalues was too large:
     Diagonalizing with lowered threshold

     Davidson diagonalization with overlap
     ethr =  9.50E-09,  avg # of iterations =  1.5

     negative rho (up, down):  1.130E-04 0.000E+00

     total cpu time spent up to now is       54.4 secs

     total energy              =     -36.88808097 Ry
     estimated scf accuracy    <       0.00000079 Ry

     iteration #  2     ecut=   100.00 Ry     beta= 0.70
     Davidson diagonalization with overlap
     ethr =  9.90E-09,  avg # of iterations =  2.0

     negative rho (up, down):  1.131E-04 0.000E+00

     total cpu time spent up to now is       57.5 secs

     total energy              =     -36.88808109 Ry
     estimated scf accuracy    <          9.0E-09 Ry

     iteration #  3     ecut=   100.00 Ry     beta= 0.70
     Davidson diagonalization with overlap
     ethr =  1.13E-10,  avg # of iterations =  2.7

     negative rho (up, down):  1.131E-04 0.000E+00

     total cpu time spent up to now is       61.0 secs

     total energy              =     -36.88808110 Ry
     estimated scf accuracy    <          1.1E-09 Ry

     iteration #  4     ecut=   100.00 Ry     beta= 0.70
     Davidson diagonalization with overlap
     ethr =  1.31E-11,  avg # of iterations =  2.1

     negative rho (up, down):  1.131E-04 0.000E+00

     total cpu time spent up to now is       64.2 secs

     total energy              =     -36.88808110 Ry
     estimated scf accuracy    <          7.9E-10 Ry

     iteration #  5     ecut=   100.00 Ry     beta= 0.70
     Davidson diagonalization with overlap
     ethr =  9.82E-12,  avg # of iterations =  2.0

     negative rho (up, down):  1.131E-04 0.000E+00

     total cpu time spent up to now is       67.3 secs

     total energy              =     -36.88808110 Ry
     estimated scf accuracy    <          1.5E-11 Ry

     iteration #  6     ecut=   100.00 Ry     beta= 0.70
     Davidson diagonalization with overlap
     ethr =  1.90E-13,  avg # of iterations =  2.2

     negative rho (up, down):  1.131E-04 0.000E+00

     total cpu time spent up to now is       70.7 secs

     End of self-consistent calculation

     Number of k-points >= 100: set verbosity='high' to print the bands.

     the Fermi energy is    -4.3815 ev

!    total energy              =     -36.88808110 Ry
     total all-electron energy =      -152.416277 Ry
     estimated scf accuracy    <          3.8E-12 Ry
     smearing contrib. (-TS)   =       0.00005306 Ry
     internal energy E=F+TS    =     -36.88813416 Ry

     The total energy is F=E-TS. E is the sum of the following terms:
     one-electron contribution =    -312.52823612 Ry
     hartree contribution      =     157.14059678 Ry
     xc contribution           =      -9.27154516 Ry
     ewald contribution        =     140.10497482 Ry
     one-center paw contrib.   =     -12.33392448 Ry

     convergence has been achieved in   6 iterations

     negative rho (up, down):  1.131E-04 0.000E+00

     Forces acting on atoms (cartesian axes, Ry/au):

     atom    1 type  1   force =     0.00081954   -0.00046850    0.00000001
     atom    2 type  1   force =    -0.00081954    0.00046850   -0.00000001

     Total force =     0.001335     Total SCF correction =     0.000001


     Computing stress (Cartesian axis) and pressure


     negative rho (up, down):  1.131E-04 0.000E+00
          total   stress  (Ry/bohr**3)                   (kbar)     P=       -0.09
   0.00000073  -0.00000287  -0.00000000            0.11       -0.42       -0.00
  -0.00000287  -0.00000222  -0.00000000           -0.42       -0.33       -0.00
  -0.00000000  -0.00000000  -0.00000035           -0.00       -0.00       -0.05

     Energy error            =      1.1E-06 Ry
     Gradient error          =      8.2E-04 Ry/Bohr
     Cell gradient error     =      3.3E-01 kbar

     number of scf cycles    =   3
     number of bfgs steps    =   2

     enthalpy           old  =     -36.8880799899 Ry
     enthalpy           new  =     -36.8880810990 Ry

     CASE: enthalpy          _new < enthalpy          _old

     new trust radius        =       0.0004907531 bohr
     new conv_thr            =            1.0E-11 Ry

     new unit-cell volume =    633.22256 a.u.^3 (    93.83390 Ang^3 )
     density =      0.42510 g/cm^3

CELL_PARAMETERS (angstrom)
   2.467000125   0.000000000   0.000000000
  -1.232662687   2.136833121   0.000000000
   0.000000000   0.000000000  17.800000000

ATOMIC_POSITIONS (crystal)
C                0.6166857568        0.2833171633        0.5000000000
C                0.2833142432        0.6166828367        0.5000000000



     Writing config-only to output data dir ./tmp/graphene.save/ :
     XML data file
     NEW-OLD atomic charge density approx. for the potential
     New effective cutoffs (rho, wfc):  399.79  100.00

     Check: negative core charge=   -0.000002

     negative rho (up, down):  1.130E-04 0.000E+00

     total cpu time spent up to now is       71.8 secs

     per-process dynamical memory:   154.7 Mb

     Self-consistent Calculation

     iteration #  1     ecut=   100.00 Ry     beta= 0.70
     Davidson diagonalization with overlap
     ethr =  1.00E-06,  avg # of iterations =  2.0

     Threshold (ethr) on eigenvalues was too large:
     Diagonalizing with lowered threshold

     Davidson diagonalization with overlap
     ethr =  1.33E-09,  avg # of iterations =  2.4

     negative rho (up, down):  1.130E-04 0.000E+00

     total cpu time spent up to now is       78.3 secs

     total energy              =     -36.88808156 Ry
     estimated scf accuracy    <       0.00000013 Ry

     iteration #  2     ecut=   100.00 Ry     beta= 0.70
     Davidson diagonalization with overlap
     ethr =  1.65E-09,  avg # of iterations =  2.0

     negative rho (up, down):  1.130E-04 0.000E+00

     total cpu time spent up to now is       81.3 secs

     total energy              =     -36.88808158 Ry
     estimated scf accuracy    <          1.6E-09 Ry

     iteration #  3     ecut=   100.00 Ry     beta= 0.70
     Davidson diagonalization with overlap
     ethr =  2.06E-11,  avg # of iterations =  2.7

     negative rho (up, down):  1.130E-04 0.000E+00

     total cpu time spent up to now is       84.8 secs

     total energy              =     -36.88808158 Ry
     estimated scf accuracy    <          1.0E-10 Ry

     iteration #  4     ecut=   100.00 Ry     beta= 0.70
     Davidson diagonalization with overlap
     ethr =  1.28E-12,  avg # of iterations =  2.4

     negative rho (up, down):  1.130E-04 0.000E+00

     total cpu time spent up to now is       88.0 secs

     total energy              =     -36.88808158 Ry
     estimated scf accuracy    <          1.0E-11 Ry

     iteration #  5     ecut=   100.00 Ry     beta= 0.70
     Davidson diagonalization with overlap
     ethr =  1.28E-13,  avg # of iterations =  2.1

     negative rho (up, down):  1.130E-04 0.000E+00

     total cpu time spent up to now is       91.3 secs

     End of self-consistent calculation

     Number of k-points >= 100: set verbosity='high' to print the bands.

     the Fermi energy is    -4.3810 ev

!    total energy              =     -36.88808158 Ry
     total all-electron energy =      -152.416277 Ry
     estimated scf accuracy    <          2.0E-12 Ry
     smearing contrib. (-TS)   =       0.00005305 Ry
     internal energy E=F+TS    =     -36.88813463 Ry

     The total energy is F=E-TS. E is the sum of the following terms:
     one-electron contribution =    -312.57200239 Ry
     hartree contribution      =     157.16262672 Ry
     xc contribution           =      -9.27185462 Ry
     ewald contribution        =     140.12703349 Ry
     one-center paw contrib.   =     -12.33393782 Ry

     convergence has been achieved in   5 iterations

     negative rho (up, down):  1.130E-04 0.000E+00

     Forces acting on atoms (cartesian axes, Ry/au):

     atom    1 type  1   force =    -0.00013000    0.00008506   -0.00000000
     atom    2 type  1   force =     0.00013000   -0.00008506    0.00000000

     Total force =     0.000220     Total SCF correction =     0.000003


     Computing stress (Cartesian axis) and pressure


     negative rho (up, down):  1.130E-04 0.000E+00
          total   stress  (Ry/bohr**3)                   (kbar)     P=        0.02
   0.00000123  -0.00000214   0.00000000            0.18       -0.31        0.00
  -0.00000214  -0.00000053  -0.00000000           -0.31       -0.08       -0.00
   0.00000000  -0.00000000  -0.00000035            0.00       -0.00       -0.05

     Energy error            =      4.8E-07 Ry
     Gradient error          =      1.3E-04 Ry/Bohr
     Cell gradient error     =      7.8E-02 kbar

     number of scf cycles    =   4
     number of bfgs steps    =   3

     enthalpy           old  =     -36.8880810990 Ry
     enthalpy           new  =     -36.8880815804 Ry

     CASE: enthalpy          _new < enthalpy          _old

     new trust radius        =       0.0001679238 bohr
     new conv_thr            =            1.0E-11 Ry

     new unit-cell volume =    633.19262 a.u.^3 (    93.82947 Ang^3 )
     density =      0.42512 g/cm^3

CELL_PARAMETERS (angstrom)
   2.466965789   0.000000000   0.000000000
  -1.232662687   2.136761824   0.000000000
   0.000000000   0.000000000  17.800000000

ATOMIC_POSITIONS (crystal)
C                0.6166780958        0.2833280880        0.4999999999
C                0.2833219042        0.6166719120        0.5000000001



     Writing config-only to output data dir ./tmp/graphene.save/ :
     XML data file
     NEW-OLD atomic charge density approx. for the potential
     New effective cutoffs (rho, wfc):  399.79  100.00

     Check: negative core charge=   -0.000002

     negative rho (up, down):  1.130E-04 0.000E+00

     total cpu time spent up to now is       92.4 secs

     per-process dynamical memory:   154.7 Mb

     Self-consistent Calculation

     iteration #  1     ecut=   100.00 Ry     beta= 0.70
     Davidson diagonalization with overlap
     ethr =  1.00E-06,  avg # of iterations =  2.0

     Threshold (ethr) on eigenvalues was too large:
     Diagonalizing with lowered threshold

     Davidson diagonalization with overlap
     ethr =  3.21E-11,  avg # of iterations =  2.6

     negative rho (up, down):  1.130E-04 0.000E+00

     total cpu time spent up to now is       98.9 secs

     total energy              =     -36.88808160 Ry
     estimated scf accuracy    <          3.0E-09 Ry

     iteration #  2     ecut=   100.00 Ry     beta= 0.70
     Davidson diagonalization with overlap
     ethr =  3.77E-11,  avg # of iterations =  2.0

     negative rho (up, down):  1.129E-04 0.000E+00

     total cpu time spent up to now is      102.0 secs

     total energy              =     -36.88808160 Ry
     estimated scf accuracy    <          4.0E-11 Ry

     iteration #  3     ecut=   100.00 Ry     beta= 0.70
     Davidson diagonalization with overlap
     ethr =  5.04E-13,  avg # of iterations =  2.8

     negative rho (up, down):  1.129E-04 0.000E+00

     total cpu time spent up to now is      105.5 secs

     End of self-consistent calculation

     Number of k-points >= 100: set verbosity='high' to print the bands.

     the Fermi energy is    -4.3808 ev

!    total energy              =     -36.88808160 Ry
     total all-electron energy =      -152.416277 Ry
     estimated scf accuracy    <          6.8E-12 Ry
     smearing contrib. (-TS)   =       0.00005304 Ry
     internal energy E=F+TS    =     -36.88813464 Ry

     The total energy is F=E-TS. E is the sum of the following terms:
     one-electron contribution =    -312.58700215 Ry
     hartree contribution      =     157.17017694 Ry
     xc contribution           =      -9.27196096 Ry
     ewald contribution        =     140.13459394 Ry
     one-center paw contrib.   =     -12.33394241 Ry

     convergence has been achieved in   3 iterations

     negative rho (up, down):  1.129E-04 0.000E+00

     Forces acting on atoms (cartesian axes, Ry/au):

     atom    1 type  1   force =     0.00000097   -0.00000347    0.00000000
     atom    2 type  1   force =    -0.00000097    0.00000347   -0.00000000

     Total force =     0.000005     Total SCF correction =     0.000008
     SCF correction compared to forces is large: reduce conv_thr to get better values


     Computing stress (Cartesian axis) and pressure


     negative rho (up, down):  1.129E-04 0.000E+00
          total   stress  (Ry/bohr**3)                   (kbar)     P=        0.05
   0.00000155  -0.00000218  -0.00000000            0.23       -0.32       -0.00
  -0.00000218  -0.00000010  -0.00000000           -0.32       -0.01       -0.00
  -0.00000000  -0.00000000  -0.00000035           -0.00       -0.00       -0.05

     Energy error            =      1.6E-08 Ry
     Gradient error          =      3.5E-06 Ry/Bohr
     Cell gradient error     =      4.4E-02 kbar

     bfgs converged in   5 scf cycles and   4 bfgs steps
     (criteria: energy <  1.0E-05 Ry, force <  1.0E-04 Ry/Bohr, cell <  5.0E-01 kbar)

     End of BFGS Geometry Optimization

     Final enthalpy           =     -36.8880815967 Ry

     File ./tmp/graphene.bfgs deleted, as requested
Begin final coordinates
     new unit-cell volume =    633.19262 a.u.^3 (    93.82947 Ang^3 )
     density =      0.42512 g/cm^3

CELL_PARAMETERS (angstrom)
   2.466965789   0.000000000   0.000000000
  -1.232662687   2.136761824   0.000000000
   0.000000000   0.000000000  17.800000000

ATOMIC_POSITIONS (crystal)
C                0.6166780958        0.2833280880        0.4999999999
C                0.2833219042        0.6166719120        0.5000000001
End final coordinates



     Writing config-only to output data dir ./tmp/graphene.save/ :
     XML data file

     Final scf calculation at the relaxed structure.
     The G-vectors are recalculated for the final unit cell
     Results may differ from those at the preceding step.
 
     Parallelization info
     --------------------
     sticks:   dense  smooth     PW     G-vecs:    dense   smooth      PW
     Min          49      49     16                 7119     7119    1302
     Max          50      50     17                 7144     7144    1319
     Sum         595     595    199                85533    85533   15751
 
     Using Slab Decomposition
 


     bravais-lattice index     =            0
     lattice parameter (alat)  =       4.6588  a.u.
     unit-cell volume          =     633.1926 (a.u.)^3
     number of atoms/cell      =            2
     number of atomic types    =            1
     number of electrons       =         8.00
     number of Kohn-Sham states=            8
     kinetic-energy cutoff     =     100.0000  Ry
     charge density cutoff     =     400.0000  Ry
     scf convergence threshold =      1.0E-11
     mixing beta               =       0.7000
     number of iterations used =            8  plain     mixing
     press convergence thresh. =      5.0E-01
     Exchange-correlation= SLA  PW   PBX  PBC
                           (   1   4   3   4   0   0   0)

     celldm(1)=   4.658790  celldm(2)=   0.000000  celldm(3)=   0.000000
     celldm(4)=   0.000000  celldm(5)=   0.000000  celldm(6)=   0.000000

     crystal axes: (cart. coord. in units of alat)
               a(1) = (   1.000665   0.000000   0.000000 )  
               a(2) = (  -0.500000   0.866726   0.000000 )  
               a(3) = (   0.000000   0.000000   7.220142 )  

     reciprocal axes: (cart. coord. in units 2 pi/alat)
               b(1) = (  0.999335  0.576500  0.000000 )  
               b(2) = (  0.000000  1.153767  0.000000 )  
               b(3) = (  0.000000  0.000000  0.138501 )  


     PseudoPot. # 1 for C  read from file:
     ./C.upf
     MD5 check sum: 5d2aebdfa2cae82b50a7e79e9516da0f
     Pseudo is Projector augmented-wave + core cor, Zval =  4.0
     Generated using "atomic" code by A. Dal Corso  v.5.1
     Shape of augmentation charge: PSQ
     Using radial grid of 1073 points,  4 beta functions with: 
                l(1) =   0
                l(2) =   0
                l(3) =   1
                l(4) =   1
     Q(r) pseudized with 0 coefficients 


     atomic species   valence    mass     pseudopotential
     C                 4.00    12.01070     C ( 1.00)

     No symmetry found



   Cartesian axes

     site n.     atom                  positions (alat units)
         1        C      tau(   1) = (   0.4754244   0.2455678   3.6100711  )
         2        C      tau(   2) = (  -0.0248255   0.5344856   3.6100711  )

     number of k points=   784  Marzari-Vanderbilt smearing, width (Ry)=  0.0200

     Number of k-points >= 100: set verbosity='high' to print them.

     Dense  grid:    85533 G-vectors     FFT dimensions: (  30,  30, 216)

     Estimated max dynamical RAM per process >      96.08 MB

     Estimated total dynamical RAM >       1.13 GB
 ----2D----2D----2D----2D----2D----2D----2D----2D----2D----2D----2D----2D
  The code is running with the 2D cutoff
  Please refer to:
  Sohier, T., Calandra, M., & Mauri, F. (2017), 
  Density functional perturbation theory for gated two-dimensional heterostructu
 res:
  Theoretical developments and application to flexural phonons in graphene.
  Physical Review B, 96(7), 75448. https://doi.org/10.1103/PhysRevB.96.075448
 ----2D----2D----2D----2D----2D----2D----2D----2D----2D----2D----2D----2D

     Check: negative core charge=   -0.000002

     Initial potential from superposition of free atoms

     starting charge       7.9999, renormalised to       8.0000

     negative rho (up, down):  9.082E-05 0.000E+00
     Starting wfcs are    8 randomized atomic wfcs
     Checking if some PAW data can be deallocated... 

     total cpu time spent up to now is      107.8 secs

     per-process dynamical memory:   151.8 Mb

     Self-consistent Calculation

     iteration #  1     ecut=   100.00 Ry     beta= 0.70
     Davidson diagonalization with overlap
     c_bands:  1 eigenvalues not converged
     c_bands:  1 eigenvalues not converged
     c_bands:  1 eigenvalues not converged
     c_bands:  1 eigenvalues not converged
     c_bands:  1 eigenvalues not converged
     c_bands:  1 eigenvalues not converged
     c_bands:  1 eigenvalues not converged
     c_bands:  1 eigenvalues not converged
     c_bands:  1 eigenvalues not converged
     c_bands:  1 eigenvalues not converged
     c_bands:  1 eigenvalues not converged
     c_bands:  1 eigenvalues not converged
     c_bands:  1 eigenvalues not converged
     c_bands:  1 eigenvalues not converged
     c_bands:  1 eigenvalues not converged
     c_bands:  1 eigenvalues not converged
     c_bands:  1 eigenvalues not converged
     c_bands:  1 eigenvalues not converged
     c_bands:  1 eigenvalues not converged
     c_bands:  1 eigenvalues not converged
     c_bands:  1 eigenvalues not converged
     c_bands:  1 eigenvalues not converged
     c_bands:  1 eigenvalues not converged
     c_bands:  1 eigenvalues not converged
     c_bands:  1 eigenvalues not converged
     c_bands:  1 eigenvalues not converged
     c_bands:  1 eigenvalues not converged
     c_bands:  1 eigenvalues not converged
     c_bands:  1 eigenvalues not converged
     c_bands:  1 eigenvalues not converged
     c_bands:  1 eigenvalues not converged
     c_bands:  1 eigenvalues not converged
     c_bands:  1 eigenvalues not converged
     c_bands:  1 eigenvalues not converged
     c_bands:  1 eigenvalues not converged
     c_bands:  1 eigenvalues not converged
     c_bands:  1 eigenvalues not converged
     c_bands:  1 eigenvalues not converged
     c_bands:  1 eigenvalues not converged
     c_bands:  1 eigenvalues not converged
     c_bands:  1 eigenvalues not converged
     c_bands:  1 eigenvalues not converged
     c_bands:  1 eigenvalues not converged
     c_bands:  1 eigenvalues not converged
     c_bands:  1 eigenvalues not converged
     c_bands:  1 eigenvalues not converged
     c_bands:  1 eigenvalues not converged
     c_bands:  1 eigenvalues not converged
     c_bands:  1 eigenvalues not converged
     c_bands:  1 eigenvalues not converged
     c_bands:  1 eigenvalues not converged
     c_bands:  1 eigenvalues not converged
     c_bands:  1 eigenvalues not converged
     c_bands:  2 eigenvalues not converged
     c_bands:  1 eigenvalues not converged
     c_bands:  1 eigenvalues not converged
     c_bands:  1 eigenvalues not converged
     c_bands:  1 eigenvalues not converged
     c_bands:  1 eigenvalues not converged
     c_bands:  1 eigenvalues not converged
     c_bands:  1 eigenvalues not converged
     c_bands:  1 eigenvalues not converged
     c_bands:  1 eigenvalues not converged
     c_bands:  1 eigenvalues not converged
     c_bands:  1 eigenvalues not converged
     c_bands:  1 eigenvalues not converged
     c_bands:  1 eigenvalues not converged
     c_bands:  1 eigenvalues not converged
     c_bands:  1 eigenvalues not converged
     c_bands:  1 eigenvalues not converged
     c_bands:  1 eigenvalues not converged
     c_bands:  1 eigenvalues not converged
     c_bands:  1 eigenvalues not converged
     c_bands:  1 eigenvalues not converged
     c_bands:  1 eigenvalues not converged
     c_bands:  1 eigenvalues not converged
     c_bands:  1 eigenvalues not converged
     c_bands:  1 eigenvalues not converged
     c_bands:  1 eigenvalues not converged
     c_bands:  1 eigenvalues not converged
     c_bands:  1 eigenvalues not converged
     c_bands:  1 eigenvalues not converged
     c_bands:  1 eigenvalues not converged
     c_bands:  1 eigenvalues not converged
     c_bands:  1 eigenvalues not converged
     c_bands:  1 eigenvalues not converged
     c_bands:  1 eigenvalues not converged
     c_bands:  1 eigenvalues not converged
     c_bands:  1 eigenvalues not converged
     c_bands:  2 eigenvalues not converged
     c_bands:  1 eigenvalues not converged
     c_bands:  2 eigenvalues not converged
     c_bands:  1 eigenvalues not converged
     c_bands:  1 eigenvalues not converged
     c_bands:  1 eigenvalues not converged
     c_bands:  1 eigenvalues not converged
     c_bands:  1 eigenvalues not converged
     c_bands:  1 eigenvalues not converged
     c_bands:  1 eigenvalues not converged
     c_bands:  1 eigenvalues not converged
     c_bands:  1 eigenvalues not converged
     c_bands:  1 eigenvalues not converged
     c_bands:  1 eigenvalues not converged
     c_bands:  1 eigenvalues not converged
     c_bands:  1 eigenvalues not converged
     c_bands:  2 eigenvalues not converged
     c_bands:  2 eigenvalues not converged
     c_bands:  1 eigenvalues not converged
     c_bands:  1 eigenvalues not converged
     c_bands:  1 eigenvalues not converged
     c_bands:  1 eigenvalues not converged
     c_bands:  1 eigenvalues not converged
     c_bands:  1 eigenvalues not converged
     c_bands:  1 eigenvalues not converged
     c_bands:  1 eigenvalues not converged
     c_bands:  1 eigenvalues not converged
     c_bands:  1 eigenvalues not converged
     c_bands:  2 eigenvalues not converged
     c_bands:  2 eigenvalues not converged
     c_bands:  2 eigenvalues not converged
     c_bands:  1 eigenvalues not converged
     c_bands:  1 eigenvalues not converged
     c_bands:  1 eigenvalues not converged
     c_bands:  1 eigenvalues not converged
     c_bands:  1 eigenvalues not converged
     c_bands:  1 eigenvalues not converged
     c_bands:  1 eigenvalues not converged
     c_bands:  1 eigenvalues not converged
     c_bands:  1 eigenvalues not converged
     c_bands:  1 eigenvalues not converged
     c_bands:  1 eigenvalues not converged
     c_bands:  1 eigenvalues not converged
     c_bands:  1 eigenvalues not converged
     c_bands:  1 eigenvalues not converged
     c_bands:  1 eigenvalues not converged
     c_bands:  1 eigenvalues not converged
     c_bands:  1 eigenvalues not converged
     c_bands:  1 eigenvalues not converged
     c_bands:  1 eigenvalues not converged
     c_bands:  1 eigenvalues not converged
     c_bands:  1 eigenvalues not converged
     c_bands:  1 eigenvalues not converged
     c_bands:  1 eigenvalues not converged
     c_bands:  1 eigenvalues not converged
     c_bands:  1 eigenvalues not converged
     c_bands:  1 eigenvalues not converged
     c_bands:  1 eigenvalues not converged
     c_bands:  1 eigenvalues not converged
     c_bands:  1 eigenvalues not converged
     c_bands:  1 eigenvalues not converged
     c_bands:  1 eigenvalues not converged
     c_bands:  1 eigenvalues not converged
     c_bands:  1 eigenvalues not converged
     c_bands:  1 eigenvalues not converged
     c_bands:  1 eigenvalues not converged
     c_bands:  2 eigenvalues not converged
     c_bands:  1 eigenvalues not converged
     c_bands:  1 eigenvalues not converged
     c_bands:  1 eigenvalues not converged
     c_bands:  1 eigenvalues not converged
     c_bands:  1 eigenvalues not converged
     c_bands:  1 eigenvalues not converged
     c_bands:  1 eigenvalues not converged
     c_bands:  1 eigenvalues not converged
     c_bands:  1 eigenvalues not converged
     c_bands:  1 eigenvalues not converged
     c_bands:  1 eigenvalues not converged
     c_bands:  1 eigenvalues not converged
     c_bands:  1 eigenvalues not converged
     c_bands:  1 eigenvalues not converged
     c_bands:  1 eigenvalues not converged
     c_bands:  1 eigenvalues not converged
     c_bands:  1 eigenvalues not converged
     c_bands:  1 eigenvalues not converged
     c_bands:  1 eigenvalues not converged
     c_bands:  1 eigenvalues not converged
     c_bands:  1 eigenvalues not converged
     c_bands:  1 eigenvalues not converged
     c_bands:  1 eigenvalues not converged
     c_bands:  2 eigenvalues not converged
     c_bands:  2 eigenvalues not converged
     c_bands:  1 eigenvalues not converged
     c_bands:  1 eigenvalues not converged
     c_bands:  1 eigenvalues not converged
     c_bands:  1 eigenvalues not converged
     c_bands:  1 eigenvalues not converged
     c_bands:  1 eigenvalues not converged
     c_bands:  1 eigenvalues not converged
     c_bands:  1 eigenvalues not converged
     c_bands:  1 eigenvalues not converged
     c_bands:  1 eigenvalues not converged
     c_bands:  1 eigenvalues not converged
     c_bands:  1 eigenvalues not converged
     c_bands:  1 eigenvalues not converged
     c_bands:  1 eigenvalues not converged
     c_bands:  1 eigenvalues not converged
     c_bands:  1 eigenvalues not converged
     c_bands:  1 eigenvalues not converged
     c_bands:  1 eigenvalues not converged
     c_bands:  1 eigenvalues not converged
     c_bands:  1 eigenvalues not converged
     c_bands:  1 eigenvalues not converged
     c_bands:  1 eigenvalues not converged
     c_bands:  1 eigenvalues not converged
     c_bands:  1 eigenvalues not converged
     c_bands:  2 eigenvalues not converged
     c_bands:  1 eigenvalues not converged
     c_bands:  1 eigenvalues not converged
     c_bands:  1 eigenvalues not converged
     c_bands:  1 eigenvalues not converged
     c_bands:  1 eigenvalues not converged
     c_bands:  1 eigenvalues not converged
     c_bands:  1 eigenvalues not converged
     c_bands:  1 eigenvalues not converged
     c_bands:  1 eigenvalues not converged
     c_bands:  1 eigenvalues not converged
     c_bands:  1 eigenvalues not converged
     c_bands:  1 eigenvalues not converged
     c_bands:  1 eigenvalues not converged
     c_bands:  1 eigenvalues not converged
     c_bands:  1 eigenvalues not converged
     c_bands:  1 eigenvalues not converged
     c_bands:  1 eigenvalues not converged
     c_bands:  1 eigenvalues not converged
     c_bands:  1 eigenvalues not converged
     c_bands:  1 eigenvalues not converged
     c_bands:  2 eigenvalues not converged
     c_bands:  2 eigenvalues not converged
     c_bands:  1 eigenvalues not converged
     c_bands:  2 eigenvalues not converged
     c_bands:  2 eigenvalues not converged
     c_bands:  2 eigenvalues not converged
     c_bands:  2 eigenvalues not converged
     c_bands:  2 eigenvalues not converged
     c_bands:  1 eigenvalues not converged
     c_bands:  1 eigenvalues not converged
     c_bands:  1 eigenvalues not converged
     c_bands:  1 eigenvalues not converged
     c_bands:  1 eigenvalues not converged
     c_bands:  1 eigenvalues not converged
     c_bands:  1 eigenvalues not converged
     c_bands:  1 eigenvalues not converged
     c_bands:  1 eigenvalues not converged
     c_bands:  1 eigenvalues not converged
     c_bands:  1 eigenvalues not converged
     c_bands:  1 eigenvalues not converged
     c_bands:  1 eigenvalues not converged
     c_bands:  1 eigenvalues not converged
     c_bands:  1 eigenvalues not converged
     c_bands:  1 eigenvalues not converged
     c_bands:  1 eigenvalues not converged
     c_bands:  1 eigenvalues not converged
     c_bands:  1 eigenvalues not converged
     c_bands:  1 eigenvalues not converged
     c_bands:  1 eigenvalues not converged
     c_bands:  1 eigenvalues not converged
     c_bands:  1 eigenvalues not converged
     c_bands:  1 eigenvalues not converged
     c_bands:  1 eigenvalues not converged
     c_bands:  1 eigenvalues not converged
     c_bands:  1 eigenvalues not converged
     c_bands:  1 eigenvalues not converged
     c_bands:  1 eigenvalues not converged
     c_bands:  1 eigenvalues not converged
     c_bands:  1 eigenvalues not converged
     c_bands:  1 eigenvalues not converged
     c_bands:  1 eigenvalues not converged
     c_bands:  1 eigenvalues not converged
     c_bands:  1 eigenvalues not converged
     c_bands:  1 eigenvalues not converged
     c_bands:  1 eigenvalues not converged
     c_bands:  1 eigenvalues not converged
     c_bands:  1 eigenvalues not converged
     c_bands:  2 eigenvalues not converged
     c_bands:  1 eigenvalues not converged
     c_bands:  1 eigenvalues not converged
     c_bands:  1 eigenvalues not converged
     c_bands:  1 eigenvalues not converged
     c_bands:  1 eigenvalues not converged
     c_bands:  1 eigenvalues not converged
     c_bands:  1 eigenvalues not converged
     c_bands:  1 eigenvalues not converged
     c_bands:  1 eigenvalues not converged
     c_bands:  1 eigenvalues not converged
     c_bands:  1 eigenvalues not converged
     c_bands:  1 eigenvalues not converged
     c_bands:  1 eigenvalues not converged
     c_bands:  1 eigenvalues not converged
     c_bands:  1 eigenvalues not converged
     c_bands:  1 eigenvalues not converged
     c_bands:  1 eigenvalues not converged
     c_bands:  1 eigenvalues not converged
     c_bands:  1 eigenvalues not converged
     c_bands:  1 eigenvalues not converged
     c_bands:  1 eigenvalues not converged
     c_bands:  1 eigenvalues not converged
     c_bands:  1 eigenvalues not converged
     c_bands:  1 eigenvalues not converged
     c_bands:  1 eigenvalues not converged
     c_bands:  1 eigenvalues not converged
     c_bands:  1 eigenvalues not converged
     c_bands:  1 eigenvalues not converged
     c_bands:  1 eigenvalues not converged
     c_bands:  1 eigenvalues not converged
     c_bands:  1 eigenvalues not converged
     c_bands:  1 eigenvalues not converged
     c_bands:  1 eigenvalues not converged
     c_bands:  1 eigenvalues not converged
     c_bands:  1 eigenvalues not converged
     c_bands:  1 eigenvalues not converged
     c_bands:  1 eigenvalues not converged
     c_bands:  1 eigenvalues not converged
     c_bands:  1 eigenvalues not converged
     c_bands:  1 eigenvalues not converged
     c_bands:  1 eigenvalues not converged
     c_bands:  1 eigenvalues not converged
     c_bands:  1 eigenvalues not converged
     c_bands:  1 eigenvalues not converged
     c_bands:  2 eigenvalues not converged
     c_bands:  1 eigenvalues not converged
     c_bands:  1 eigenvalues not converged
     c_bands:  1 eigenvalues not converged
     c_bands:  1 eigenvalues not converged
     c_bands:  1 eigenvalues not converged
     c_bands:  1 eigenvalues not converged
     c_bands:  1 eigenvalues not converged
     c_bands:  1 eigenvalues not converged
     c_bands:  1 eigenvalues not converged
     c_bands:  1 eigenvalues not converged
     c_bands:  1 eigenvalues not converged
     c_bands:  1 eigenvalues not converged
     c_bands:  1 eigenvalues not converged
     c_bands:  1 eigenvalues not converged
     c_bands:  1 eigenvalues not converged
     c_bands:  1 eigenvalues not converged
     c_bands:  1 eigenvalues not converged
     c_bands:  1 eigenvalues not converged
     c_bands:  1 eigenvalues not converged
     c_bands:  1 eigenvalues not converged
     c_bands:  2 eigenvalues not converged
     c_bands:  2 eigenvalues not converged
     c_bands:  1 eigenvalues not converged
     c_bands:  1 eigenvalues not converged
     c_bands:  1 eigenvalues not converged
     c_bands:  2 eigenvalues not converged
     c_bands:  2 eigenvalues not converged
     c_bands:  1 eigenvalues not converged
     c_bands:  1 eigenvalues not converged
     c_bands:  1 eigenvalues not converged
     c_bands:  1 eigenvalues not converged
     c_bands:  1 eigenvalues not converged
     c_bands:  1 eigenvalues not converged
     c_bands:  1 eigenvalues not converged
     c_bands:  1 eigenvalues not converged
     c_bands:  1 eigenvalues not converged
     c_bands:  1 eigenvalues not converged
     c_bands:  1 eigenvalues not converged
     c_bands:  1 eigenvalues not converged
     c_bands:  1 eigenvalues not converged
     c_bands:  1 eigenvalues not converged
     c_bands:  1 eigenvalues not converged
     c_bands:  1 eigenvalues not converged
     c_bands:  1 eigenvalues not converged
     c_bands:  1 eigenvalues not converged
     c_bands:  2 eigenvalues not converged
     c_bands:  1 eigenvalues not converged
     c_bands:  1 eigenvalues not converged
     c_bands:  1 eigenvalues not converged
     c_bands:  1 eigenvalues not converged
     c_bands:  1 eigenvalues not converged
     c_bands:  1 eigenvalues not converged
     c_bands:  1 eigenvalues not converged
     c_bands:  1 eigenvalues not converged
     c_bands:  1 eigenvalues not converged
     c_bands:  1 eigenvalues not converged
     c_bands:  1 eigenvalues not converged
     c_bands:  1 eigenvalues not converged
     c_bands:  1 eigenvalues not converged
     c_bands:  1 eigenvalues not converged
     c_bands:  1 eigenvalues not converged
     c_bands:  1 eigenvalues not converged
     c_bands:  1 eigenvalues not converged
     c_bands:  1 eigenvalues not converged
     c_bands:  1 eigenvalues not converged
     c_bands:  1 eigenvalues not converged
     c_bands:  1 eigenvalues not converged
     c_bands:  1 eigenvalues not converged
     c_bands:  1 eigenvalues not converged
     c_bands:  1 eigenvalues not converged
     c_bands:  1 eigenvalues not converged
     c_bands:  1 eigenvalues not converged
     c_bands:  1 eigenvalues not converged
     c_bands:  1 eigenvalues not converged
     c_bands:  1 eigenvalues not converged
     c_bands:  1 eigenvalues not converged
     c_bands:  2 eigenvalues not converged
     c_bands:  2 eigenvalues not converged
     c_bands:  1 eigenvalues not converged
     c_bands:  1 eigenvalues not converged
     c_bands:  1 eigenvalues not converged
     c_bands:  1 eigenvalues not converged
     c_bands:  1 eigenvalues not converged
     c_bands:  1 eigenvalues not converged
     c_bands:  1 eigenvalues not converged
     c_bands:  1 eigenvalues not converged
     c_bands:  1 eigenvalues not converged
     c_bands:  1 eigenvalues not converged
     c_bands:  1 eigenvalues not converged
     c_bands:  1 eigenvalues not converged
     c_bands:  1 eigenvalues not converged
     c_bands:  1 eigenvalues not converged
     c_bands:  1 eigenvalues not converged
     c_bands:  1 eigenvalues not converged
     c_bands:  1 eigenvalues not converged
     c_bands:  2 eigenvalues not converged
     c_bands:  1 eigenvalues not converged
     c_bands:  1 eigenvalues not converged
     c_bands:  1 eigenvalues not converged
     c_bands:  1 eigenvalues not converged
     c_bands:  2 eigenvalues not converged
     c_bands:  1 eigenvalues not converged
     c_bands:  1 eigenvalues not converged
     c_bands:  1 eigenvalues not converged
     c_bands:  1 eigenvalues not converged
     c_bands:  1 eigenvalues not converged
     c_bands:  1 eigenvalues not converged
     c_bands:  1 eigenvalues not converged
     c_bands:  1 eigenvalues not converged
     c_bands:  1 eigenvalues not converged
     c_bands:  1 eigenvalues not converged
     c_bands:  1 eigenvalues not converged
     c_bands:  1 eigenvalues not converged
     c_bands:  1 eigenvalues not converged
     c_bands:  1 eigenvalues not converged
     c_bands:  1 eigenvalues not converged
     c_bands:  1 eigenvalues not converged
     c_bands:  1 eigenvalues not converged
     c_bands:  1 eigenvalues not converged
     c_bands:  1 eigenvalues not converged
     c_bands:  1 eigenvalues not converged
     c_bands:  1 eigenvalues not converged
     c_bands:  1 eigenvalues not converged
     c_bands:  1 eigenvalues not converged
     c_bands:  1 eigenvalues not converged
     c_bands:  1 eigenvalues not converged
     c_bands:  1 eigenvalues not converged
     c_bands:  1 eigenvalues not converged
     c_bands:  1 eigenvalues not converged
     c_bands:  1 eigenvalues not converged
     c_bands:  1 eigenvalues not converged
     c_bands:  1 eigenvalues not converged
     c_bands:  1 eigenvalues not converged
     c_bands:  1 eigenvalues not converged
     c_bands:  2 eigenvalues not converged
     c_bands:  1 eigenvalues not converged
     c_bands:  2 eigenvalues not converged
     c_bands:  1 eigenvalues not converged
     c_bands:  1 eigenvalues not converged
     c_bands:  1 eigenvalues not converged
     c_bands:  1 eigenvalues not converged
     c_bands:  1 eigenvalues not converged
     c_bands:  1 eigenvalues not converged
     c_bands:  1 eigenvalues not converged
     c_bands:  2 eigenvalues not converged
     c_bands:  1 eigenvalues not converged
     c_bands:  1 eigenvalues not converged
     c_bands:  1 eigenvalues not converged
     c_bands:  1 eigenvalues not converged
     c_bands:  1 eigenvalues not converged
     c_bands:  1 eigenvalues not converged
     c_bands:  1 eigenvalues not converged
     c_bands:  1 eigenvalues not converged
     c_bands:  1 eigenvalues not converged
     c_bands:  1 eigenvalues not converged
     c_bands:  1 eigenvalues not converged
     c_bands:  1 eigenvalues not converged
     c_bands:  1 eigenvalues not converged
     c_bands:  1 eigenvalues not converged
     c_bands:  1 eigenvalues not converged
     c_bands:  1 eigenvalues not converged
     c_bands:  1 eigenvalues not converged
     c_bands:  1 eigenvalues not converged
     c_bands:  1 eigenvalues not converged
     c_bands:  1 eigenvalues not converged
     c_bands:  1 eigenvalues not converged
     c_bands:  1 eigenvalues not converged
     c_bands:  1 eigenvalues not converged
     c_bands:  1 eigenvalues not converged
     c_bands:  1 eigenvalues not converged
     c_bands:  1 eigenvalues not converged
     c_bands:  1 eigenvalues not converged
     c_bands:  1 eigenvalues not converged
     c_bands:  1 eigenvalues not converged
     c_bands:  1 eigenvalues not converged
     c_bands:  1 eigenvalues not converged
     c_bands:  2 eigenvalues not converged
     c_bands:  1 eigenvalues not converged
     c_bands:  1 eigenvalues not converged
     c_bands:  1 eigenvalues not converged
     c_bands:  1 eigenvalues not converged
     c_bands:  1 eigenvalues not converged
     c_bands:  1 eigenvalues not converged
     c_bands:  1 eigenvalues not converged
     c_bands:  1 eigenvalues not converged
     c_bands:  1 eigenvalues not converged
     c_bands:  1 eigenvalues not converged
     c_bands:  1 eigenvalues not converged
     c_bands:  1 eigenvalues not converged
     c_bands:  1 eigenvalues not converged
     c_bands:  1 eigenvalues not converged
     c_bands:  1 eigenvalues not converged
     c_bands:  1 eigenvalues not converged
     c_bands:  1 eigenvalues not converged
     c_bands:  1 eigenvalues not converged
     c_bands:  1 eigenvalues not converged
     c_bands:  1 eigenvalues not converged
     c_bands:  1 eigenvalues not converged
     c_bands:  1 eigenvalues not converged
     c_bands:  1 eigenvalues not converged
     c_bands:  1 eigenvalues not converged
     c_bands:  1 eigenvalues not converged
     c_bands:  1 eigenvalues not converged
     c_bands:  1 eigenvalues not converged
     c_bands:  1 eigenvalues not converged
     c_bands:  1 eigenvalues not converged
     c_bands:  1 eigenvalues not converged
     c_bands:  1 eigenvalues not converged
     c_bands:  1 eigenvalues not converged
     c_bands:  1 eigenvalues not converged
     c_bands:  1 eigenvalues not converged
     c_bands:  1 eigenvalues not converged
     c_bands:  1 eigenvalues not converged
     c_bands:  1 eigenvalues not converged
     c_bands:  1 eigenvalues not converged
     c_bands:  1 eigenvalues not converged
     c_bands:  1 eigenvalues not converged
     c_bands:  1 eigenvalues not converged
     c_bands:  1 eigenvalues not converged
     c_bands:  1 eigenvalues not converged
     c_bands:  1 eigenvalues not converged
     c_bands:  1 eigenvalues not converged
     c_bands:  1 eigenvalues not converged
     c_bands:  2 eigenvalues not converged
     c_bands:  1 eigenvalues not converged
     c_bands:  1 eigenvalues not converged
     c_bands:  1 eigenvalues not converged
     c_bands:  1 eigenvalues not converged
     ethr =  1.00E-06,  avg # of iterations = 19.5

     negative rho (up, down):  1.025E-04 0.000E+00

     total cpu time spent up to now is      121.2 secs

     total energy              =     -36.85211538 Ry
     estimated scf accuracy    <       0.20204998 Ry

     iteration #  2     ecut=   100.00 Ry     beta= 0.70
     Davidson diagonalization with overlap
     ethr =  2.53E-03,  avg # of iterations =  2.2

     negative rho (up, down):  1.037E-04 0.000E+00

     total cpu time spent up to now is      124.4 secs

     total energy              =     -36.88655553 Ry
     estimated scf accuracy    <       0.00251107 Ry

     iteration #  3     ecut=   100.00 Ry     beta= 0.70
     Davidson diagonalization with overlap
     ethr =  3.14E-05,  avg # of iterations =  8.6

     negative rho (up, down):  1.100E-04 0.000E+00

     total cpu time spent up to now is      130.1 secs

     total energy              =     -36.88800071 Ry
     estimated scf accuracy    <       0.00018886 Ry

     iteration #  4     ecut=   100.00 Ry     beta= 0.70
     Davidson diagonalization with overlap
     c_bands:  1 eigenvalues not converged
     c_bands:  1 eigenvalues not converged
     c_bands:  1 eigenvalues not converged
     ethr =  2.36E-06,  avg # of iterations =  4.5

     negative rho (up, down):  1.110E-04 0.000E+00

     total cpu time spent up to now is      133.9 secs

     total energy              =     -36.88807310 Ry
     estimated scf accuracy    <       0.00000271 Ry

     iteration #  5     ecut=   100.00 Ry     beta= 0.70
     Davidson diagonalization with overlap
     ethr =  3.39E-08,  avg # of iterations =  3.5

     negative rho (up, down):  1.110E-04 0.000E+00

     total cpu time spent up to now is      137.7 secs

     total energy              =     -36.88807858 Ry
     estimated scf accuracy    <       0.00000011 Ry

     iteration #  6     ecut=   100.00 Ry     beta= 0.70
     Davidson diagonalization with overlap
     ethr =  1.37E-09,  avg # of iterations =  2.2

     negative rho (up, down):  1.110E-04 0.000E+00

     total cpu time spent up to now is      141.0 secs

     total energy              =     -36.88808170 Ry
     estimated scf accuracy    <       0.00000002 Ry

     iteration #  7     ecut=   100.00 Ry     beta= 0.70
     Davidson diagonalization with overlap
     ethr =  2.40E-10,  avg # of iterations =  2.0

     negative rho (up, down):  1.110E-04 0.000E+00

     total cpu time spent up to now is      144.1 secs

     total energy              =     -36.88808192 Ry
     estimated scf accuracy    <          1.2E-09 Ry

     iteration #  8     ecut=   100.00 Ry     beta= 0.70
     Davidson diagonalization with overlap
     ethr =  1.47E-11,  avg # of iterations =  2.3

     negative rho (up, down):  1.110E-04 0.000E+00

     total cpu time spent up to now is      147.3 secs

     total energy              =     -36.88808193 Ry
     estimated scf accuracy    <          1.4E-10 Ry

     iteration #  9     ecut=   100.00 Ry     beta= 0.70
     Davidson diagonalization with overlap
     ethr =  1.72E-12,  avg # of iterations =  2.1

     negative rho (up, down):  1.110E-04 0.000E+00

     total cpu time spent up to now is      150.6 secs

     total energy              =     -36.88808180 Ry
     estimated scf accuracy    <          1.0E-11 Ry

     iteration # 10     ecut=   100.00 Ry     beta= 0.70
     Davidson diagonalization with overlap
     ethr =  1.28E-13,  avg # of iterations =  2.2

     negative rho (up, down):  1.110E-04 0.000E+00

     total cpu time spent up to now is      153.8 secs

     End of self-consistent calculation

     Number of k-points >= 100: set verbosity='high' to print the bands.

     the Fermi energy is    -4.3808 ev

!    total energy              =     -36.88808178 Ry
     total all-electron energy =      -152.416277 Ry
     estimated scf accuracy    <          5.2E-13 Ry
     smearing contrib. (-TS)   =       0.00005304 Ry
     internal energy E=F+TS    =     -36.88813483 Ry

     The total energy is F=E-TS. E is the sum of the following terms:
     one-electron contribution =    -312.58699975 Ry
     hartree contribution      =     157.17017498 Ry
     xc contribution           =      -9.27196156 Ry
     ewald contribution        =     140.13459394 Ry
     one-center paw contrib.   =     -12.33394245 Ry

     convergence has been achieved in  10 iterations

     negative rho (up, down):  1.110E-04 0.000E+00

     Forces acting on atoms (cartesian axes, Ry/au):

     atom    1 type  1   force =     0.00000186   -0.00000398    0.00000000
     atom    2 type  1   force =    -0.00000186    0.00000398   -0.00000000

     Total force =     0.000006     Total SCF correction =     0.000000


     Computing stress (Cartesian axis) and pressure


     negative rho (up, down):  1.110E-04 0.000E+00
          total   stress  (Ry/bohr**3)                   (kbar)     P=        0.05
   0.00000155  -0.00000217   0.00000000            0.23       -0.32        0.00
  -0.00000217  -0.00000010   0.00000000           -0.32       -0.01        0.00
   0.00000000   0.00000000  -0.00000034            0.00        0.00       -0.05


     Writing all to output data dir ./tmp/graphene.save/ :
     XML data file, charge density, pseudopotentials, collected wavefunctions
 
     init_run     :      2.58s CPU      2.72s WALL (       2 calls)
     electrons    :    141.79s CPU    145.62s WALL (       6 calls)
     update_pot   :      0.04s CPU      0.04s WALL (       4 calls)
     forces       :      0.93s CPU      0.94s WALL (       6 calls)
     stress       :      4.98s CPU      5.01s WALL (       6 calls)

     Called by init_run:
     wfcinit      :      2.39s CPU      2.52s WALL (       2 calls)
     potinit      :      0.02s CPU      0.03s WALL (       2 calls)
     hinit0       :      0.05s CPU      0.05s WALL (       2 calls)

     Called by electrons:
     c_bands      :    120.49s CPU    123.80s WALL (      39 calls)
     sum_band     :     20.94s CPU     21.43s WALL (      39 calls)
     v_of_rho     :      0.12s CPU      0.13s WALL (      41 calls)
     newd         :      0.08s CPU      0.09s WALL (      41 calls)
     PAW_pot      :      0.21s CPU      0.21s WALL (      45 calls)
     mix_rho      :      0.02s CPU      0.02s WALL (      39 calls)

     Called by c_bands:
     init_us_2    :      3.78s CPU      3.87s WALL (   75264 calls)
     cegterg      :    114.96s CPU    118.09s WALL (   30576 calls)

     Called by *egterg:
     cdiaghg      :      5.01s CPU      5.15s WALL (  124484 calls)
     h_psi        :     98.09s CPU    100.85s WALL (  132324 calls)
     s_psi        :      1.25s CPU      1.29s WALL (  132324 calls)
     g_psi        :      0.57s CPU      0.59s WALL (  100180 calls)

     Called by h_psi:
     h_psi:calbec :      3.00s CPU      3.07s WALL (  132324 calls)
     vloc_psi     :     93.05s CPU     95.69s WALL (  132324 calls)
     add_vuspsi   :      1.32s CPU      1.36s WALL (  132324 calls)

     General routines
     calbec       :      5.80s CPU      5.92s WALL (  246004 calls)
     fft          :      0.08s CPU      0.10s WALL (     609 calls)
     ffts         :      0.00s CPU      0.00s WALL (      39 calls)
     fftw         :     96.51s CPU     99.19s WALL ( 1647124 calls)
 
     Parallel routines
 
     PWSCF        :   2m31.18s CPU   2m35.72s WALL

 
   This run was terminated on:  11:59:28   9May2026            

=------------------------------------------------------------------------------=
   JOB DONE.
=------------------------------------------------------------------------------=
