
     Program PWSCF v.7.4 starts on  9May2026 at 12: 5:17 

     This program is part of the open-source Quantum ESPRESSO suite
     for quantum simulation of materials; please cite
         "P. Giannozzi et al., J. Phys.:Condens. Matter 21 395502 (2009);
         "P. Giannozzi et al., J. Phys.:Condens. Matter 29 465901 (2017);
         "P. Giannozzi et al., J. Chem. Phys. 152 154105 (2020);
          URL http://www.quantum-espresso.org", 
     in publications or presentations arising from this work. More details at
     http://www.quantum-espresso.org/quote

     Parallel version (MPI), running on    12 processors

     MPI processes distributed on     1 nodes
     154759 MiB available memory on the printing compute node when the environment starts
 
     Waiting for input...
     Reading input from standard input

     Current dimensions of program PWSCF are:
     Max number of different atomic species (ntypx) = 10
     Max number of k-points (npk) =  40000
     Max angular momentum in pseudopotentials (lmaxx) =  4
     file C.upf: wavefunction(s)  2S 2P renormalized
     Message from routine setup:
     using ibrav=0 with symmetry is DISCOURAGED, use correct ibrav instead
 
     R & G space division:  proc/nbgrp/npool/nimage =      12
     Subspace diagonalization in iterative solution of the eigenvalue problem:
     a serial algorithm will be used

 
     Parallelization info
     --------------------
     sticks:   dense  smooth     PW     G-vecs:    dense   smooth      PW
     Min          50      50     15                 7321     7321    1163
     Max          52      52     16                 7336     7336    1180
     Sum         613     613    187                87971    87971   14067
 
     Using Slab Decomposition
 


     bravais-lattice index     =            0
     lattice parameter (alat)  =       4.7344  a.u.
     unit-cell volume          =     652.9432 (a.u.)^3
     number of atoms/cell      =            2
     number of atomic types    =            1
     number of electrons       =         8.00
     number of Kohn-Sham states=            8
     kinetic-energy cutoff     =     100.0000  Ry
     charge density cutoff     =     400.0000  Ry
     scf convergence threshold =      1.0E-09
     mixing beta               =       0.7000
     number of iterations used =            8  plain     mixing
     Exchange-correlation= SLA  PW   PBX  PBC
                           (   1   4   3   4   0   0   0)

     celldm(1)=   4.734378  celldm(2)=   0.000000  celldm(3)=   0.000000
     celldm(4)=   0.000000  celldm(5)=   0.000000  celldm(6)=   0.000000

     crystal axes: (cart. coord. in units of alat)
               a(1) = (   1.000000   0.000000   0.000000 )  
               a(2) = (  -0.500000   0.866025   0.000000 )  
               a(3) = (   0.000000   0.000000   7.104867 )  

     reciprocal axes: (cart. coord. in units 2 pi/alat)
               b(1) = (  1.000000  0.577350  0.000000 )  
               b(2) = (  0.000000  1.154701  0.000000 )  
               b(3) = (  0.000000  0.000000  0.140749 )  


     PseudoPot. # 1 for C  read from file:
     ./C.upf
     MD5 check sum: 5d2aebdfa2cae82b50a7e79e9516da0f
     Pseudo is Projector augmented-wave + core cor, Zval =  4.0
     Generated using "atomic" code by A. Dal Corso  v.5.1
     Shape of augmentation charge: PSQ
     Using radial grid of 1073 points,  4 beta functions with: 
                l(1) =   0
                l(2) =   0
                l(3) =   1
                l(4) =   1
     Q(r) pseudized with 0 coefficients 


     atomic species   valence    mass     pseudopotential
     C                 4.00    12.01070     C ( 1.00)

      4 Sym. Ops. (no inversion) found



   Cartesian axes

     site n.     atom                  positions (alat units)
         1        C      tau(   1) = (   0.4749641   0.2453946   3.5524333  )
         2        C      tau(   2) = (  -0.0249641   0.5340283   3.5524333  )

     number of k points=   211  Marzari-Vanderbilt smearing, width (Ry)=  0.0200

     Number of k-points >= 100: set verbosity='high' to print them.

     Dense  grid:    87971 G-vectors     FFT dimensions: (  32,  32, 216)

     Estimated max dynamical RAM per process >      33.79 MB

     Estimated total dynamical RAM >     405.50 MB
 ----2D----2D----2D----2D----2D----2D----2D----2D----2D----2D----2D----2D
  The code is running with the 2D cutoff
  Please refer to:
  Sohier, T., Calandra, M., & Mauri, F. (2017), 
  Density functional perturbation theory for gated two-dimensional heterostructu
 res:
  Theoretical developments and application to flexural phonons in graphene.
  Physical Review B, 96(7), 75448. https://doi.org/10.1103/PhysRevB.96.075448
 ----2D----2D----2D----2D----2D----2D----2D----2D----2D----2D----2D----2D

     Check: negative core charge=   -0.000002

     Initial potential from superposition of free atoms

     starting charge       7.9999, renormalised to       8.0000

     negative rho (up, down):  9.199E-05 0.000E+00
     Starting wfcs are    8 randomized atomic wfcs
     Checking if some PAW data can be deallocated... 

     total cpu time spent up to now is        0.4 secs

     per-process dynamical memory:    80.5 Mb

     Self-consistent Calculation

     iteration #  1     ecut=   100.00 Ry     beta= 0.70
     Davidson diagonalization with overlap
     ethr =  1.00E-02,  avg # of iterations =  5.6

     negative rho (up, down):  8.648E-05 0.000E+00

     total cpu time spent up to now is        1.6 secs

     total energy              =     -36.86432409 Ry
     estimated scf accuracy    <       0.16496798 Ry

     iteration #  2     ecut=   100.00 Ry     beta= 0.70
     Davidson diagonalization with overlap
     ethr =  2.06E-03,  avg # of iterations =  3.9

     negative rho (up, down):  9.790E-05 0.000E+00

     total cpu time spent up to now is        2.4 secs

     total energy              =     -36.88547361 Ry
     estimated scf accuracy    <       0.00186513 Ry

     iteration #  3     ecut=   100.00 Ry     beta= 0.70
     Davidson diagonalization with overlap
     c_bands:  1 eigenvalues not converged
     ethr =  2.33E-05,  avg # of iterations = 10.4

     negative rho (up, down):  1.074E-04 0.000E+00

     total cpu time spent up to now is        3.9 secs

     total energy              =     -36.88576630 Ry
     estimated scf accuracy    <       0.00015009 Ry

     iteration #  4     ecut=   100.00 Ry     beta= 0.70
     Davidson diagonalization with overlap
     c_bands:  1 eigenvalues not converged
     c_bands:  1 eigenvalues not converged
     c_bands:  1 eigenvalues not converged
     ethr =  1.88E-06,  avg # of iterations =  4.2

     negative rho (up, down):  1.083E-04 0.000E+00

     total cpu time spent up to now is        4.8 secs

     total energy              =     -36.88578029 Ry
     estimated scf accuracy    <       0.00000249 Ry

     iteration #  5     ecut=   100.00 Ry     beta= 0.70
     Davidson diagonalization with overlap
     ethr =  3.11E-08,  avg # of iterations =  2.8

     negative rho (up, down):  1.084E-04 0.000E+00

     total cpu time spent up to now is        5.6 secs

     total energy              =     -36.88578156 Ry
     estimated scf accuracy    <       0.00000008 Ry

     iteration #  6     ecut=   100.00 Ry     beta= 0.70
     Davidson diagonalization with overlap
     ethr =  9.81E-10,  avg # of iterations =  2.8

     negative rho (up, down):  1.084E-04 0.000E+00

     total cpu time spent up to now is        6.4 secs

     total energy              =     -36.88578159 Ry
     estimated scf accuracy    <          1.3E-09 Ry

     iteration #  7     ecut=   100.00 Ry     beta= 0.70
     Davidson diagonalization with overlap
     ethr =  1.57E-11,  avg # of iterations =  3.2

     negative rho (up, down):  1.084E-04 0.000E+00

     total cpu time spent up to now is        7.2 secs

     End of self-consistent calculation

     Number of k-points >= 100: set verbosity='high' to print the bands.

     the Fermi energy is    -4.5011 ev

!    total energy              =     -36.88578159 Ry
     total all-electron energy =      -152.413977 Ry
     estimated scf accuracy    <          6.0E-11 Ry
     smearing contrib. (-TS)   =       0.00005565 Ry
     internal energy E=F+TS    =     -36.88583723 Ry

     The total energy is F=E-TS. E is the sum of the following terms:
     one-electron contribution =    -302.99757601 Ry
     hartree contribution      =     152.34373501 Ry
     xc contribution           =      -9.20373470 Ry
     ewald contribution        =     135.30284173 Ry
     one-center paw contrib.   =     -12.33110326 Ry

     convergence has been achieved in   7 iterations

     Writing all to output data dir ./tmp/graphene.save/ :
     XML data file, charge density, pseudopotentials, collected wavefunctions
 
     init_run     :      0.36s CPU      0.39s WALL (       1 calls)
     electrons    :      6.58s CPU      6.81s WALL (       1 calls)

     Called by init_run:
     wfcinit      :      0.28s CPU      0.30s WALL (       1 calls)
     potinit      :      0.01s CPU      0.01s WALL (       1 calls)
     hinit0       :      0.01s CPU      0.02s WALL (       1 calls)

     Called by electrons:
     c_bands      :      5.58s CPU      5.78s WALL (       7 calls)
     sum_band     :      0.93s CPU      0.95s WALL (       7 calls)
     v_of_rho     :      0.03s CPU      0.03s WALL (       8 calls)
     newd         :      0.02s CPU      0.02s WALL (       8 calls)
     PAW_pot      :      0.04s CPU      0.04s WALL (       8 calls)
     mix_rho      :      0.00s CPU      0.00s WALL (       7 calls)

     Called by c_bands:
     init_us_2    :      0.17s CPU      0.17s WALL (    3165 calls)
     cegterg      :      5.30s CPU      5.49s WALL (    1477 calls)

     Called by *egterg:
     cdiaghg      :      0.34s CPU      0.35s WALL (    8440 calls)
     h_psi        :      4.39s CPU      4.56s WALL (    8651 calls)
     s_psi        :      0.08s CPU      0.09s WALL (    8651 calls)
     g_psi        :      0.03s CPU      0.04s WALL (    6963 calls)

     Called by h_psi:
     h_psi:calbec :      0.18s CPU      0.18s WALL (    8651 calls)
     vloc_psi     :      4.09s CPU      4.24s WALL (    8651 calls)
     add_vuspsi   :      0.09s CPU      0.09s WALL (    8651 calls)

     General routines
     calbec       :      0.21s CPU      0.22s WALL (   10128 calls)
     fft          :      0.01s CPU      0.02s WALL (      88 calls)
     ffts         :      0.00s CPU      0.00s WALL (       7 calls)
     fftw         :      3.97s CPU      4.11s WALL (   89416 calls)
 
     Parallel routines
 
     PWSCF        :      7.09s CPU      7.51s WALL

 
   This run was terminated on:  12: 5:25   9May2026            

=------------------------------------------------------------------------------=
   JOB DONE.
=------------------------------------------------------------------------------=
