
     Program PWSCF v.7.4 starts on  9May2026 at 12: 4:28 

     This program is part of the open-source Quantum ESPRESSO suite
     for quantum simulation of materials; please cite
         "P. Giannozzi et al., J. Phys.:Condens. Matter 21 395502 (2009);
         "P. Giannozzi et al., J. Phys.:Condens. Matter 29 465901 (2017);
         "P. Giannozzi et al., J. Chem. Phys. 152 154105 (2020);
          URL http://www.quantum-espresso.org", 
     in publications or presentations arising from this work. More details at
     http://www.quantum-espresso.org/quote

     Parallel version (MPI), running on    12 processors

     MPI processes distributed on     1 nodes
     154833 MiB available memory on the printing compute node when the environment starts
 
     Waiting for input...
     Reading input from standard input

     Current dimensions of program PWSCF are:
     Max number of different atomic species (ntypx) = 10
     Max number of k-points (npk) =  40000
     Max angular momentum in pseudopotentials (lmaxx) =  4
     file C.upf: wavefunction(s)  2S 2P renormalized
     Message from routine setup:
     using ibrav=0 with symmetry is DISCOURAGED, use correct ibrav instead
 
     R & G space division:  proc/nbgrp/npool/nimage =      12
     Subspace diagonalization in iterative solution of the eigenvalue problem:
     a serial algorithm will be used

 
     Parallelization info
     --------------------
     sticks:   dense  smooth     PW     G-vecs:    dense   smooth      PW
     Min          46      46     13                 6648     6648    1067
     Max          47      47     14                 6677     6677    1094
     Sum         559     559    163                79961    79961   12951
 
     Using Slab Decomposition
 


     bravais-lattice index     =            0
     lattice parameter (alat)  =       4.5076  a.u.
     unit-cell volume          =     591.8918 (a.u.)^3
     number of atoms/cell      =            2
     number of atomic types    =            1
     number of electrons       =         8.00
     number of Kohn-Sham states=            8
     kinetic-energy cutoff     =     100.0000  Ry
     charge density cutoff     =     400.0000  Ry
     scf convergence threshold =      1.0E-09
     mixing beta               =       0.7000
     number of iterations used =            8  plain     mixing
     Exchange-correlation= SLA  PW   PBX  PBC
                           (   1   4   3   4   0   0   0)

     celldm(1)=   4.507611  celldm(2)=   0.000000  celldm(3)=   0.000000
     celldm(4)=   0.000000  celldm(5)=   0.000000  celldm(6)=   0.000000

     crystal axes: (cart. coord. in units of alat)
               a(1) = (   1.000000   0.000000   0.000000 )  
               a(2) = (  -0.500000   0.866025   0.000000 )  
               a(3) = (   0.000000   0.000000   7.462295 )  

     reciprocal axes: (cart. coord. in units 2 pi/alat)
               b(1) = (  1.000000  0.577350  0.000000 )  
               b(2) = (  0.000000  1.154701  0.000000 )  
               b(3) = (  0.000000  0.000000  0.134007 )  


     PseudoPot. # 1 for C  read from file:
     ./C.upf
     MD5 check sum: 5d2aebdfa2cae82b50a7e79e9516da0f
     Pseudo is Projector augmented-wave + core cor, Zval =  4.0
     Generated using "atomic" code by A. Dal Corso  v.5.1
     Shape of augmentation charge: PSQ
     Using radial grid of 1073 points,  4 beta functions with: 
                l(1) =   0
                l(2) =   0
                l(3) =   1
                l(4) =   1
     Q(r) pseudized with 0 coefficients 


     atomic species   valence    mass     pseudopotential
     C                 4.00    12.01070     C ( 1.00)

      4 Sym. Ops. (no inversion) found



   Cartesian axes

     site n.     atom                  positions (alat units)
         1        C      tau(   1) = (   0.4749641   0.2453946   3.7311477  )
         2        C      tau(   2) = (  -0.0249641   0.5340283   3.7311477  )

     number of k points=   211  Marzari-Vanderbilt smearing, width (Ry)=  0.0200

     Number of k-points >= 100: set verbosity='high' to print them.

     Dense  grid:    79961 G-vectors     FFT dimensions: (  30,  30, 216)

     Estimated max dynamical RAM per process >      30.66 MB

     Estimated total dynamical RAM >     367.94 MB
 ----2D----2D----2D----2D----2D----2D----2D----2D----2D----2D----2D----2D
  The code is running with the 2D cutoff
  Please refer to:
  Sohier, T., Calandra, M., & Mauri, F. (2017), 
  Density functional perturbation theory for gated two-dimensional heterostructu
 res:
  Theoretical developments and application to flexural phonons in graphene.
  Physical Review B, 96(7), 75448. https://doi.org/10.1103/PhysRevB.96.075448
 ----2D----2D----2D----2D----2D----2D----2D----2D----2D----2D----2D----2D

     Check: negative core charge=   -0.000002

     Initial potential from superposition of free atoms

     starting charge       7.9999, renormalised to       8.0000

     negative rho (up, down):  8.844E-05 0.000E+00
     Starting wfcs are    8 randomized atomic wfcs
     Checking if some PAW data can be deallocated... 

     total cpu time spent up to now is        0.4 secs

     per-process dynamical memory:    77.6 Mb

     Self-consistent Calculation

     iteration #  1     ecut=   100.00 Ry     beta= 0.70
     Davidson diagonalization with overlap
     ethr =  1.00E-02,  avg # of iterations =  5.7

     negative rho (up, down):  8.743E-05 0.000E+00

     total cpu time spent up to now is        1.7 secs

     total energy              =     -36.84118607 Ry
     estimated scf accuracy    <       0.24748488 Ry

     iteration #  2     ecut=   100.00 Ry     beta= 0.70
     Davidson diagonalization with overlap
     ethr =  3.09E-03,  avg # of iterations =  4.1

     negative rho (up, down):  1.014E-04 0.000E+00

     total cpu time spent up to now is        2.6 secs

     total energy              =     -36.87551692 Ry
     estimated scf accuracy    <       0.00205568 Ry

     iteration #  3     ecut=   100.00 Ry     beta= 0.70
     Davidson diagonalization with overlap
     c_bands:  1 eigenvalues not converged
     c_bands:  1 eigenvalues not converged
     c_bands:  1 eigenvalues not converged
     c_bands:  1 eigenvalues not converged
     c_bands:  1 eigenvalues not converged
     ethr =  2.57E-05,  avg # of iterations =  9.9

     negative rho (up, down):  1.144E-04 0.000E+00

     total cpu time spent up to now is        4.3 secs

     total energy              =     -36.87595654 Ry
     estimated scf accuracy    <       0.00017044 Ry

     iteration #  4     ecut=   100.00 Ry     beta= 0.70
     Davidson diagonalization with overlap
     c_bands:  1 eigenvalues not converged
     c_bands:  1 eigenvalues not converged
     ethr =  2.13E-06,  avg # of iterations =  4.7

     negative rho (up, down):  1.152E-04 0.000E+00

     total cpu time spent up to now is        5.2 secs

     WARNING: integrated charge=     8.00085623, expected=     8.00000000

     total energy              =     -36.87641064 Ry
     estimated scf accuracy    <       0.00000921 Ry

     iteration #  5     ecut=   100.00 Ry     beta= 0.70
     Davidson diagonalization with overlap
     ethr =  1.15E-07,  avg # of iterations =  3.2

     negative rho (up, down):  1.156E-04 0.000E+00

     total cpu time spent up to now is        6.2 secs

     WARNING: integrated charge=     8.00058370, expected=     8.00000000

     total energy              =     -36.87597551 Ry
     estimated scf accuracy    <       0.00000125 Ry

     iteration #  6     ecut=   100.00 Ry     beta= 0.70
     Davidson diagonalization with overlap
     ethr =  1.56E-08,  avg # of iterations =  1.6

     negative rho (up, down):  1.156E-04 0.000E+00

     total cpu time spent up to now is        6.9 secs

     WARNING: integrated charge=     8.00022594, expected=     8.00000000

     total energy              =     -36.87597484 Ry
     estimated scf accuracy    <       0.00000064 Ry

     iteration #  7     ecut=   100.00 Ry     beta= 0.70
     Davidson diagonalization with overlap
     ethr =  8.00E-09,  avg # of iterations =  1.8

     negative rho (up, down):  1.156E-04 0.000E+00

     total cpu time spent up to now is        7.6 secs

     WARNING: integrated charge=     8.00012469, expected=     8.00000000

     total energy              =     -36.87597482 Ry
     estimated scf accuracy    <       0.00000007 Ry

     iteration #  8     ecut=   100.00 Ry     beta= 0.70
     Davidson diagonalization with overlap
     ethr =  9.01E-10,  avg # of iterations =  1.5

     negative rho (up, down):  1.156E-04 0.000E+00

     total cpu time spent up to now is        8.3 secs

     WARNING: integrated charge=     8.00002193, expected=     8.00000000

     total energy              =     -36.87597479 Ry
     estimated scf accuracy    <       0.00000002 Ry

     iteration #  9     ecut=   100.00 Ry     beta= 0.70
     Davidson diagonalization with overlap
     ethr =  3.04E-10,  avg # of iterations =  2.1

     negative rho (up, down):  1.156E-04 0.000E+00

     total cpu time spent up to now is        9.1 secs

     End of self-consistent calculation

     Number of k-points >= 100: set verbosity='high' to print the bands.

     the Fermi energy is    -4.0980 ev

!    total energy              =     -36.87597479 Ry
     total all-electron energy =      -152.404170 Ry
     estimated scf accuracy    <          6.5E-10 Ry
     smearing contrib. (-TS)   =       0.00004819 Ry
     internal energy E=F+TS    =     -36.87602298 Ry

     The total energy is F=E-TS. E is the sum of the following terms:
     one-electron contribution =    -334.75100095 Ry
     hartree contribution      =     168.32943839 Ry
     xc contribution           =      -9.42757020 Ry
     ewald contribution        =     151.31436302 Ry
     one-center paw contrib.   =     -12.34125323 Ry

     convergence has been achieved in   9 iterations

     Writing all to output data dir ./tmp/graphene.save/ :
     XML data file, charge density, pseudopotentials, collected wavefunctions
 
     init_run     :      0.36s CPU      0.39s WALL (       1 calls)
     electrons    :      8.43s CPU      8.63s WALL (       1 calls)

     Called by init_run:
     wfcinit      :      0.30s CPU      0.31s WALL (       1 calls)
     potinit      :      0.01s CPU      0.01s WALL (       1 calls)
     hinit0       :      0.01s CPU      0.02s WALL (       1 calls)

     Called by electrons:
     c_bands      :      7.12s CPU      7.28s WALL (       9 calls)
     sum_band     :      1.22s CPU      1.25s WALL (       9 calls)
     v_of_rho     :      0.03s CPU      0.03s WALL (      10 calls)
     newd         :      0.02s CPU      0.02s WALL (      10 calls)
     PAW_pot      :      0.05s CPU      0.05s WALL (      10 calls)
     mix_rho      :      0.01s CPU      0.01s WALL (       9 calls)

     Called by c_bands:
     init_us_2    :      0.19s CPU      0.20s WALL (    4009 calls)
     cegterg      :      6.79s CPU      6.95s WALL (    1899 calls)

     Called by *egterg:
     cdiaghg      :      0.36s CPU      0.37s WALL (    9207 calls)
     h_psi        :      5.83s CPU      5.97s WALL (    9418 calls)
     s_psi        :      0.08s CPU      0.09s WALL (    9418 calls)
     g_psi        :      0.04s CPU      0.04s WALL (    7308 calls)

     Called by h_psi:
     h_psi:calbec :      0.19s CPU      0.20s WALL (    9418 calls)
     vloc_psi     :      5.50s CPU      5.63s WALL (    9418 calls)
     add_vuspsi   :      0.09s CPU      0.09s WALL (    9418 calls)

     General routines
     calbec       :      0.23s CPU      0.24s WALL (   11317 calls)
     fft          :      0.01s CPU      0.02s WALL (     110 calls)
     ffts         :      0.00s CPU      0.00s WALL (       9 calls)
     fftw         :      5.61s CPU      5.74s WALL (  104832 calls)
 
     Parallel routines
 
     PWSCF        :      8.94s CPU      9.30s WALL

 
   This run was terminated on:  12: 4:37   9May2026            

=------------------------------------------------------------------------------=
   JOB DONE.
=------------------------------------------------------------------------------=
