
     Program PWSCF v.7.4 starts on  9May2026 at 12: 4:45 

     This program is part of the open-source Quantum ESPRESSO suite
     for quantum simulation of materials; please cite
         "P. Giannozzi et al., J. Phys.:Condens. Matter 21 395502 (2009);
         "P. Giannozzi et al., J. Phys.:Condens. Matter 29 465901 (2017);
         "P. Giannozzi et al., J. Chem. Phys. 152 154105 (2020);
          URL http://www.quantum-espresso.org", 
     in publications or presentations arising from this work. More details at
     http://www.quantum-espresso.org/quote

     Parallel version (MPI), running on    12 processors

     MPI processes distributed on     1 nodes
     154816 MiB available memory on the printing compute node when the environment starts
 
     Waiting for input...
     Reading input from standard input

     Current dimensions of program PWSCF are:
     Max number of different atomic species (ntypx) = 10
     Max number of k-points (npk) =  40000
     Max angular momentum in pseudopotentials (lmaxx) =  4
     file C.upf: wavefunction(s)  2S 2P renormalized
     Message from routine setup:
     using ibrav=0 with symmetry is DISCOURAGED, use correct ibrav instead
 
     R & G space division:  proc/nbgrp/npool/nimage =      12
     Subspace diagonalization in iterative solution of the eigenvalue problem:
     a serial algorithm will be used

 
     Parallelization info
     --------------------
     sticks:   dense  smooth     PW     G-vecs:    dense   smooth      PW
     Min          48      48     13                 6894     6894    1087
     Max          49      49     14                 6919     6919    1120
     Sum         583     583    163                82889    82889   13239
 
     Using Slab Decomposition
 


     bravais-lattice index     =            0
     lattice parameter (alat)  =       4.5832  a.u.
     unit-cell volume          =     611.9094 (a.u.)^3
     number of atoms/cell      =            2
     number of atomic types    =            1
     number of electrons       =         8.00
     number of Kohn-Sham states=            8
     kinetic-energy cutoff     =     100.0000  Ry
     charge density cutoff     =     400.0000  Ry
     scf convergence threshold =      1.0E-09
     mixing beta               =       0.7000
     number of iterations used =            8  plain     mixing
     Exchange-correlation= SLA  PW   PBX  PBC
                           (   1   4   3   4   0   0   0)

     celldm(1)=   4.583200  celldm(2)=   0.000000  celldm(3)=   0.000000
     celldm(4)=   0.000000  celldm(5)=   0.000000  celldm(6)=   0.000000

     crystal axes: (cart. coord. in units of alat)
               a(1) = (   1.000000   0.000000   0.000000 )  
               a(2) = (  -0.500000   0.866025   0.000000 )  
               a(3) = (   0.000000   0.000000   7.339223 )  

     reciprocal axes: (cart. coord. in units 2 pi/alat)
               b(1) = (  1.000000  0.577350  0.000000 )  
               b(2) = (  0.000000  1.154701  0.000000 )  
               b(3) = (  0.000000  0.000000  0.136254 )  


     PseudoPot. # 1 for C  read from file:
     ./C.upf
     MD5 check sum: 5d2aebdfa2cae82b50a7e79e9516da0f
     Pseudo is Projector augmented-wave + core cor, Zval =  4.0
     Generated using "atomic" code by A. Dal Corso  v.5.1
     Shape of augmentation charge: PSQ
     Using radial grid of 1073 points,  4 beta functions with: 
                l(1) =   0
                l(2) =   0
                l(3) =   1
                l(4) =   1
     Q(r) pseudized with 0 coefficients 


     atomic species   valence    mass     pseudopotential
     C                 4.00    12.01070     C ( 1.00)

      4 Sym. Ops. (no inversion) found



   Cartesian axes

     site n.     atom                  positions (alat units)
         1        C      tau(   1) = (   0.4749641   0.2453946   3.6696113  )
         2        C      tau(   2) = (  -0.0249641   0.5340283   3.6696113  )

     number of k points=   211  Marzari-Vanderbilt smearing, width (Ry)=  0.0200

     Number of k-points >= 100: set verbosity='high' to print them.

     Dense  grid:    82889 G-vectors     FFT dimensions: (  30,  30, 216)

     Estimated max dynamical RAM per process >      31.67 MB

     Estimated total dynamical RAM >     380.01 MB
 ----2D----2D----2D----2D----2D----2D----2D----2D----2D----2D----2D----2D
  The code is running with the 2D cutoff
  Please refer to:
  Sohier, T., Calandra, M., & Mauri, F. (2017), 
  Density functional perturbation theory for gated two-dimensional heterostructu
 res:
  Theoretical developments and application to flexural phonons in graphene.
  Physical Review B, 96(7), 75448. https://doi.org/10.1103/PhysRevB.96.075448
 ----2D----2D----2D----2D----2D----2D----2D----2D----2D----2D----2D----2D

     Check: negative core charge=   -0.000002

     Initial potential from superposition of free atoms

     starting charge       7.9999, renormalised to       8.0000

     negative rho (up, down):  9.070E-05 0.000E+00
     Starting wfcs are    8 randomized atomic wfcs
     Checking if some PAW data can be deallocated... 

     total cpu time spent up to now is        0.5 secs

     per-process dynamical memory:    77.4 Mb

     Self-consistent Calculation

     iteration #  1     ecut=   100.00 Ry     beta= 0.70
     Davidson diagonalization with overlap
     ethr =  1.00E-02,  avg # of iterations =  5.6

     negative rho (up, down):  8.746E-05 0.000E+00

     total cpu time spent up to now is        1.7 secs

     total energy              =     -36.85516541 Ry
     estimated scf accuracy    <       0.21693081 Ry

     iteration #  2     ecut=   100.00 Ry     beta= 0.70
     Davidson diagonalization with overlap
     ethr =  2.71E-03,  avg # of iterations =  4.4

     negative rho (up, down):  1.008E-04 0.000E+00

     total cpu time spent up to now is        2.7 secs

     total energy              =     -36.88464119 Ry
     estimated scf accuracy    <       0.00198623 Ry

     iteration #  3     ecut=   100.00 Ry     beta= 0.70
     Davidson diagonalization with overlap
     ethr =  2.48E-05,  avg # of iterations =  9.6

     negative rho (up, down):  1.129E-04 0.000E+00

     total cpu time spent up to now is        4.3 secs

     total energy              =     -36.88502435 Ry
     estimated scf accuracy    <       0.00016355 Ry

     iteration #  4     ecut=   100.00 Ry     beta= 0.70
     Davidson diagonalization with overlap
     c_bands:  1 eigenvalues not converged
     ethr =  2.04E-06,  avg # of iterations =  4.5

     negative rho (up, down):  1.141E-04 0.000E+00

     total cpu time spent up to now is        5.3 secs

     total energy              =     -36.88504088 Ry
     estimated scf accuracy    <       0.00000265 Ry

     iteration #  5     ecut=   100.00 Ry     beta= 0.70
     Davidson diagonalization with overlap
     ethr =  3.31E-08,  avg # of iterations =  3.2

     negative rho (up, down):  1.141E-04 0.000E+00

     total cpu time spent up to now is        6.2 secs

     total energy              =     -36.88504243 Ry
     estimated scf accuracy    <       0.00000010 Ry

     iteration #  6     ecut=   100.00 Ry     beta= 0.70
     Davidson diagonalization with overlap
     ethr =  1.19E-09,  avg # of iterations =  2.5

     negative rho (up, down):  1.141E-04 0.000E+00

     total cpu time spent up to now is        7.0 secs

     End of self-consistent calculation

     Number of k-points >= 100: set verbosity='high' to print the bands.

     the Fermi energy is    -4.2411 ev

!    total energy              =     -36.88504246 Ry
     total all-electron energy =      -152.413238 Ry
     estimated scf accuracy    <          8.1E-10 Ry
     smearing contrib. (-TS)   =       0.00005047 Ry
     internal energy E=F+TS    =     -36.88509293 Ry

     The total energy is F=E-TS. E is the sum of the following terms:
     one-electron contribution =    -323.62770996 Ry
     hartree contribution      =     162.72831740 Ry
     xc contribution           =      -9.34983887 Ry
     ewald contribution        =     145.70160317 Ry
     one-center paw contrib.   =     -12.33746466 Ry

     convergence has been achieved in   6 iterations

     Writing all to output data dir ./tmp/graphene.save/ :
     XML data file, charge density, pseudopotentials, collected wavefunctions
 
     init_run     :      0.38s CPU      0.42s WALL (       1 calls)
     electrons    :      6.40s CPU      6.58s WALL (       1 calls)

     Called by init_run:
     wfcinit      :      0.31s CPU      0.33s WALL (       1 calls)
     potinit      :      0.01s CPU      0.01s WALL (       1 calls)
     hinit0       :      0.02s CPU      0.03s WALL (       1 calls)

     Called by electrons:
     c_bands      :      5.51s CPU      5.67s WALL (       6 calls)
     sum_band     :      0.83s CPU      0.85s WALL (       6 calls)
     v_of_rho     :      0.02s CPU      0.02s WALL (       7 calls)
     newd         :      0.01s CPU      0.02s WALL (       7 calls)
     PAW_pot      :      0.03s CPU      0.04s WALL (       7 calls)
     mix_rho      :      0.00s CPU      0.00s WALL (       6 calls)

     Called by c_bands:
     init_us_2    :      0.14s CPU      0.14s WALL (    2743 calls)
     cegterg      :      5.29s CPU      5.44s WALL (    1266 calls)

     Called by *egterg:
     cdiaghg      :      0.31s CPU      0.32s WALL (    7539 calls)
     h_psi        :      4.52s CPU      4.67s WALL (    7750 calls)
     s_psi        :      0.07s CPU      0.07s WALL (    7750 calls)
     g_psi        :      0.03s CPU      0.03s WALL (    6273 calls)

     Called by h_psi:
     h_psi:calbec :      0.16s CPU      0.16s WALL (    7750 calls)
     vloc_psi     :      4.25s CPU      4.39s WALL (    7750 calls)
     add_vuspsi   :      0.07s CPU      0.08s WALL (    7750 calls)

     General routines
     calbec       :      0.18s CPU      0.19s WALL (    9016 calls)
     fft          :      0.01s CPU      0.02s WALL (      77 calls)
     ffts         :      0.00s CPU      0.00s WALL (       6 calls)
     fftw         :      4.25s CPU      4.38s WALL (   78908 calls)
 
     Parallel routines
 
     PWSCF        :      6.91s CPU      7.28s WALL

 
   This run was terminated on:  12: 4:52   9May2026            

=------------------------------------------------------------------------------=
   JOB DONE.
=------------------------------------------------------------------------------=
