
     Program PWSCF v.7.4 starts on  9May2026 at 12: 6:25 

     This program is part of the open-source Quantum ESPRESSO suite
     for quantum simulation of materials; please cite
         "P. Giannozzi et al., J. Phys.:Condens. Matter 21 395502 (2009);
         "P. Giannozzi et al., J. Phys.:Condens. Matter 29 465901 (2017);
         "P. Giannozzi et al., J. Chem. Phys. 152 154105 (2020);
          URL http://www.quantum-espresso.org", 
     in publications or presentations arising from this work. More details at
     http://www.quantum-espresso.org/quote

     Parallel version (MPI), running on    12 processors

     MPI processes distributed on     1 nodes
     154789 MiB available memory on the printing compute node when the environment starts
 
     Waiting for input...
     Reading input from standard input

     Current dimensions of program PWSCF are:
     Max number of different atomic species (ntypx) = 10
     Max number of k-points (npk) =  40000
     Max angular momentum in pseudopotentials (lmaxx) =  4
     file C.upf: wavefunction(s)  2S 2P renormalized
     Message from routine setup:
     using ibrav=0 with symmetry is DISCOURAGED, use correct ibrav instead
 
     R & G space division:  proc/nbgrp/npool/nimage =      12
     Subspace diagonalization in iterative solution of the eigenvalue problem:
     a serial algorithm will be used

 
     Parallelization info
     --------------------
     sticks:   dense  smooth     PW     G-vecs:    dense   smooth      PW
     Min          49      49     14                 6715     6715    1052
     Max          50      50     15                 6736     6736    1076
     Sum         595     595    169                80657    80657   12757
 
     Using Slab Decomposition
 


     bravais-lattice index     =            0
     lattice parameter (alat)  =       4.6588  a.u.
     unit-cell volume          =     596.7396 (a.u.)^3
     number of atoms/cell      =            2
     number of atomic types    =            1
     number of electrons       =         8.00
     number of Kohn-Sham states=            8
     kinetic-energy cutoff     =     100.0000  Ry
     charge density cutoff     =     400.0000  Ry
     scf convergence threshold =      1.0E-09
     mixing beta               =       0.7000
     number of iterations used =            8  plain     mixing
     Exchange-correlation= SLA  PW   PBX  PBC
                           (   1   4   3   4   0   0   0)

     celldm(1)=   4.658789  celldm(2)=   0.000000  celldm(3)=   0.000000
     celldm(4)=   0.000000  celldm(5)=   0.000000  celldm(6)=   0.000000

     crystal axes: (cart. coord. in units of alat)
               a(1) = (   1.000000   0.000000   0.000000 )  
               a(2) = (  -0.500000   0.866025   0.000000 )  
               a(3) = (   0.000000   0.000000   6.814517 )  

     reciprocal axes: (cart. coord. in units 2 pi/alat)
               b(1) = (  1.000000  0.577350  0.000000 )  
               b(2) = (  0.000000  1.154701  0.000000 )  
               b(3) = (  0.000000  0.000000  0.146746 )  


     PseudoPot. # 1 for C  read from file:
     ./C.upf
     MD5 check sum: 5d2aebdfa2cae82b50a7e79e9516da0f
     Pseudo is Projector augmented-wave + core cor, Zval =  4.0
     Generated using "atomic" code by A. Dal Corso  v.5.1
     Shape of augmentation charge: PSQ
     Using radial grid of 1073 points,  4 beta functions with: 
                l(1) =   0
                l(2) =   0
                l(3) =   1
                l(4) =   1
     Q(r) pseudized with 0 coefficients 


     atomic species   valence    mass     pseudopotential
     C                 4.00    12.01070     C ( 1.00)

      4 Sym. Ops. (no inversion) found



   Cartesian axes

     site n.     atom                  positions (alat units)
         1        C      tau(   1) = (   0.4749641   0.2453946   3.4072587  )
         2        C      tau(   2) = (  -0.0249641   0.5340283   3.4072587  )

     number of k points=   211  Marzari-Vanderbilt smearing, width (Ry)=  0.0200

     Number of k-points >= 100: set verbosity='high' to print them.

     Dense  grid:    80657 G-vectors     FFT dimensions: (  30,  30, 216)

     Estimated max dynamical RAM per process >      30.90 MB

     Estimated total dynamical RAM >     370.76 MB
 ----2D----2D----2D----2D----2D----2D----2D----2D----2D----2D----2D----2D
  The code is running with the 2D cutoff
  Please refer to:
  Sohier, T., Calandra, M., & Mauri, F. (2017), 
  Density functional perturbation theory for gated two-dimensional heterostructu
 res:
  Theoretical developments and application to flexural phonons in graphene.
  Physical Review B, 96(7), 75448. https://doi.org/10.1103/PhysRevB.96.075448
 ----2D----2D----2D----2D----2D----2D----2D----2D----2D----2D----2D----2D

     Check: negative core charge=   -0.000002

     Initial potential from superposition of free atoms

     starting charge       7.9999, renormalised to       8.0000

     negative rho (up, down):  8.339E-05 0.000E+00
     Starting wfcs are    8 randomized atomic wfcs
     Checking if some PAW data can be deallocated... 

     total cpu time spent up to now is        0.5 secs

     per-process dynamical memory:    76.9 Mb

     Self-consistent Calculation

     iteration #  1     ecut=   100.00 Ry     beta= 0.70
     Davidson diagonalization with overlap
     ethr =  1.00E-02,  avg # of iterations =  5.5

     negative rho (up, down):  7.896E-05 0.000E+00

     total cpu time spent up to now is        1.8 secs

     total energy              =     -36.86264137 Ry
     estimated scf accuracy    <       0.18949631 Ry

     iteration #  2     ecut=   100.00 Ry     beta= 0.70
     Davidson diagonalization with overlap
     ethr =  2.37E-03,  avg # of iterations =  4.1

     negative rho (up, down):  9.180E-05 0.000E+00

     total cpu time spent up to now is        2.7 secs

     total energy              =     -36.88773223 Ry
     estimated scf accuracy    <       0.00192289 Ry

     iteration #  3     ecut=   100.00 Ry     beta= 0.70
     Davidson diagonalization with overlap
     ethr =  2.40E-05,  avg # of iterations =  9.7

     negative rho (up, down):  1.030E-04 0.000E+00

     total cpu time spent up to now is        4.4 secs

     total energy              =     -36.88806752 Ry
     estimated scf accuracy    <       0.00015602 Ry

     iteration #  4     ecut=   100.00 Ry     beta= 0.70
     Davidson diagonalization with overlap
     c_bands:  1 eigenvalues not converged
     c_bands:  1 eigenvalues not converged
     c_bands:  1 eigenvalues not converged
     ethr =  1.95E-06,  avg # of iterations =  4.2

     negative rho (up, down):  1.041E-04 0.000E+00

     total cpu time spent up to now is        5.3 secs

     total energy              =     -36.88808229 Ry
     estimated scf accuracy    <       0.00000248 Ry

     iteration #  5     ecut=   100.00 Ry     beta= 0.70
     Davidson diagonalization with overlap
     c_bands:  1 eigenvalues not converged
     ethr =  3.10E-08,  avg # of iterations =  3.0

     negative rho (up, down):  1.042E-04 0.000E+00

     total cpu time spent up to now is        6.3 secs

     total energy              =     -36.88808360 Ry
     estimated scf accuracy    <       0.00000008 Ry

     iteration #  6     ecut=   100.00 Ry     beta= 0.70
     Davidson diagonalization with overlap
     ethr =  1.02E-09,  avg # of iterations =  2.7

     negative rho (up, down):  1.042E-04 0.000E+00

     total cpu time spent up to now is        7.2 secs

     End of self-consistent calculation

     Number of k-points >= 100: set verbosity='high' to print the bands.

     the Fermi energy is    -4.3747 ev

!    total energy              =     -36.88808363 Ry
     total all-electron energy =      -152.416279 Ry
     estimated scf accuracy    <          6.9E-10 Ry
     smearing contrib. (-TS)   =       0.00005293 Ry
     internal energy E=F+TS    =     -36.88813655 Ry

     The total energy is F=E-TS. E is the sum of the following terms:
     one-electron contribution =    -292.84090761 Ry
     hartree contribution      =     147.29863072 Ry
     xc contribution           =      -9.27526977 Ry
     ewald contribution        =     130.26349595 Ry
     one-center paw contrib.   =     -12.33408585 Ry

     convergence has been achieved in   6 iterations

     Writing all to output data dir ./tmp/graphene.save/ :
     XML data file, charge density, pseudopotentials, collected wavefunctions
 
     init_run     :      0.39s CPU      0.42s WALL (       1 calls)
     electrons    :      6.56s CPU      6.74s WALL (       1 calls)

     Called by init_run:
     wfcinit      :      0.31s CPU      0.34s WALL (       1 calls)
     potinit      :      0.01s CPU      0.01s WALL (       1 calls)
     hinit0       :      0.02s CPU      0.02s WALL (       1 calls)

     Called by electrons:
     c_bands      :      5.65s CPU      5.80s WALL (       6 calls)
     sum_band     :      0.85s CPU      0.87s WALL (       6 calls)
     v_of_rho     :      0.02s CPU      0.02s WALL (       7 calls)
     newd         :      0.01s CPU      0.02s WALL (       7 calls)
     PAW_pot      :      0.03s CPU      0.04s WALL (       7 calls)
     mix_rho      :      0.00s CPU      0.00s WALL (       6 calls)

     Called by c_bands:
     init_us_2    :      0.13s CPU      0.14s WALL (    2743 calls)
     cegterg      :      5.43s CPU      5.57s WALL (    1266 calls)

     Called by *egterg:
     cdiaghg      :      0.30s CPU      0.31s WALL (    7439 calls)
     h_psi        :      4.72s CPU      4.85s WALL (    7650 calls)
     s_psi        :      0.06s CPU      0.07s WALL (    7650 calls)
     g_psi        :      0.03s CPU      0.03s WALL (    6173 calls)

     Called by h_psi:
     h_psi:calbec :      0.15s CPU      0.16s WALL (    7650 calls)
     vloc_psi     :      4.46s CPU      4.59s WALL (    7650 calls)
     add_vuspsi   :      0.07s CPU      0.07s WALL (    7650 calls)

     General routines
     calbec       :      0.18s CPU      0.18s WALL (    8916 calls)
     fft          :      0.01s CPU      0.02s WALL (      77 calls)
     ffts         :      0.00s CPU      0.00s WALL (       6 calls)
     fftw         :      4.49s CPU      4.62s WALL (   78466 calls)
 
     Parallel routines
 
     PWSCF        :      7.10s CPU      7.44s WALL

 
   This run was terminated on:  12: 6:33   9May2026            

=------------------------------------------------------------------------------=
   JOB DONE.
=------------------------------------------------------------------------------=
