
     Program PWSCF v.7.4 starts on  9May2026 at 12: 6: 3 

     This program is part of the open-source Quantum ESPRESSO suite
     for quantum simulation of materials; please cite
         "P. Giannozzi et al., J. Phys.:Condens. Matter 21 395502 (2009);
         "P. Giannozzi et al., J. Phys.:Condens. Matter 29 465901 (2017);
         "P. Giannozzi et al., J. Chem. Phys. 152 154105 (2020);
          URL http://www.quantum-espresso.org", 
     in publications or presentations arising from this work. More details at
     http://www.quantum-espresso.org/quote

     Parallel version (MPI), running on    12 processors

     MPI processes distributed on     1 nodes
     154892 MiB available memory on the printing compute node when the environment starts
 
     Waiting for input...
     Reading input from standard input

     Current dimensions of program PWSCF are:
     Max number of different atomic species (ntypx) = 10
     Max number of k-points (npk) =  40000
     Max angular momentum in pseudopotentials (lmaxx) =  4
     file C.upf: wavefunction(s)  2S 2P renormalized
     Message from routine setup:
     using ibrav=0 with symmetry is DISCOURAGED, use correct ibrav instead
 
     R & G space division:  proc/nbgrp/npool/nimage =      12
     Subspace diagonalization in iterative solution of the eigenvalue problem:
     a serial algorithm will be used

 
     Parallelization info
     --------------------
     sticks:   dense  smooth     PW     G-vecs:    dense   smooth      PW
     Min          49      49     14                 6113     6113     960
     Max          50      50     15                 6132     6132     980
     Sum         595     595    169                73427    73427   11645
 
     Using Slab Decomposition
 


     bravais-lattice index     =            0
     lattice parameter (alat)  =       4.6588  a.u.
     unit-cell volume          =     543.4593 (a.u.)^3
     number of atoms/cell      =            2
     number of atomic types    =            1
     number of electrons       =         8.00
     number of Kohn-Sham states=            8
     kinetic-energy cutoff     =     100.0000  Ry
     charge density cutoff     =     400.0000  Ry
     scf convergence threshold =      1.0E-09
     mixing beta               =       0.7000
     number of iterations used =            8  plain     mixing
     Exchange-correlation= SLA  PW   PBX  PBC
                           (   1   4   3   4   0   0   0)

     celldm(1)=   4.658789  celldm(2)=   0.000000  celldm(3)=   0.000000
     celldm(4)=   0.000000  celldm(5)=   0.000000  celldm(6)=   0.000000

     crystal axes: (cart. coord. in units of alat)
               a(1) = (   1.000000   0.000000   0.000000 )  
               a(2) = (  -0.500000   0.866025   0.000000 )  
               a(3) = (   0.000000   0.000000   6.206078 )  

     reciprocal axes: (cart. coord. in units 2 pi/alat)
               b(1) = (  1.000000  0.577350  0.000000 )  
               b(2) = (  0.000000  1.154701  0.000000 )  
               b(3) = (  0.000000  0.000000  0.161132 )  


     PseudoPot. # 1 for C  read from file:
     ./C.upf
     MD5 check sum: 5d2aebdfa2cae82b50a7e79e9516da0f
     Pseudo is Projector augmented-wave + core cor, Zval =  4.0
     Generated using "atomic" code by A. Dal Corso  v.5.1
     Shape of augmentation charge: PSQ
     Using radial grid of 1073 points,  4 beta functions with: 
                l(1) =   0
                l(2) =   0
                l(3) =   1
                l(4) =   1
     Q(r) pseudized with 0 coefficients 


     atomic species   valence    mass     pseudopotential
     C                 4.00    12.01070     C ( 1.00)

      4 Sym. Ops. (no inversion) found



   Cartesian axes

     site n.     atom                  positions (alat units)
         1        C      tau(   1) = (   0.4749641   0.2453946   3.1030392  )
         2        C      tau(   2) = (  -0.0249641   0.5340283   3.1030392  )

     number of k points=   211  Marzari-Vanderbilt smearing, width (Ry)=  0.0200

     Number of k-points >= 100: set verbosity='high' to print them.

     Dense  grid:    73427 G-vectors     FFT dimensions: (  30,  30, 192)

     Estimated max dynamical RAM per process >      28.15 MB

     Estimated total dynamical RAM >     337.76 MB
 ----2D----2D----2D----2D----2D----2D----2D----2D----2D----2D----2D----2D
  The code is running with the 2D cutoff
  Please refer to:
  Sohier, T., Calandra, M., & Mauri, F. (2017), 
  Density functional perturbation theory for gated two-dimensional heterostructu
 res:
  Theoretical developments and application to flexural phonons in graphene.
  Physical Review B, 96(7), 75448. https://doi.org/10.1103/PhysRevB.96.075448
 ----2D----2D----2D----2D----2D----2D----2D----2D----2D----2D----2D----2D

     Check: negative core charge=   -0.000003

     Initial potential from superposition of free atoms

     starting charge       7.9999, renormalised to       8.0000

     negative rho (up, down):  7.205E-05 0.000E+00
     Starting wfcs are    8 randomized atomic wfcs
     Checking if some PAW data can be deallocated... 

     total cpu time spent up to now is        0.4 secs

     per-process dynamical memory:    61.1 Mb

     Self-consistent Calculation

     iteration #  1     ecut=   100.00 Ry     beta= 0.70
     Davidson diagonalization with overlap
     ethr =  1.00E-02,  avg # of iterations =  5.6

     negative rho (up, down):  6.862E-05 0.000E+00

     total cpu time spent up to now is        1.6 secs

     total energy              =     -36.86254821 Ry
     estimated scf accuracy    <       0.18966785 Ry

     iteration #  2     ecut=   100.00 Ry     beta= 0.70
     Davidson diagonalization with overlap
     ethr =  2.37E-03,  avg # of iterations =  4.2

     negative rho (up, down):  8.163E-05 0.000E+00

     total cpu time spent up to now is        2.4 secs

     total energy              =     -36.88772824 Ry
     estimated scf accuracy    <       0.00192587 Ry

     iteration #  3     ecut=   100.00 Ry     beta= 0.70
     Davidson diagonalization with overlap
     ethr =  2.41E-05,  avg # of iterations =  9.2

     negative rho (up, down):  9.288E-05 0.000E+00

     total cpu time spent up to now is        3.8 secs

     total energy              =     -36.88806507 Ry
     estimated scf accuracy    <       0.00015596 Ry

     iteration #  4     ecut=   100.00 Ry     beta= 0.70
     Davidson diagonalization with overlap
     c_bands:  1 eigenvalues not converged
     c_bands:  1 eigenvalues not converged
     ethr =  1.95E-06,  avg # of iterations =  3.9

     negative rho (up, down):  9.393E-05 0.000E+00

     total cpu time spent up to now is        4.7 secs

     total energy              =     -36.88807976 Ry
     estimated scf accuracy    <       0.00000245 Ry

     iteration #  5     ecut=   100.00 Ry     beta= 0.70
     Davidson diagonalization with overlap
     ethr =  3.06E-08,  avg # of iterations =  3.1

     negative rho (up, down):  9.397E-05 0.000E+00

     total cpu time spent up to now is        5.5 secs

     total energy              =     -36.88808107 Ry
     estimated scf accuracy    <       0.00000008 Ry

     iteration #  6     ecut=   100.00 Ry     beta= 0.70
     Davidson diagonalization with overlap
     ethr =  9.85E-10,  avg # of iterations =  2.7

     negative rho (up, down):  9.397E-05 0.000E+00

     total cpu time spent up to now is        6.3 secs

     End of self-consistent calculation

     Number of k-points >= 100: set verbosity='high' to print the bands.

     the Fermi energy is    -4.3747 ev

!    total energy              =     -36.88808110 Ry
     total all-electron energy =      -152.416277 Ry
     estimated scf accuracy    <          8.6E-10 Ry
     smearing contrib. (-TS)   =       0.00005292 Ry
     internal energy E=F+TS    =     -36.88813403 Ry

     The total energy is F=E-TS. E is the sum of the following terms:
     one-electron contribution =    -262.51991555 Ry
     hartree contribution      =     132.13812754 Ry
     xc contribution           =      -9.27526597 Ry
     ewald contribution        =     115.10300548 Ry
     one-center paw contrib.   =     -12.33408552 Ry

     convergence has been achieved in   6 iterations

     Writing all to output data dir ./tmp/graphene.save/ :
     XML data file, charge density, pseudopotentials, collected wavefunctions
 
     init_run     :      0.35s CPU      0.38s WALL (       1 calls)
     electrons    :      5.70s CPU      5.88s WALL (       1 calls)

     Called by init_run:
     wfcinit      :      0.28s CPU      0.30s WALL (       1 calls)
     potinit      :      0.01s CPU      0.01s WALL (       1 calls)
     hinit0       :      0.01s CPU      0.02s WALL (       1 calls)

     Called by electrons:
     c_bands      :      4.90s CPU      5.05s WALL (       6 calls)
     sum_band     :      0.75s CPU      0.76s WALL (       6 calls)
     v_of_rho     :      0.02s CPU      0.02s WALL (       7 calls)
     newd         :      0.01s CPU      0.02s WALL (       7 calls)
     PAW_pot      :      0.03s CPU      0.04s WALL (       7 calls)
     mix_rho      :      0.00s CPU      0.00s WALL (       6 calls)

     Called by c_bands:
     init_us_2    :      0.11s CPU      0.12s WALL (    2743 calls)
     cegterg      :      4.71s CPU      4.85s WALL (    1266 calls)

     Called by *egterg:
     cdiaghg      :      0.30s CPU      0.30s WALL (    7299 calls)
     h_psi        :      4.04s CPU      4.17s WALL (    7510 calls)
     s_psi        :      0.06s CPU      0.06s WALL (    7510 calls)
     g_psi        :      0.02s CPU      0.03s WALL (    6033 calls)

     Called by h_psi:
     h_psi:calbec :      0.14s CPU      0.15s WALL (    7510 calls)
     vloc_psi     :      3.80s CPU      3.92s WALL (    7510 calls)
     add_vuspsi   :      0.06s CPU      0.06s WALL (    7510 calls)

     General routines
     calbec       :      0.17s CPU      0.17s WALL (    8776 calls)
     fft          :      0.01s CPU      0.02s WALL (      77 calls)
     ffts         :      0.00s CPU      0.00s WALL (       6 calls)
     fftw         :      3.83s CPU      3.95s WALL (   77638 calls)
 
     Parallel routines
 
     PWSCF        :      6.18s CPU      6.53s WALL

 
   This run was terminated on:  12: 6: 9   9May2026            

=------------------------------------------------------------------------------=
   JOB DONE.
=------------------------------------------------------------------------------=
