
     Program PWSCF v.7.4 starts on  9May2026 at 11:46:40 

     This program is part of the open-source Quantum ESPRESSO suite
     for quantum simulation of materials; please cite
         "P. Giannozzi et al., J. Phys.:Condens. Matter 21 395502 (2009);
         "P. Giannozzi et al., J. Phys.:Condens. Matter 29 465901 (2017);
         "P. Giannozzi et al., J. Chem. Phys. 152 154105 (2020);
          URL http://www.quantum-espresso.org", 
     in publications or presentations arising from this work. More details at
     http://www.quantum-espresso.org/quote

     Parallel version (MPI), running on    12 processors

     MPI processes distributed on     1 nodes
     154877 MiB available memory on the printing compute node when the environment starts
 
     Waiting for input...
     Reading input from standard input

     Current dimensions of program PWSCF are:
     Max number of different atomic species (ntypx) = 10
     Max number of k-points (npk) =  40000
     Max angular momentum in pseudopotentials (lmaxx) =  4
     file C.upf: wavefunction(s)  2S 2P renormalized
 
     R & G space division:  proc/nbgrp/npool/nimage =      12
     Subspace diagonalization in iterative solution of the eigenvalue problem:
     a serial algorithm will be used

 
     Parallelization info
     --------------------
     sticks:   dense  smooth     PW     G-vecs:    dense   smooth      PW
     Min          10      10      3                  638      638     123
     Max          11      11      4                  659      659     150
     Sum         121     121     37                 7715     7715    1569
 
     Using Slab Decomposition
 


     bravais-lattice index     =            4
     lattice parameter (alat)  =       4.6588  a.u.
     unit-cell volume          =     632.2600 (a.u.)^3
     number of atoms/cell      =            2
     number of atomic types    =            1
     number of electrons       =         8.00
     number of Kohn-Sham states=            8
     kinetic-energy cutoff     =      20.0000  Ry
     charge density cutoff     =      80.0000  Ry
     scf convergence threshold =      1.0E-09
     mixing beta               =       0.7000
     number of iterations used =            8  plain     mixing
     Exchange-correlation= SLA  PW   PBX  PBC
                           (   1   4   3   4   0   0   0)

     celldm(1)=   4.658790  celldm(2)=   0.000000  celldm(3)=   7.220142
     celldm(4)=   0.000000  celldm(5)=   0.000000  celldm(6)=   0.000000

     crystal axes: (cart. coord. in units of alat)
               a(1) = (   1.000000   0.000000   0.000000 )  
               a(2) = (  -0.500000   0.866025   0.000000 )  
               a(3) = (   0.000000   0.000000   7.220142 )  

     reciprocal axes: (cart. coord. in units 2 pi/alat)
               b(1) = (  1.000000  0.577350  0.000000 )  
               b(2) = (  0.000000  1.154701  0.000000 )  
               b(3) = (  0.000000  0.000000  0.138501 )  


     PseudoPot. # 1 for C  read from file:
     ./C.upf
     MD5 check sum: 5d2aebdfa2cae82b50a7e79e9516da0f
     Pseudo is Projector augmented-wave + core cor, Zval =  4.0
     Generated using "atomic" code by A. Dal Corso  v.5.1
     Shape of augmentation charge: PSQ
     Using radial grid of 1073 points,  4 beta functions with: 
                l(1) =   0
                l(2) =   0
                l(3) =   1
                l(4) =   1
     Q(r) pseudized with 0 coefficients 


     atomic species   valence    mass     pseudopotential
     C                 4.00    12.01070     C ( 1.00)

      4 Sym. Ops. (no inversion) found



   Cartesian axes

     site n.     atom                  positions (alat units)
         1        C      tau(   1) = (   0.4749641   0.2453946   3.6100711  )
         2        C      tau(   2) = (  -0.0249641   0.5340283   3.6100711  )

     number of k points=   211  Marzari-Vanderbilt smearing, width (Ry)=  0.0200

     Number of k-points >= 100: set verbosity='high' to print them.

     Dense  grid:     7715 G-vectors     FFT dimensions: (  15,  15,  96)

     Estimated max dynamical RAM per process >       3.10 MB

     Estimated total dynamical RAM >      37.15 MB
 ----2D----2D----2D----2D----2D----2D----2D----2D----2D----2D----2D----2D
  The code is running with the 2D cutoff
  Please refer to:
  Sohier, T., Calandra, M., & Mauri, F. (2017), 
  Density functional perturbation theory for gated two-dimensional heterostructu
 res:
  Theoretical developments and application to flexural phonons in graphene.
  Physical Review B, 96(7), 75448. https://doi.org/10.1103/PhysRevB.96.075448
 ----2D----2D----2D----2D----2D----2D----2D----2D----2D----2D----2D----2D

     Check: negative core charge=   -0.000725

     Initial potential from superposition of free atoms

     starting charge       7.9999, renormalised to       8.0000

     negative rho (up, down):  1.590E-03 0.000E+00
     Starting wfcs are    8 randomized atomic wfcs
     Checking if some PAW data can be deallocated... 

     total cpu time spent up to now is        0.2 secs

     per-process dynamical memory:    35.6 Mb

     Self-consistent Calculation

     iteration #  1     ecut=    20.00 Ry     beta= 0.70
     Davidson diagonalization with overlap
     ethr =  1.00E-02,  avg # of iterations =  8.8

     negative rho (up, down):  6.681E-03 0.000E+00

     total cpu time spent up to now is        0.7 secs

     total energy              =     -36.78742650 Ry
     estimated scf accuracy    <       0.16511420 Ry

     iteration #  2     ecut=    20.00 Ry     beta= 0.70
     Davidson diagonalization with overlap
     ethr =  2.06E-03,  avg # of iterations =  3.6

     negative rho (up, down):  8.550E-03 0.000E+00

     total cpu time spent up to now is        1.0 secs

     total energy              =     -36.81212341 Ry
     estimated scf accuracy    <       0.00310584 Ry

     iteration #  3     ecut=    20.00 Ry     beta= 0.70
     Davidson diagonalization with overlap
     c_bands:  1 eigenvalues not converged
     c_bands:  1 eigenvalues not converged
     ethr =  3.88E-05,  avg # of iterations =  7.8

     negative rho (up, down):  9.471E-03 0.000E+00

     total cpu time spent up to now is        1.4 secs

     total energy              =     -36.81238794 Ry
     estimated scf accuracy    <       0.00019282 Ry

     iteration #  4     ecut=    20.00 Ry     beta= 0.70
     Davidson diagonalization with overlap
     c_bands:  1 eigenvalues not converged
     c_bands:  1 eigenvalues not converged
     c_bands:  1 eigenvalues not converged
     c_bands:  1 eigenvalues not converged
     ethr =  2.41E-06,  avg # of iterations =  4.9

     negative rho (up, down):  9.528E-03 0.000E+00

     total cpu time spent up to now is        1.7 secs

     total energy              =     -36.81240298 Ry
     estimated scf accuracy    <       0.00000036 Ry

     iteration #  5     ecut=    20.00 Ry     beta= 0.70
     Davidson diagonalization with overlap
     c_bands:  1 eigenvalues not converged
     c_bands:  1 eigenvalues not converged
     ethr =  4.45E-09,  avg # of iterations =  4.1

     negative rho (up, down):  9.537E-03 0.000E+00

     total cpu time spent up to now is        2.0 secs

     total energy              =     -36.81240470 Ry
     estimated scf accuracy    <       0.00000004 Ry

     iteration #  6     ecut=    20.00 Ry     beta= 0.70
     Davidson diagonalization with overlap
     ethr =  4.99E-10,  avg # of iterations =  1.3

     negative rho (up, down):  9.538E-03 0.000E+00

     total cpu time spent up to now is        2.2 secs

     total energy              =     -36.81240477 Ry
     estimated scf accuracy    <          3.3E-09 Ry

     iteration #  7     ecut=    20.00 Ry     beta= 0.70
     Davidson diagonalization with overlap
     ethr =  4.18E-11,  avg # of iterations =  2.0

     negative rho (up, down):  9.538E-03 0.000E+00

     total cpu time spent up to now is        2.4 secs

     End of self-consistent calculation

     Number of k-points >= 100: set verbosity='high' to print the bands.

     the Fermi energy is    -4.5631 ev

!    total energy              =     -36.81240477 Ry
     total all-electron energy =      -152.340600 Ry
     estimated scf accuracy    <          6.2E-11 Ry
     smearing contrib. (-TS)   =       0.00005273 Ry
     internal energy E=F+TS    =     -36.81245750 Ry

     The total energy is F=E-TS. E is the sum of the following terms:
     one-electron contribution =    -312.53131385 Ry
     hartree contribution      =     156.98101137 Ry
     xc contribution           =      -9.29133608 Ry
     ewald contribution        =     140.37044101 Ry
     one-center paw contrib.   =     -12.34125994 Ry

     convergence has been achieved in   7 iterations

     Writing all to output data dir ./tmp/graphene.save/ :
     XML data file, charge density, pseudopotentials, collected wavefunctions
 
     init_run     :      0.12s CPU      0.13s WALL (       1 calls)
     electrons    :      2.03s CPU      2.24s WALL (       1 calls)

     Called by init_run:
     wfcinit      :      0.10s CPU      0.11s WALL (       1 calls)
     potinit      :      0.01s CPU      0.01s WALL (       1 calls)
     hinit0       :      0.01s CPU      0.01s WALL (       1 calls)

     Called by electrons:
     c_bands      :      1.77s CPU      1.95s WALL (       7 calls)
     sum_band     :      0.22s CPU      0.24s WALL (       7 calls)
     v_of_rho     :      0.00s CPU      0.00s WALL (       8 calls)
     newd         :      0.00s CPU      0.00s WALL (       8 calls)
     PAW_pot      :      0.04s CPU      0.05s WALL (       8 calls)
     mix_rho      :      0.00s CPU      0.00s WALL (       7 calls)

     Called by c_bands:
     init_us_2    :      0.02s CPU      0.02s WALL (    3165 calls)
     cegterg      :      1.73s CPU      1.91s WALL (    1477 calls)

     Called by *egterg:
     cdiaghg      :      0.29s CPU      0.32s WALL (    8326 calls)
     h_psi        :      1.31s CPU      1.44s WALL (    8537 calls)
     s_psi        :      0.02s CPU      0.02s WALL (    8537 calls)
     g_psi        :      0.00s CPU      0.01s WALL (    6849 calls)

     Called by h_psi:
     h_psi:calbec :      0.07s CPU      0.08s WALL (    8537 calls)
     vloc_psi     :      1.20s CPU      1.32s WALL (    8537 calls)
     add_vuspsi   :      0.02s CPU      0.02s WALL (    8537 calls)

     General routines
     calbec       :      0.08s CPU      0.09s WALL (   10014 calls)
     fft          :      0.00s CPU      0.00s WALL (      88 calls)
     ffts         :      0.00s CPU      0.00s WALL (       7 calls)
     fftw         :      1.28s CPU      1.41s WALL (   85832 calls)
 
     Parallel routines
 
     PWSCF        :      2.22s CPU      2.52s WALL

 
   This run was terminated on:  11:46:42   9May2026            

=------------------------------------------------------------------------------=
   JOB DONE.
=------------------------------------------------------------------------------=
