
     Program PWSCF v.7.4 starts on  9May2026 at 11:47:46 

     This program is part of the open-source Quantum ESPRESSO suite
     for quantum simulation of materials; please cite
         "P. Giannozzi et al., J. Phys.:Condens. Matter 21 395502 (2009);
         "P. Giannozzi et al., J. Phys.:Condens. Matter 29 465901 (2017);
         "P. Giannozzi et al., J. Chem. Phys. 152 154105 (2020);
          URL http://www.quantum-espresso.org", 
     in publications or presentations arising from this work. More details at
     http://www.quantum-espresso.org/quote

     Parallel version (MPI), running on    12 processors

     MPI processes distributed on     1 nodes
     154573 MiB available memory on the printing compute node when the environment starts
 
     Waiting for input...
     Reading input from standard input

     Current dimensions of program PWSCF are:
     Max number of different atomic species (ntypx) = 10
     Max number of k-points (npk) =  40000
     Max angular momentum in pseudopotentials (lmaxx) =  4
     file C.upf: wavefunction(s)  2S 2P renormalized
 
     R & G space division:  proc/nbgrp/npool/nimage =      12
     Subspace diagonalization in iterative solution of the eigenvalue problem:
     a serial algorithm will be used

 
     Parallelization info
     --------------------
     sticks:   dense  smooth     PW     G-vecs:    dense   smooth      PW
     Min          89      89     26                17167    17167    2600
     Max          90      90     27                17204    17204    2622
     Sum        1069    1069    313               206135   206135   31257
 
     Using Slab Decomposition
 


     bravais-lattice index     =            4
     lattice parameter (alat)  =       4.6588  a.u.
     unit-cell volume          =     632.2600 (a.u.)^3
     number of atoms/cell      =            2
     number of atomic types    =            1
     number of electrons       =         8.00
     number of Kohn-Sham states=            8
     kinetic-energy cutoff     =     180.0000  Ry
     charge density cutoff     =     720.0000  Ry
     scf convergence threshold =      1.0E-09
     mixing beta               =       0.7000
     number of iterations used =            8  plain     mixing
     Exchange-correlation= SLA  PW   PBX  PBC
                           (   1   4   3   4   0   0   0)

     celldm(1)=   4.658790  celldm(2)=   0.000000  celldm(3)=   7.220142
     celldm(4)=   0.000000  celldm(5)=   0.000000  celldm(6)=   0.000000

     crystal axes: (cart. coord. in units of alat)
               a(1) = (   1.000000   0.000000   0.000000 )  
               a(2) = (  -0.500000   0.866025   0.000000 )  
               a(3) = (   0.000000   0.000000   7.220142 )  

     reciprocal axes: (cart. coord. in units 2 pi/alat)
               b(1) = (  1.000000  0.577350  0.000000 )  
               b(2) = (  0.000000  1.154701  0.000000 )  
               b(3) = (  0.000000  0.000000  0.138501 )  


     PseudoPot. # 1 for C  read from file:
     ./C.upf
     MD5 check sum: 5d2aebdfa2cae82b50a7e79e9516da0f
     Pseudo is Projector augmented-wave + core cor, Zval =  4.0
     Generated using "atomic" code by A. Dal Corso  v.5.1
     Shape of augmentation charge: PSQ
     Using radial grid of 1073 points,  4 beta functions with: 
                l(1) =   0
                l(2) =   0
                l(3) =   1
                l(4) =   1
     Q(r) pseudized with 0 coefficients 


     atomic species   valence    mass     pseudopotential
     C                 4.00    12.01070     C ( 1.00)

      4 Sym. Ops. (no inversion) found



   Cartesian axes

     site n.     atom                  positions (alat units)
         1        C      tau(   1) = (   0.4749641   0.2453946   3.6100711  )
         2        C      tau(   2) = (  -0.0249641   0.5340283   3.6100711  )

     number of k points=   211  Marzari-Vanderbilt smearing, width (Ry)=  0.0200

     Number of k-points >= 100: set verbosity='high' to print them.

     Dense  grid:   206135 G-vectors     FFT dimensions: (  40,  40, 288)

     Estimated max dynamical RAM per process >      78.29 MB

     Estimated total dynamical RAM >     939.50 MB
 ----2D----2D----2D----2D----2D----2D----2D----2D----2D----2D----2D----2D
  The code is running with the 2D cutoff
  Please refer to:
  Sohier, T., Calandra, M., & Mauri, F. (2017), 
  Density functional perturbation theory for gated two-dimensional heterostructu
 res:
  Theoretical developments and application to flexural phonons in graphene.
  Physical Review B, 96(7), 75448. https://doi.org/10.1103/PhysRevB.96.075448
 ----2D----2D----2D----2D----2D----2D----2D----2D----2D----2D----2D----2D

     Initial potential from superposition of free atoms

     starting charge       7.9999, renormalised to       8.0000

     negative rho (up, down):  2.120E-05 0.000E+00
     Starting wfcs are    8 randomized atomic wfcs
     Checking if some PAW data can be deallocated... 

     total cpu time spent up to now is        0.9 secs

     per-process dynamical memory:   130.9 Mb

     Self-consistent Calculation

     iteration #  1     ecut=   180.00 Ry     beta= 0.70
     Davidson diagonalization with overlap
     ethr =  1.00E-02,  avg # of iterations =  5.6

     negative rho (up, down):  1.977E-05 0.000E+00

     total cpu time spent up to now is        3.3 secs

     total energy              =     -36.86282214 Ry
     estimated scf accuracy    <       0.18925438 Ry

     iteration #  2     ecut=   180.00 Ry     beta= 0.70
     Davidson diagonalization with overlap
     ethr =  2.37E-03,  avg # of iterations =  4.0

     negative rho (up, down):  2.713E-05 0.000E+00

     total cpu time spent up to now is        5.1 secs

     total energy              =     -36.88779391 Ry
     estimated scf accuracy    <       0.00191716 Ry

     iteration #  3     ecut=   180.00 Ry     beta= 0.70
     Davidson diagonalization with overlap
     c_bands:  1 eigenvalues not converged
     ethr =  2.40E-05,  avg # of iterations = 10.0

     negative rho (up, down):  3.584E-05 0.000E+00

     total cpu time spent up to now is        8.3 secs

     total energy              =     -36.88813495 Ry
     estimated scf accuracy    <       0.00015628 Ry

     iteration #  4     ecut=   180.00 Ry     beta= 0.70
     Davidson diagonalization with overlap
     c_bands:  1 eigenvalues not converged
     c_bands:  1 eigenvalues not converged
     c_bands:  1 eigenvalues not converged
     ethr =  1.95E-06,  avg # of iterations =  4.5

     negative rho (up, down):  3.655E-05 0.000E+00

     total cpu time spent up to now is       10.2 secs

     total energy              =     -36.88814956 Ry
     estimated scf accuracy    <       0.00000267 Ry

     iteration #  5     ecut=   180.00 Ry     beta= 0.70
     Davidson diagonalization with overlap
     ethr =  3.33E-08,  avg # of iterations =  2.9

     negative rho (up, down):  3.662E-05 0.000E+00

     total cpu time spent up to now is       11.9 secs

     total energy              =     -36.88815091 Ry
     estimated scf accuracy    <       0.00000009 Ry

     iteration #  6     ecut=   180.00 Ry     beta= 0.70
     Davidson diagonalization with overlap
     ethr =  1.12E-09,  avg # of iterations =  2.8

     negative rho (up, down):  3.662E-05 0.000E+00

     total cpu time spent up to now is       13.6 secs

     End of self-consistent calculation

     Number of k-points >= 100: set verbosity='high' to print the bands.

     the Fermi energy is    -4.3747 ev

!    total energy              =     -36.88815094 Ry
     total all-electron energy =      -152.416347 Ry
     estimated scf accuracy    <          9.7E-10 Ry
     smearing contrib. (-TS)   =       0.00005292 Ry
     internal energy E=F+TS    =     -36.88820386 Ry

     The total energy is F=E-TS. E is the sum of the following terms:
     one-electron contribution =    -313.05485502 Ry
     hartree contribution      =     157.40566412 Ry
     xc contribution           =      -9.27536358 Ry
     ewald contribution        =     140.37044101 Ry
     one-center paw contrib.   =     -12.33409040 Ry

     convergence has been achieved in   6 iterations

     Writing all to output data dir ./tmp/graphene.save/ :
     XML data file, charge density, pseudopotentials, collected wavefunctions
 
     init_run     :      0.82s CPU      0.87s WALL (       1 calls)
     electrons    :     12.40s CPU     12.74s WALL (       1 calls)

     Called by init_run:
     wfcinit      :      0.59s CPU      0.62s WALL (       1 calls)
     potinit      :      0.01s CPU      0.02s WALL (       1 calls)
     hinit0       :      0.01s CPU      0.02s WALL (       1 calls)

     Called by electrons:
     c_bands      :     10.53s CPU     10.80s WALL (       6 calls)
     sum_band     :      1.76s CPU      1.82s WALL (       6 calls)
     v_of_rho     :      0.05s CPU      0.05s WALL (       7 calls)
     newd         :      0.04s CPU      0.04s WALL (       7 calls)
     PAW_pot      :      0.03s CPU      0.03s WALL (       7 calls)
     mix_rho      :      0.01s CPU      0.01s WALL (       6 calls)

     Called by c_bands:
     init_us_2    :      0.33s CPU      0.34s WALL (    2743 calls)
     cegterg      :     10.00s CPU     10.25s WALL (    1266 calls)

     Called by *egterg:
     cdiaghg      :      0.32s CPU      0.33s WALL (    7557 calls)
     h_psi        :      8.52s CPU      8.75s WALL (    7768 calls)
     s_psi        :      0.16s CPU      0.17s WALL (    7768 calls)
     g_psi        :      0.06s CPU      0.07s WALL (    6291 calls)

     Called by h_psi:
     h_psi:calbec :      0.34s CPU      0.35s WALL (    7768 calls)
     vloc_psi     :      7.93s CPU      8.14s WALL (    7768 calls)
     add_vuspsi   :      0.17s CPU      0.18s WALL (    7768 calls)

     General routines
     calbec       :      0.41s CPU      0.42s WALL (    9034 calls)
     fft          :      0.03s CPU      0.05s WALL (      77 calls)
     ffts         :      0.00s CPU      0.00s WALL (       6 calls)
     fftw         :      7.69s CPU      7.90s WALL (   78870 calls)
 
     Parallel routines
 
     PWSCF        :     13.48s CPU     14.16s WALL

 
   This run was terminated on:  11:48: 0   9May2026            

=------------------------------------------------------------------------------=
   JOB DONE.
=------------------------------------------------------------------------------=
