
     Program PWSCF v.7.4 starts on  9May2026 at 11:48: 1 

     This program is part of the open-source Quantum ESPRESSO suite
     for quantum simulation of materials; please cite
         "P. Giannozzi et al., J. Phys.:Condens. Matter 21 395502 (2009);
         "P. Giannozzi et al., J. Phys.:Condens. Matter 29 465901 (2017);
         "P. Giannozzi et al., J. Chem. Phys. 152 154105 (2020);
          URL http://www.quantum-espresso.org", 
     in publications or presentations arising from this work. More details at
     http://www.quantum-espresso.org/quote

     Parallel version (MPI), running on    12 processors

     MPI processes distributed on     1 nodes
     154541 MiB available memory on the printing compute node when the environment starts
 
     Waiting for input...
     Reading input from standard input

     Current dimensions of program PWSCF are:
     Max number of different atomic species (ntypx) = 10
     Max number of k-points (npk) =  40000
     Max angular momentum in pseudopotentials (lmaxx) =  4
     file C.upf: wavefunction(s)  2S 2P renormalized
 
     R & G space division:  proc/nbgrp/npool/nimage =      12
     Subspace diagonalization in iterative solution of the eigenvalue problem:
     a serial algorithm will be used

 
     Parallelization info
     --------------------
     sticks:   dense  smooth     PW     G-vecs:    dense   smooth      PW
     Min          99      99     27                20093    20093    2996
     Max         100     100     29                20120    20120    3019
     Sum        1189    1189    337               241275   241275   36029
 
     Using Slab Decomposition
 


     bravais-lattice index     =            4
     lattice parameter (alat)  =       4.6588  a.u.
     unit-cell volume          =     632.2600 (a.u.)^3
     number of atoms/cell      =            2
     number of atomic types    =            1
     number of electrons       =         8.00
     number of Kohn-Sham states=            8
     kinetic-energy cutoff     =     200.0000  Ry
     charge density cutoff     =     800.0000  Ry
     scf convergence threshold =      1.0E-09
     mixing beta               =       0.7000
     number of iterations used =            8  plain     mixing
     Exchange-correlation= SLA  PW   PBX  PBC
                           (   1   4   3   4   0   0   0)

     celldm(1)=   4.658790  celldm(2)=   0.000000  celldm(3)=   7.220142
     celldm(4)=   0.000000  celldm(5)=   0.000000  celldm(6)=   0.000000

     crystal axes: (cart. coord. in units of alat)
               a(1) = (   1.000000   0.000000   0.000000 )  
               a(2) = (  -0.500000   0.866025   0.000000 )  
               a(3) = (   0.000000   0.000000   7.220142 )  

     reciprocal axes: (cart. coord. in units 2 pi/alat)
               b(1) = (  1.000000  0.577350  0.000000 )  
               b(2) = (  0.000000  1.154701  0.000000 )  
               b(3) = (  0.000000  0.000000  0.138501 )  


     PseudoPot. # 1 for C  read from file:
     ./C.upf
     MD5 check sum: 5d2aebdfa2cae82b50a7e79e9516da0f
     Pseudo is Projector augmented-wave + core cor, Zval =  4.0
     Generated using "atomic" code by A. Dal Corso  v.5.1
     Shape of augmentation charge: PSQ
     Using radial grid of 1073 points,  4 beta functions with: 
                l(1) =   0
                l(2) =   0
                l(3) =   1
                l(4) =   1
     Q(r) pseudized with 0 coefficients 


     atomic species   valence    mass     pseudopotential
     C                 4.00    12.01070     C ( 1.00)

      4 Sym. Ops. (no inversion) found



   Cartesian axes

     site n.     atom                  positions (alat units)
         1        C      tau(   1) = (   0.4749641   0.2453946   3.6100711  )
         2        C      tau(   2) = (  -0.0249641   0.5340283   3.6100711  )

     number of k points=   211  Marzari-Vanderbilt smearing, width (Ry)=  0.0200

     Number of k-points >= 100: set verbosity='high' to print them.

     Dense  grid:   241275 G-vectors     FFT dimensions: (  45,  45, 320)

     Estimated max dynamical RAM per process >      92.28 MB

     Estimated total dynamical RAM >       1.08 GB
 ----2D----2D----2D----2D----2D----2D----2D----2D----2D----2D----2D----2D
  The code is running with the 2D cutoff
  Please refer to:
  Sohier, T., Calandra, M., & Mauri, F. (2017), 
  Density functional perturbation theory for gated two-dimensional heterostructu
 res:
  Theoretical developments and application to flexural phonons in graphene.
  Physical Review B, 96(7), 75448. https://doi.org/10.1103/PhysRevB.96.075448
 ----2D----2D----2D----2D----2D----2D----2D----2D----2D----2D----2D----2D

     Initial potential from superposition of free atoms

     starting charge       7.9999, renormalised to       8.0000

     negative rho (up, down):  1.080E-05 0.000E+00
     Starting wfcs are    8 randomized atomic wfcs
     Checking if some PAW data can be deallocated... 

     total cpu time spent up to now is        1.3 secs

     per-process dynamical memory:   115.6 Mb

     Self-consistent Calculation

     iteration #  1     ecut=   200.00 Ry     beta= 0.70
     Davidson diagonalization with overlap
     ethr =  1.00E-02,  avg # of iterations =  5.6

     negative rho (up, down):  5.579E-06 0.000E+00

     total cpu time spent up to now is        4.9 secs

     total energy              =     -36.86282860 Ry
     estimated scf accuracy    <       0.18926080 Ry

     iteration #  2     ecut=   200.00 Ry     beta= 0.70
     Davidson diagonalization with overlap
     ethr =  2.37E-03,  avg # of iterations =  3.8

     negative rho (up, down):  7.982E-06 0.000E+00

     total cpu time spent up to now is        7.6 secs

     total energy              =     -36.88779552 Ry
     estimated scf accuracy    <       0.00191614 Ry

     iteration #  3     ecut=   200.00 Ry     beta= 0.70
     Davidson diagonalization with overlap
     c_bands:  1 eigenvalues not converged
     ethr =  2.40E-05,  avg # of iterations = 10.1

     negative rho (up, down):  1.257E-05 0.000E+00

     total cpu time spent up to now is       12.4 secs

     total energy              =     -36.88813682 Ry
     estimated scf accuracy    <       0.00015584 Ry

     iteration #  4     ecut=   200.00 Ry     beta= 0.70
     Davidson diagonalization with overlap
     c_bands:  1 eigenvalues not converged
     c_bands:  1 eigenvalues not converged
     c_bands:  1 eigenvalues not converged
     c_bands:  1 eigenvalues not converged
     c_bands:  1 eigenvalues not converged
     ethr =  1.95E-06,  avg # of iterations =  4.5

     negative rho (up, down):  1.306E-05 0.000E+00

     total cpu time spent up to now is       15.2 secs

     total energy              =     -36.88815156 Ry
     estimated scf accuracy    <       0.00000261 Ry

     iteration #  5     ecut=   200.00 Ry     beta= 0.70
     Davidson diagonalization with overlap
     ethr =  3.27E-08,  avg # of iterations =  3.1

     negative rho (up, down):  1.312E-05 0.000E+00

     total cpu time spent up to now is       17.9 secs

     total energy              =     -36.88815291 Ry
     estimated scf accuracy    <       0.00000009 Ry

     iteration #  6     ecut=   200.00 Ry     beta= 0.70
     Davidson diagonalization with overlap
     ethr =  1.16E-09,  avg # of iterations =  2.8

     negative rho (up, down):  1.312E-05 0.000E+00

     total cpu time spent up to now is       20.5 secs

     End of self-consistent calculation

     Number of k-points >= 100: set verbosity='high' to print the bands.

     the Fermi energy is    -4.3747 ev

!    total energy              =     -36.88815295 Ry
     total all-electron energy =      -152.416349 Ry
     estimated scf accuracy    <          9.9E-10 Ry
     smearing contrib. (-TS)   =       0.00005292 Ry
     internal energy E=F+TS    =     -36.88820587 Ry

     The total energy is F=E-TS. E is the sum of the following terms:
     one-electron contribution =    -313.05484481 Ry
     hartree contribution      =     157.40565472 Ry
     xc contribution           =      -9.27536636 Ry
     ewald contribution        =     140.37044101 Ry
     one-center paw contrib.   =     -12.33409044 Ry

     convergence has been achieved in   6 iterations

     Writing all to output data dir ./tmp/graphene.save/ :
     XML data file, charge density, pseudopotentials, collected wavefunctions
 
     init_run     :      1.18s CPU      1.24s WALL (       1 calls)
     electrons    :     18.92s CPU     19.19s WALL (       1 calls)

     Called by init_run:
     wfcinit      :      0.90s CPU      0.93s WALL (       1 calls)
     potinit      :      0.02s CPU      0.02s WALL (       1 calls)
     hinit0       :      0.04s CPU      0.04s WALL (       1 calls)

     Called by electrons:
     c_bands      :     16.15s CPU     16.36s WALL (       6 calls)
     sum_band     :      2.64s CPU      2.68s WALL (       6 calls)
     v_of_rho     :      0.07s CPU      0.08s WALL (       7 calls)
     newd         :      0.05s CPU      0.05s WALL (       7 calls)
     PAW_pot      :      0.03s CPU      0.03s WALL (       7 calls)
     mix_rho      :      0.01s CPU      0.01s WALL (       6 calls)

     Called by c_bands:
     init_us_2    :      0.40s CPU      0.41s WALL (    2743 calls)
     cegterg      :     15.52s CPU     15.72s WALL (    1266 calls)

     Called by *egterg:
     cdiaghg      :      0.33s CPU      0.34s WALL (    7580 calls)
     h_psi        :     14.06s CPU     14.27s WALL (    7791 calls)
     s_psi        :      0.18s CPU      0.18s WALL (    7791 calls)
     g_psi        :      0.08s CPU      0.08s WALL (    6314 calls)

     Called by h_psi:
     h_psi:calbec :      0.47s CPU      0.48s WALL (    7791 calls)
     vloc_psi     :     13.32s CPU     13.51s WALL (    7791 calls)
     add_vuspsi   :      0.19s CPU      0.19s WALL (    7791 calls)

     General routines
     calbec       :      0.55s CPU      0.56s WALL (    9057 calls)
     fft          :      0.04s CPU      0.06s WALL (      77 calls)
     ffts         :      0.00s CPU      0.00s WALL (       6 calls)
     fftw         :     13.16s CPU     13.36s WALL (   78920 calls)
 
     Parallel routines
 
     PWSCF        :     20.40s CPU     21.14s WALL

 
   This run was terminated on:  11:48:22   9May2026            

=------------------------------------------------------------------------------=
   JOB DONE.
=------------------------------------------------------------------------------=
