
     Program PWSCF v.7.4 starts on  9May2026 at 11:46:58 

     This program is part of the open-source Quantum ESPRESSO suite
     for quantum simulation of materials; please cite
         "P. Giannozzi et al., J. Phys.:Condens. Matter 21 395502 (2009);
         "P. Giannozzi et al., J. Phys.:Condens. Matter 29 465901 (2017);
         "P. Giannozzi et al., J. Chem. Phys. 152 154105 (2020);
          URL http://www.quantum-espresso.org", 
     in publications or presentations arising from this work. More details at
     http://www.quantum-espresso.org/quote

     Parallel version (MPI), running on    12 processors

     MPI processes distributed on     1 nodes
     155164 MiB available memory on the printing compute node when the environment starts
 
     Waiting for input...
     Reading input from standard input

     Current dimensions of program PWSCF are:
     Max number of different atomic species (ntypx) = 10
     Max number of k-points (npk) =  40000
     Max angular momentum in pseudopotentials (lmaxx) =  4
     file C.upf: wavefunction(s)  2S 2P renormalized
 
     R & G space division:  proc/nbgrp/npool/nimage =      12
     Subspace diagonalization in iterative solution of the eigenvalue problem:
     a serial algorithm will be used

 
     Parallelization info
     --------------------
     sticks:   dense  smooth     PW     G-vecs:    dense   smooth      PW
     Min          39      39     12                 5073     5073     842
     Max          40      40     13                 5102     5102     853
     Sum         475     475    151                61085    61085   10155
 
     Using Slab Decomposition
 


     bravais-lattice index     =            4
     lattice parameter (alat)  =       4.6588  a.u.
     unit-cell volume          =     632.2600 (a.u.)^3
     number of atoms/cell      =            2
     number of atomic types    =            1
     number of electrons       =         8.00
     number of Kohn-Sham states=            8
     kinetic-energy cutoff     =      80.0000  Ry
     charge density cutoff     =     320.0000  Ry
     scf convergence threshold =      1.0E-09
     mixing beta               =       0.7000
     number of iterations used =            8  plain     mixing
     Exchange-correlation= SLA  PW   PBX  PBC
                           (   1   4   3   4   0   0   0)

     celldm(1)=   4.658790  celldm(2)=   0.000000  celldm(3)=   7.220142
     celldm(4)=   0.000000  celldm(5)=   0.000000  celldm(6)=   0.000000

     crystal axes: (cart. coord. in units of alat)
               a(1) = (   1.000000   0.000000   0.000000 )  
               a(2) = (  -0.500000   0.866025   0.000000 )  
               a(3) = (   0.000000   0.000000   7.220142 )  

     reciprocal axes: (cart. coord. in units 2 pi/alat)
               b(1) = (  1.000000  0.577350  0.000000 )  
               b(2) = (  0.000000  1.154701  0.000000 )  
               b(3) = (  0.000000  0.000000  0.138501 )  


     PseudoPot. # 1 for C  read from file:
     ./C.upf
     MD5 check sum: 5d2aebdfa2cae82b50a7e79e9516da0f
     Pseudo is Projector augmented-wave + core cor, Zval =  4.0
     Generated using "atomic" code by A. Dal Corso  v.5.1
     Shape of augmentation charge: PSQ
     Using radial grid of 1073 points,  4 beta functions with: 
                l(1) =   0
                l(2) =   0
                l(3) =   1
                l(4) =   1
     Q(r) pseudized with 0 coefficients 


     atomic species   valence    mass     pseudopotential
     C                 4.00    12.01070     C ( 1.00)

      4 Sym. Ops. (no inversion) found



   Cartesian axes

     site n.     atom                  positions (alat units)
         1        C      tau(   1) = (   0.4749641   0.2453946   3.6100711  )
         2        C      tau(   2) = (  -0.0249641   0.5340283   3.6100711  )

     number of k points=   211  Marzari-Vanderbilt smearing, width (Ry)=  0.0200

     Number of k-points >= 100: set verbosity='high' to print them.

     Dense  grid:    61085 G-vectors     FFT dimensions: (  27,  27, 192)

     Estimated max dynamical RAM per process >      23.42 MB

     Estimated total dynamical RAM >     281.10 MB
 ----2D----2D----2D----2D----2D----2D----2D----2D----2D----2D----2D----2D
  The code is running with the 2D cutoff
  Please refer to:
  Sohier, T., Calandra, M., & Mauri, F. (2017), 
  Density functional perturbation theory for gated two-dimensional heterostructu
 res:
  Theoretical developments and application to flexural phonons in graphene.
  Physical Review B, 96(7), 75448. https://doi.org/10.1103/PhysRevB.96.075448
 ----2D----2D----2D----2D----2D----2D----2D----2D----2D----2D----2D----2D

     Check: negative core charge=   -0.000004

     Initial potential from superposition of free atoms

     starting charge       7.9999, renormalised to       8.0000

     negative rho (up, down):  3.753E-05 0.000E+00
     Starting wfcs are    8 randomized atomic wfcs
     Checking if some PAW data can be deallocated... 

     total cpu time spent up to now is        0.3 secs

     per-process dynamical memory:    60.9 Mb

     Self-consistent Calculation

     iteration #  1     ecut=    80.00 Ry     beta= 0.70
     Davidson diagonalization with overlap
     ethr =  1.00E-02,  avg # of iterations =  5.5

     negative rho (up, down):  1.049E-04 0.000E+00

     total cpu time spent up to now is        1.4 secs

     total energy              =     -36.86259750 Ry
     estimated scf accuracy    <       0.18955393 Ry

     iteration #  2     ecut=    80.00 Ry     beta= 0.70
     Davidson diagonalization with overlap
     ethr =  2.37E-03,  avg # of iterations =  4.0

     negative rho (up, down):  1.426E-04 0.000E+00

     total cpu time spent up to now is        2.1 secs

     total energy              =     -36.88770322 Ry
     estimated scf accuracy    <       0.00191557 Ry

     iteration #  3     ecut=    80.00 Ry     beta= 0.70
     Davidson diagonalization with overlap
     c_bands:  1 eigenvalues not converged
     c_bands:  1 eigenvalues not converged
     ethr =  2.39E-05,  avg # of iterations = 10.3

     negative rho (up, down):  1.644E-04 0.000E+00

     total cpu time spent up to now is        3.4 secs

     total energy              =     -36.88803887 Ry
     estimated scf accuracy    <       0.00015644 Ry

     iteration #  4     ecut=    80.00 Ry     beta= 0.70
     Davidson diagonalization with overlap
     c_bands:  1 eigenvalues not converged
     ethr =  1.96E-06,  avg # of iterations =  4.5

     negative rho (up, down):  1.661E-04 0.000E+00

     total cpu time spent up to now is        4.2 secs

     total energy              =     -36.88805357 Ry
     estimated scf accuracy    <       0.00000268 Ry

     iteration #  5     ecut=    80.00 Ry     beta= 0.70
     Davidson diagonalization with overlap
     ethr =  3.35E-08,  avg # of iterations =  2.9

     negative rho (up, down):  1.662E-04 0.000E+00

     total cpu time spent up to now is        4.9 secs

     total energy              =     -36.88805491 Ry
     estimated scf accuracy    <       0.00000008 Ry

     iteration #  6     ecut=    80.00 Ry     beta= 0.70
     Davidson diagonalization with overlap
     ethr =  9.84E-10,  avg # of iterations =  2.8

     negative rho (up, down):  1.662E-04 0.000E+00

     total cpu time spent up to now is        5.6 secs

     End of self-consistent calculation

     Number of k-points >= 100: set verbosity='high' to print the bands.

     the Fermi energy is    -4.3749 ev

!    total energy              =     -36.88805494 Ry
     total all-electron energy =      -152.416251 Ry
     estimated scf accuracy    <          9.6E-10 Ry
     smearing contrib. (-TS)   =       0.00005293 Ry
     internal energy E=F+TS    =     -36.88810786 Ry

     The total energy is F=E-TS. E is the sum of the following terms:
     one-electron contribution =    -313.05458532 Ry
     hartree contribution      =     157.40541660 Ry
     xc contribution           =      -9.27528099 Ry
     ewald contribution        =     140.37044101 Ry
     one-center paw contrib.   =     -12.33409917 Ry

     convergence has been achieved in   6 iterations

     Writing all to output data dir ./tmp/graphene.save/ :
     XML data file, charge density, pseudopotentials, collected wavefunctions
 
     init_run     :      0.28s CPU      0.31s WALL (       1 calls)
     electrons    :      5.12s CPU      5.28s WALL (       1 calls)

     Called by init_run:
     wfcinit      :      0.23s CPU      0.25s WALL (       1 calls)
     potinit      :      0.01s CPU      0.01s WALL (       1 calls)
     hinit0       :      0.01s CPU      0.02s WALL (       1 calls)

     Called by electrons:
     c_bands      :      4.40s CPU      4.54s WALL (       6 calls)
     sum_band     :      0.67s CPU      0.68s WALL (       6 calls)
     v_of_rho     :      0.01s CPU      0.02s WALL (       7 calls)
     newd         :      0.01s CPU      0.01s WALL (       7 calls)
     PAW_pot      :      0.03s CPU      0.03s WALL (       7 calls)
     mix_rho      :      0.00s CPU      0.00s WALL (       6 calls)

     Called by c_bands:
     init_us_2    :      0.10s CPU      0.10s WALL (    2743 calls)
     cegterg      :      4.23s CPU      4.37s WALL (    1266 calls)

     Called by *egterg:
     cdiaghg      :      0.31s CPU      0.31s WALL (    7610 calls)
     h_psi        :      3.58s CPU      3.70s WALL (    7821 calls)
     s_psi        :      0.05s CPU      0.05s WALL (    7821 calls)
     g_psi        :      0.02s CPU      0.02s WALL (    6344 calls)

     Called by h_psi:
     h_psi:calbec :      0.13s CPU      0.13s WALL (    7821 calls)
     vloc_psi     :      3.37s CPU      3.48s WALL (    7821 calls)
     add_vuspsi   :      0.05s CPU      0.05s WALL (    7821 calls)

     General routines
     calbec       :      0.15s CPU      0.15s WALL (    9087 calls)
     fft          :      0.01s CPU      0.01s WALL (      77 calls)
     ffts         :      0.00s CPU      0.00s WALL (       6 calls)
     fftw         :      3.43s CPU      3.55s WALL (   79002 calls)
 
     Parallel routines
 
     PWSCF        :      5.53s CPU      5.82s WALL

 
   This run was terminated on:  11:47: 4   9May2026            

=------------------------------------------------------------------------------=
   JOB DONE.
=------------------------------------------------------------------------------=
