
     Program PWSCF v.7.4 starts on  9May2026 at 11:30: 2 

     This program is part of the open-source Quantum ESPRESSO suite
     for quantum simulation of materials; please cite
         "P. Giannozzi et al., J. Phys.:Condens. Matter 21 395502 (2009);
         "P. Giannozzi et al., J. Phys.:Condens. Matter 29 465901 (2017);
         "P. Giannozzi et al., J. Chem. Phys. 152 154105 (2020);
          URL http://www.quantum-espresso.org", 
     in publications or presentations arising from this work. More details at
     http://www.quantum-espresso.org/quote

     Parallel version (MPI), running on     1 processors

     MPI processes distributed on     1 nodes
     156711 MiB available memory on the printing compute node when the environment starts
 
     Waiting for input...
     Reading input from standard input

     Current dimensions of program PWSCF are:
     Max number of different atomic species (ntypx) = 10
     Max number of k-points (npk) =  40000
     Max angular momentum in pseudopotentials (lmaxx) =  4
     file C.upf: wavefunction(s)  2S 2P renormalized
 
     Subspace diagonalization in iterative solution of the eigenvalue problem:
     a serial algorithm will be used

 
     G-vector sticks info
     --------------------
     sticks:   dense  smooth     PW     G-vecs:    dense   smooth      PW
     Sum         595     595    169                85433    85433   13411
 
     Using Slab Decomposition
 


     bravais-lattice index     =            4
     lattice parameter (alat)  =       4.6588  a.u.
     unit-cell volume          =     632.2600 (a.u.)^3
     number of atoms/cell      =            2
     number of atomic types    =            1
     number of electrons       =         8.00
     number of Kohn-Sham states=            8
     kinetic-energy cutoff     =     100.0000  Ry
     charge density cutoff     =     400.0000  Ry
     scf convergence threshold =      1.0E-09
     mixing beta               =       0.7000
     number of iterations used =            8  plain     mixing
     Exchange-correlation= SLA  PW   PBX  PBC
                           (   1   4   3   4   0   0   0)

     celldm(1)=   4.658790  celldm(2)=   0.000000  celldm(3)=   7.220142
     celldm(4)=   0.000000  celldm(5)=   0.000000  celldm(6)=   0.000000

     crystal axes: (cart. coord. in units of alat)
               a(1) = (   1.000000   0.000000   0.000000 )  
               a(2) = (  -0.500000   0.866025   0.000000 )  
               a(3) = (   0.000000   0.000000   7.220142 )  

     reciprocal axes: (cart. coord. in units 2 pi/alat)
               b(1) = (  1.000000  0.577350  0.000000 )  
               b(2) = (  0.000000  1.154701  0.000000 )  
               b(3) = (  0.000000  0.000000  0.138501 )  


     PseudoPot. # 1 for C  read from file:
     ./C.upf
     MD5 check sum: 5d2aebdfa2cae82b50a7e79e9516da0f
     Pseudo is Projector augmented-wave + core cor, Zval =  4.0
     Generated using "atomic" code by A. Dal Corso  v.5.1
     Shape of augmentation charge: PSQ
     Using radial grid of 1073 points,  4 beta functions with: 
                l(1) =   0
                l(2) =   0
                l(3) =   1
                l(4) =   1
     Q(r) pseudized with 0 coefficients 


     atomic species   valence    mass     pseudopotential
     C                 4.00    12.01070     C ( 1.00)

      4 Sym. Ops. (no inversion) found



   Cartesian axes

     site n.     atom                  positions (alat units)
         1        C      tau(   1) = (   0.4749641   0.2453946   3.6100711  )
         2        C      tau(   2) = (  -0.0249641   0.5340283   3.6100711  )

     number of k points=    31  Marzari-Vanderbilt smearing, width (Ry)=  0.0200
                       cart. coord. in units 2pi/alat
        k(    1) = (   0.0000000   0.0000000   0.0000000), wk =   0.0200000
        k(    2) = (   0.0000000   0.1154701   0.0000000), wk =   0.0800000
        k(    3) = (   0.0000000   0.2309401   0.0000000), wk =   0.0800000
        k(    4) = (   0.0000000   0.3464102   0.0000000), wk =   0.0800000
        k(    5) = (   0.0000000   0.4618802   0.0000000), wk =   0.0800000
        k(    6) = (   0.0000000  -0.5773503   0.0000000), wk =   0.0400000
        k(    7) = (   0.1000000   0.1732051   0.0000000), wk =   0.0400000
        k(    8) = (   0.1000000   0.2886751   0.0000000), wk =   0.0800000
        k(    9) = (   0.1000000   0.4041452   0.0000000), wk =   0.0800000
        k(   10) = (   0.1000000   0.5196152   0.0000000), wk =   0.0800000
        k(   11) = (   0.2000000   0.3464102   0.0000000), wk =   0.0400000
        k(   12) = (   0.2000000   0.4618802   0.0000000), wk =   0.0800000
        k(   13) = (   0.2000000   0.5773503   0.0000000), wk =   0.0800000
        k(   14) = (   0.3000000   0.5196152   0.0000000), wk =   0.0400000
        k(   15) = (  -0.1000000   0.0577350   0.0000000), wk =   0.0400000
        k(   16) = (  -0.2000000   0.1154701   0.0000000), wk =   0.0400000
        k(   17) = (  -0.3000000   0.1732051   0.0000000), wk =   0.0400000
        k(   18) = (  -0.4000000   0.2309401   0.0000000), wk =   0.0400000
        k(   19) = (   0.5000000  -0.2886751   0.0000000), wk =   0.0200000
        k(   20) = (  -0.1000000   0.1732051   0.0000000), wk =   0.0800000
        k(   21) = (  -0.2000000   0.2309401   0.0000000), wk =   0.0800000
        k(   22) = (   0.3000000   0.0577350   0.0000000), wk =   0.0800000
        k(   23) = (  -0.3000000   0.2886751   0.0000000), wk =   0.0800000
        k(   24) = (   0.4000000   0.1154701   0.0000000), wk =   0.0800000
        k(   25) = (  -0.4000000   0.3464102   0.0000000), wk =   0.0800000
        k(   26) = (   0.5000000   0.1732051   0.0000000), wk =   0.0800000
        k(   27) = (  -0.2000000   0.3464102   0.0000000), wk =   0.0800000
        k(   28) = (  -0.3000000   0.4041452   0.0000000), wk =   0.0800000
        k(   29) = (   0.5000000   0.0577350   0.0000000), wk =   0.0800000
        k(   30) = (  -0.4000000   0.4618802   0.0000000), wk =   0.0400000
        k(   31) = (  -0.3000000   0.5196152   0.0000000), wk =   0.0800000

     Dense  grid:    85433 G-vectors     FFT dimensions: (  30,  30, 216)

     Estimated max dynamical RAM per process >     152.31 MB
 ----2D----2D----2D----2D----2D----2D----2D----2D----2D----2D----2D----2D
  The code is running with the 2D cutoff
  Please refer to:
  Sohier, T., Calandra, M., & Mauri, F. (2017), 
  Density functional perturbation theory for gated two-dimensional heterostructu
 res:
  Theoretical developments and application to flexural phonons in graphene.
  Physical Review B, 96(7), 75448. https://doi.org/10.1103/PhysRevB.96.075448
 ----2D----2D----2D----2D----2D----2D----2D----2D----2D----2D----2D----2D

     Check: negative core charge=   -0.000002

     Initial potential from superposition of free atoms

     starting charge       7.9999, renormalised to       8.0000

     negative rho (up, down):  9.152E-05 0.000E+00
     Starting wfcs are    8 randomized atomic wfcs
     Checking if some PAW data can be deallocated... 

     total cpu time spent up to now is        0.9 secs

     per-process dynamical memory:   115.9 Mb

     Self-consistent Calculation

     iteration #  1     ecut=   100.00 Ry     beta= 0.70
     Davidson diagonalization with overlap
     ethr =  1.00E-02,  avg # of iterations =  5.8

     negative rho (up, down):  8.670E-05 0.000E+00

     total cpu time spent up to now is        3.2 secs

     total energy              =     -36.86280896 Ry
     estimated scf accuracy    <       0.18980517 Ry

     iteration #  2     ecut=   100.00 Ry     beta= 0.70
     Davidson diagonalization with overlap
     ethr =  2.37E-03,  avg # of iterations =  3.8

     negative rho (up, down):  9.954E-05 0.000E+00

     total cpu time spent up to now is        4.9 secs

     total energy              =     -36.88805529 Ry
     estimated scf accuracy    <       0.00193258 Ry

     iteration #  3     ecut=   100.00 Ry     beta= 0.70
     Davidson diagonalization with overlap
     ethr =  2.42E-05,  avg # of iterations = 10.5

     negative rho (up, down):  1.105E-04 0.000E+00

     total cpu time spent up to now is        7.8 secs

     total energy              =     -36.88839811 Ry
     estimated scf accuracy    <       0.00015889 Ry

     iteration #  4     ecut=   100.00 Ry     beta= 0.70
     Davidson diagonalization with overlap
     ethr =  1.99E-06,  avg # of iterations =  4.5

     negative rho (up, down):  1.115E-04 0.000E+00

     total cpu time spent up to now is        9.6 secs

     total energy              =     -36.88841290 Ry
     estimated scf accuracy    <       0.00000266 Ry

     iteration #  5     ecut=   100.00 Ry     beta= 0.70
     Davidson diagonalization with overlap
     ethr =  3.33E-08,  avg # of iterations =  2.9

     negative rho (up, down):  1.116E-04 0.000E+00

     total cpu time spent up to now is       11.2 secs

     total energy              =     -36.88841434 Ry
     estimated scf accuracy    <       0.00000008 Ry

     iteration #  6     ecut=   100.00 Ry     beta= 0.70
     Davidson diagonalization with overlap
     ethr =  9.98E-10,  avg # of iterations =  2.8

     negative rho (up, down):  1.116E-04 0.000E+00

     total cpu time spent up to now is       12.9 secs

     End of self-consistent calculation

          k = 0.0000 0.0000 0.0000 ( 10757 PWs)   bands (ev):

   -23.7745 -11.8677  -7.2964  -7.2903  -1.0278  -0.3050   0.7301   1.3616

          k = 0.0000 0.1155 0.0000 ( 10747 PWs)   bands (ev):

   -23.5384 -11.5856  -8.2101  -7.7686  -0.7064   0.0205   1.0556   1.6850

          k = 0.0000 0.2309 0.0000 ( 10709 PWs)   bands (ev):

   -22.8341 -10.7506 -10.3920  -8.7852   0.2572   0.9940   2.0316   2.6493

          k = 0.0000 0.3464 0.0000 ( 10689 PWs)   bands (ev):

   -21.6743 -13.0088  -9.7749  -9.4091   1.5885   1.8568   2.6499   3.5471

          k = 0.0000 0.4619 0.0000 ( 10663 PWs)   bands (ev):

   -20.0928 -15.5859 -10.4445  -7.7252  -1.0725   3.2643   4.1117   4.8875

          k = 0.0000-0.5774 0.0000 ( 10652 PWs)   bands (ev):

   -18.5320 -17.4954 -10.6779  -6.6030  -2.5569   3.1548   6.8460   6.9927

          k = 0.1000 0.1732 0.0000 ( 10715 PWs)   bands (ev):

   -23.0683 -11.0267  -9.5595  -8.7177  -0.0635   0.6705   1.7069   2.3304

          k = 0.1000 0.2887 0.0000 ( 10720 PWs)   bands (ev):

   -22.1362 -11.7228  -9.9622  -9.9341   1.2203   1.9575   2.7224   3.0085

          k = 0.1000 0.4041 0.0000 ( 10673 PWs)   bands (ev):

   -20.7634 -14.2344 -10.8798  -8.3894   0.0925   3.1325   3.9065   4.4327

          k = 0.1000 0.5196 0.0000 ( 10649 PWs)   bands (ev):

   -19.0284 -16.6148 -11.3568  -6.7478  -2.1749   4.1979   5.6724   6.4228

          k = 0.2000 0.3464 0.0000 ( 10677 PWs)   bands (ev):

   -20.9905 -13.1956 -11.7242  -8.6214   0.6653   2.8191   3.5613   4.6355

          k = 0.2000 0.4619 0.0000 ( 10652 PWs)   bands (ev):

   -19.4386 -15.1899 -12.7972  -6.9497  -1.5336   5.0276   5.6847   6.7079

          k = 0.2000 0.5774 0.0000 ( 10626 PWs)   bands (ev):

   -17.9255 -16.9392 -13.1017  -5.7429  -2.9370   6.5926   7.0847   7.6450

          k = 0.3000 0.5196 0.0000 ( 10624 PWs)   bands (ev):

   -17.8090 -16.1184 -14.4333  -5.2657  -3.2251   6.4899   7.4161   8.7810

          k =-0.1000 0.0577 0.0000 ( 10747 PWs)   bands (ev):

   -23.5384 -11.5856  -8.2139  -7.7645  -0.7064   0.0205   1.0556   1.6851

          k =-0.2000 0.1155 0.0000 ( 10709 PWs)   bands (ev):

   -22.8341 -10.7505 -10.3947  -8.7820   0.2572   0.9940   2.0316   2.6494

          k =-0.3000 0.1732 0.0000 ( 10689 PWs)   bands (ev):

   -21.6744 -13.0107  -9.7724  -9.4087   1.5872   1.8568   2.6497   3.5473

          k =-0.4000 0.2309 0.0000 ( 10663 PWs)   bands (ev):

   -20.0928 -15.5874 -10.4424  -7.7242  -1.0748   3.2653   4.1117   4.8875

          k = 0.5000-0.2887 0.0000 ( 10652 PWs)   bands (ev):

   -18.5308 -17.4980 -10.6758  -6.6009  -2.5604   3.1557   6.8463   6.9922

          k =-0.1000 0.1732 0.0000 ( 10715 PWs)   bands (ev):

   -23.0683 -11.0266  -9.5632  -8.7139  -0.0634   0.6705   1.7069   2.3305

          k =-0.2000 0.2309 0.0000 ( 10720 PWs)   bands (ev):

   -22.1362 -11.7256  -9.9588  -9.9338   1.2203   1.9576   2.7209   3.0086

          k = 0.3000 0.0577 0.0000 ( 10720 PWs)   bands (ev):

   -22.1362 -11.7241  -9.9607  -9.9339   1.2203   1.9576   2.7215   3.0087

          k =-0.3000 0.2887 0.0000 ( 10673 PWs)   bands (ev):

   -20.7635 -14.2362 -10.8774  -8.3887   0.0904   3.1326   3.9066   4.4345

          k = 0.4000 0.1155 0.0000 ( 10673 PWs)   bands (ev):

   -20.7635 -14.2347 -10.8794  -8.3892   0.0917   3.1326   3.9066   4.4334

          k =-0.4000 0.3464 0.0000 ( 10649 PWs)   bands (ev):

   -19.0282 -16.6165 -11.3548  -6.7460  -2.1780   4.1991   5.6723   6.4229

          k = 0.5000 0.1732 0.0000 ( 10649 PWs)   bands (ev):

   -19.0285 -16.6148 -11.3567  -6.7476  -2.1753   4.1982   5.6723   6.4229

          k =-0.2000 0.3464 0.0000 ( 10677 PWs)   bands (ev):

   -20.9906 -13.1981 -11.7214  -8.6210   0.6637   2.8191   3.5614   4.6355

          k =-0.3000 0.4041 0.0000 ( 10652 PWs)   bands (ev):

   -19.4386 -15.1920 -12.7949  -6.9486  -1.5360   5.0276   5.6850   6.7087

          k = 0.5000 0.0577 0.0000 ( 10652 PWs)   bands (ev):

   -19.4387 -15.1908 -12.7963  -6.9491  -1.5349   5.0277   5.6849   6.7081

          k =-0.4000 0.4619 0.0000 ( 10626 PWs)   bands (ev):

   -17.9242 -16.9419 -13.1000  -5.7407  -2.9401   6.5935   7.0855   7.6455

          k =-0.3000 0.5196 0.0000 ( 10624 PWs)   bands (ev):

   -17.8086 -16.1201 -14.4318  -5.2642  -3.2271   6.4906   7.4162   8.7779

     the Fermi energy is    -4.0604 ev

!    total energy              =     -36.88841437 Ry
     total all-electron energy =      -152.416610 Ry
     estimated scf accuracy    <          9.5E-10 Ry
     smearing contrib. (-TS)   =       0.00000000 Ry
     internal energy E=F+TS    =     -36.88841437 Ry

     The total energy is F=E-TS. E is the sum of the following terms:
     one-electron contribution =    -313.05491942 Ry
     hartree contribution      =     157.40538002 Ry
     xc contribution           =      -9.27523067 Ry
     ewald contribution        =     140.37044101 Ry
     one-center paw contrib.   =     -12.33408531 Ry

     convergence has been achieved in   6 iterations

     Writing all to output data dir ./tmp/graphene.save/ :
     XML data file, charge density, pseudopotentials, collected wavefunctions
 
     init_run     :      0.81s CPU      0.89s WALL (       1 calls)
     electrons    :     11.72s CPU     11.97s WALL (       1 calls)

     Called by init_run:
     wfcinit      :      0.53s CPU      0.54s WALL (       1 calls)
     potinit      :      0.09s CPU      0.10s WALL (       1 calls)
     hinit0       :      0.10s CPU      0.13s WALL (       1 calls)

     Called by electrons:
     c_bands      :      9.45s CPU      9.47s WALL (       6 calls)
     sum_band     :      1.68s CPU      1.79s WALL (       6 calls)
     v_of_rho     :      0.23s CPU      0.25s WALL (       7 calls)
     newd         :      0.15s CPU      0.27s WALL (       7 calls)
     PAW_pot      :      0.27s CPU      0.27s WALL (       7 calls)
     mix_rho      :      0.03s CPU      0.03s WALL (       6 calls)

     Called by c_bands:
     init_us_2    :      0.26s CPU      0.26s WALL (     403 calls)
     cegterg      :      9.06s CPU      9.08s WALL (     186 calls)

     Called by *egterg:
     cdiaghg      :      0.05s CPU      0.05s WALL (    1127 calls)
     h_psi        :      8.36s CPU      8.39s WALL (    1158 calls)
     s_psi        :      0.16s CPU      0.16s WALL (    1158 calls)
     g_psi        :      0.05s CPU      0.05s WALL (     941 calls)

     Called by h_psi:
     h_psi:calbec :      0.20s CPU      0.20s WALL (    1158 calls)
     vloc_psi     :      7.95s CPU      7.97s WALL (    1158 calls)
     add_vuspsi   :      0.16s CPU      0.16s WALL (    1158 calls)

     General routines
     calbec       :      0.25s CPU      0.25s WALL (    1344 calls)
     fft          :      0.07s CPU      0.08s WALL (      77 calls)
     ffts         :      0.00s CPU      0.00s WALL (       6 calls)
     fftw         :      7.55s CPU      7.56s WALL (   11596 calls)
 
     Parallel routines
 
     PWSCF        :     12.58s CPU     12.95s WALL

 
   This run was terminated on:  11:30:15   9May2026            

=------------------------------------------------------------------------------=
   JOB DONE.
=------------------------------------------------------------------------------=
