
     Program PWSCF v.7.4 starts on  9May2026 at 11:39:49 

     This program is part of the open-source Quantum ESPRESSO suite
     for quantum simulation of materials; please cite
         "P. Giannozzi et al., J. Phys.:Condens. Matter 21 395502 (2009);
         "P. Giannozzi et al., J. Phys.:Condens. Matter 29 465901 (2017);
         "P. Giannozzi et al., J. Chem. Phys. 152 154105 (2020);
          URL http://www.quantum-espresso.org", 
     in publications or presentations arising from this work. More details at
     http://www.quantum-espresso.org/quote

     Parallel version (MPI), running on    12 processors

     MPI processes distributed on     1 nodes
     155668 MiB available memory on the printing compute node when the environment starts
 
     Waiting for input...
     Reading input from standard input

     Current dimensions of program PWSCF are:
     Max number of different atomic species (ntypx) = 10
     Max number of k-points (npk) =  40000
     Max angular momentum in pseudopotentials (lmaxx) =  4
     file C.upf: wavefunction(s)  2S 2P renormalized
 
     R & G space division:  proc/nbgrp/npool/nimage =      12
     Subspace diagonalization in iterative solution of the eigenvalue problem:
     a serial algorithm will be used

 
     Parallelization info
     --------------------
     sticks:   dense  smooth     PW     G-vecs:    dense   smooth      PW
     Min          49      49     14                 7111     7111    1126
     Max          50      50     15                 7132     7132    1150
     Sum         595     595    169                85433    85433   13653
 
     Using Slab Decomposition
 


     bravais-lattice index     =            4
     lattice parameter (alat)  =       4.6588  a.u.
     unit-cell volume          =     632.2600 (a.u.)^3
     number of atoms/cell      =            2
     number of atomic types    =            1
     number of electrons       =         8.00
     number of Kohn-Sham states=            8
     kinetic-energy cutoff     =     100.0000  Ry
     charge density cutoff     =     400.0000  Ry
     scf convergence threshold =      1.0E-09
     mixing beta               =       0.7000
     number of iterations used =            8  plain     mixing
     Exchange-correlation= SLA  PW   PBX  PBC
                           (   1   4   3   4   0   0   0)

     celldm(1)=   4.658790  celldm(2)=   0.000000  celldm(3)=   7.220142
     celldm(4)=   0.000000  celldm(5)=   0.000000  celldm(6)=   0.000000

     crystal axes: (cart. coord. in units of alat)
               a(1) = (   1.000000   0.000000   0.000000 )  
               a(2) = (  -0.500000   0.866025   0.000000 )  
               a(3) = (   0.000000   0.000000   7.220142 )  

     reciprocal axes: (cart. coord. in units 2 pi/alat)
               b(1) = (  1.000000  0.577350  0.000000 )  
               b(2) = (  0.000000  1.154701  0.000000 )  
               b(3) = (  0.000000  0.000000  0.138501 )  


     PseudoPot. # 1 for C  read from file:
     ./C.upf
     MD5 check sum: 5d2aebdfa2cae82b50a7e79e9516da0f
     Pseudo is Projector augmented-wave + core cor, Zval =  4.0
     Generated using "atomic" code by A. Dal Corso  v.5.1
     Shape of augmentation charge: PSQ
     Using radial grid of 1073 points,  4 beta functions with: 
                l(1) =   0
                l(2) =   0
                l(3) =   1
                l(4) =   1
     Q(r) pseudized with 0 coefficients 


     atomic species   valence    mass     pseudopotential
     C                 4.00    12.01070     C ( 1.00)

      4 Sym. Ops. (no inversion) found



   Cartesian axes

     site n.     atom                  positions (alat units)
         1        C      tau(   1) = (   0.4749641   0.2453946   3.6100711  )
         2        C      tau(   2) = (  -0.0249641   0.5340283   3.6100711  )

     number of k points=    43  Marzari-Vanderbilt smearing, width (Ry)=  0.0200
                       cart. coord. in units 2pi/alat
        k(    1) = (   0.0000000   0.0000000   0.0000000), wk =   0.0138889
        k(    2) = (   0.0000000   0.0962250   0.0000000), wk =   0.0555556
        k(    3) = (   0.0000000   0.1924501   0.0000000), wk =   0.0555556
        k(    4) = (   0.0000000   0.2886751   0.0000000), wk =   0.0555556
        k(    5) = (   0.0000000   0.3849002   0.0000000), wk =   0.0555556
        k(    6) = (   0.0000000   0.4811252   0.0000000), wk =   0.0555556
        k(    7) = (   0.0000000  -0.5773503   0.0000000), wk =   0.0277778
        k(    8) = (   0.0833333   0.1443376   0.0000000), wk =   0.0277778
        k(    9) = (   0.0833333   0.2405626   0.0000000), wk =   0.0555556
        k(   10) = (   0.0833333   0.3367877   0.0000000), wk =   0.0555556
        k(   11) = (   0.0833333   0.4330127   0.0000000), wk =   0.0555556
        k(   12) = (   0.0833333   0.5292377   0.0000000), wk =   0.0555556
        k(   13) = (   0.1666667   0.2886751   0.0000000), wk =   0.0277778
        k(   14) = (   0.1666667   0.3849002   0.0000000), wk =   0.0555556
        k(   15) = (   0.1666667   0.4811252   0.0000000), wk =   0.0555556
        k(   16) = (   0.1666667   0.5773503   0.0000000), wk =   0.0555556
        k(   17) = (   0.2500000   0.4330127   0.0000000), wk =   0.0277778
        k(   18) = (   0.2500000   0.5292377   0.0000000), wk =   0.0555556
        k(   19) = (   0.3333333   0.5773503   0.0000000), wk =   0.0277778
        k(   20) = (  -0.0833333   0.0481125   0.0000000), wk =   0.0277778
        k(   21) = (  -0.1666667   0.0962250   0.0000000), wk =   0.0277778
        k(   22) = (  -0.2500000   0.1443376   0.0000000), wk =   0.0277778
        k(   23) = (  -0.3333333   0.1924501   0.0000000), wk =   0.0277778
        k(   24) = (  -0.4166667   0.2405626   0.0000000), wk =   0.0277778
        k(   25) = (   0.5000000  -0.2886751   0.0000000), wk =   0.0138889
        k(   26) = (  -0.0833333   0.1443376   0.0000000), wk =   0.0555556
        k(   27) = (  -0.1666667   0.1924501   0.0000000), wk =   0.0555556
        k(   28) = (   0.2500000   0.0481125   0.0000000), wk =   0.0555556
        k(   29) = (  -0.2500000   0.2405626   0.0000000), wk =   0.0555556
        k(   30) = (   0.3333333   0.0962250   0.0000000), wk =   0.0555556
        k(   31) = (  -0.3333333   0.2886751   0.0000000), wk =   0.0555556
        k(   32) = (   0.4166667   0.1443376   0.0000000), wk =   0.0555556
        k(   33) = (  -0.4166667   0.3367877   0.0000000), wk =   0.0555556
        k(   34) = (   0.5000000   0.1924501   0.0000000), wk =   0.0555556
        k(   35) = (  -0.1666667   0.2886751   0.0000000), wk =   0.0555556
        k(   36) = (  -0.2500000   0.3367877   0.0000000), wk =   0.0555556
        k(   37) = (   0.4166667   0.0481125   0.0000000), wk =   0.0555556
        k(   38) = (  -0.3333333   0.3849002   0.0000000), wk =   0.0555556
        k(   39) = (   0.5000000   0.0962250   0.0000000), wk =   0.0555556
        k(   40) = (  -0.4166667   0.4330127   0.0000000), wk =   0.0277778
        k(   41) = (  -0.2500000   0.4330127   0.0000000), wk =   0.0555556
        k(   42) = (  -0.3333333   0.4811252   0.0000000), wk =   0.0555556
        k(   43) = (   0.5833333   0.0481125   0.0000000), wk =   0.0555556

     Dense  grid:    85433 G-vectors     FFT dimensions: (  30,  30, 216)

     Estimated max dynamical RAM per process >      14.40 MB

     Estimated total dynamical RAM >     172.83 MB
 ----2D----2D----2D----2D----2D----2D----2D----2D----2D----2D----2D----2D
  The code is running with the 2D cutoff
  Please refer to:
  Sohier, T., Calandra, M., & Mauri, F. (2017), 
  Density functional perturbation theory for gated two-dimensional heterostructu
 res:
  Theoretical developments and application to flexural phonons in graphene.
  Physical Review B, 96(7), 75448. https://doi.org/10.1103/PhysRevB.96.075448
 ----2D----2D----2D----2D----2D----2D----2D----2D----2D----2D----2D----2D

     Check: negative core charge=   -0.000002

     Initial potential from superposition of free atoms

     starting charge       7.9999, renormalised to       8.0000

     negative rho (up, down):  9.152E-05 0.000E+00
     Starting wfcs are    8 randomized atomic wfcs
     Checking if some PAW data can be deallocated... 

     total cpu time spent up to now is        0.2 secs

     per-process dynamical memory:    45.6 Mb

     Self-consistent Calculation

     iteration #  1     ecut=   100.00 Ry     beta= 0.70
     Davidson diagonalization with overlap
     ethr =  1.00E-02,  avg # of iterations =  5.7

     negative rho (up, down):  8.630E-05 0.000E+00

     total cpu time spent up to now is        0.5 secs

     total energy              =     -36.86232665 Ry
     estimated scf accuracy    <       0.18941350 Ry

     iteration #  2     ecut=   100.00 Ry     beta= 0.70
     Davidson diagonalization with overlap
     ethr =  2.37E-03,  avg # of iterations =  4.2

     negative rho (up, down):  9.914E-05 0.000E+00

     total cpu time spent up to now is        0.7 secs

     total energy              =     -36.88737008 Ry
     estimated scf accuracy    <       0.00194079 Ry

     iteration #  3     ecut=   100.00 Ry     beta= 0.70
     Davidson diagonalization with overlap
     ethr =  2.43E-05,  avg # of iterations =  9.7

     negative rho (up, down):  1.104E-04 0.000E+00

     total cpu time spent up to now is        1.0 secs

     total energy              =     -36.88771121 Ry
     estimated scf accuracy    <       0.00015540 Ry

     iteration #  4     ecut=   100.00 Ry     beta= 0.70
     Davidson diagonalization with overlap
     c_bands:  1 eigenvalues not converged
     ethr =  1.94E-06,  avg # of iterations =  4.4

     negative rho (up, down):  1.115E-04 0.000E+00

     total cpu time spent up to now is        1.3 secs

     total energy              =     -36.88772735 Ry
     estimated scf accuracy    <       0.00000229 Ry

     iteration #  5     ecut=   100.00 Ry     beta= 0.70
     Davidson diagonalization with overlap
     ethr =  2.86E-08,  avg # of iterations =  3.0

     negative rho (up, down):  1.116E-04 0.000E+00

     total cpu time spent up to now is        1.5 secs

     total energy              =     -36.88772863 Ry
     estimated scf accuracy    <       0.00000008 Ry

     iteration #  6     ecut=   100.00 Ry     beta= 0.70
     Davidson diagonalization with overlap
     ethr =  9.74E-10,  avg # of iterations =  2.7

     negative rho (up, down):  1.116E-04 0.000E+00

     total cpu time spent up to now is        1.7 secs

     End of self-consistent calculation

          k = 0.0000 0.0000 0.0000 ( 10757 PWs)   bands (ev):

   -23.7738 -11.8672  -7.2956  -7.2895  -1.0277  -0.3050   0.7301   1.3616

          k = 0.0000 0.0962 0.0000 ( 10737 PWs)   bands (ev):

   -23.6098 -11.6711  -7.9425  -7.6328  -0.8045  -0.0789   0.9561   1.5863

          k = 0.0000 0.1925 0.0000 ( 10735 PWs)   bands (ev):

   -23.1197 -11.0880  -9.5820  -8.4260  -0.1351   0.5982   1.6342   2.2583

          k = 0.0000 0.2887 0.0000 ( 10685 PWs)   bands (ev):

   -22.3092 -11.6824 -10.1372  -9.3068   0.9786   1.7135   2.7610   2.9849

          k = 0.0000 0.3849 0.0000 ( 10681 PWs)   bands (ev):

   -21.1903 -13.8874 -10.0411  -8.8690   0.6756   2.5254   3.3185   3.4902

          k = 0.0000 0.4811 0.0000 ( 10659 PWs)   bands (ev):

   -19.7943 -15.9887 -10.5146  -7.4466  -1.4590   3.2345   4.5369   5.3229

          k = 0.0000-0.5774 0.0000 ( 10652 PWs)   bands (ev):

   -18.5313 -17.4948 -10.6771  -6.6024  -2.5563   3.1555   6.8461   6.9928

          k = 0.0833 0.1443 0.0000 ( 10711 PWs)   bands (ev):

   -23.2828 -11.2814  -8.9760  -8.3123  -0.3580   0.3728   1.4084   2.0350

          k = 0.0833 0.2406 0.0000 ( 10714 PWs)   bands (ev):

   -22.6325 -10.6882 -10.5133  -9.3108   0.5343   1.2732   2.3127   2.9258

          k = 0.0833 0.3368 0.0000 ( 10708 PWs)   bands (ev):

   -21.6676 -12.7635 -10.1975  -9.3973   1.6865   1.8685   2.6433   3.6620

          k = 0.0833 0.4330 0.0000 ( 10664 PWs)   bands (ev):

   -20.4071 -14.8879 -10.8328  -8.0179  -0.5120   3.6187   4.0889   4.4184

          k = 0.0833 0.5292 0.0000 ( 10650 PWs)   bands (ev):

   -18.9275 -16.8302 -11.1615  -6.7090  -2.2803   3.8940   5.8371   6.6034

          k = 0.1667 0.2887 0.0000 ( 10701 PWs)   bands (ev):

   -21.8278 -12.0194 -10.6743  -9.5761   1.6482   2.1445   2.3934   3.4438

          k = 0.1667 0.3849 0.0000 ( 10675 PWs)   bands (ev):

   -20.7198 -13.7485 -11.7310  -8.3231   0.1970   3.1987   3.9439   5.0205

          k = 0.1667 0.4811 0.0000 ( 10646 PWs)   bands (ev):

   -19.3438 -15.6607 -12.3069  -6.8966  -1.7152   5.1601   5.8076   5.8601

          k = 0.1667 0.5774 0.0000 ( 10644 PWs)   bands (ev):

   -18.1099 -17.0956 -12.4917  -6.0041  -2.7834   5.7025   7.3550   7.4114

          k = 0.2500 0.4330 0.0000 ( 10673 PWs)   bands (ev):

   -19.4914 -14.7845 -13.2153  -6.9805  -1.4177   4.9501   5.5811   6.8163

          k = 0.2500 0.5292 0.0000 ( 10626 PWs)   bands (ev):

   -18.0692 -16.2067 -13.9228  -5.5950  -2.9381   6.6310   7.0501   7.9684

          k = 0.3333 0.5774 0.0000 ( 10602 PWs)   bands (ev):

   -16.8524 -16.8504 -14.8177  -4.2392  -4.2365   6.3789   8.6401   8.6422

          k =-0.0833 0.0481 0.0000 ( 10737 PWs)   bands (ev):

   -23.6098 -11.6710  -7.9465  -7.6286  -0.8045  -0.0789   0.9561   1.5863

          k =-0.1667 0.0962 0.0000 ( 10735 PWs)   bands (ev):

   -23.1197 -11.0879  -9.5850  -8.4226  -0.1351   0.5982   1.6342   2.2584

          k =-0.2500 0.1443 0.0000 ( 10685 PWs)   bands (ev):

   -22.3092 -11.6846 -10.1370  -9.3040   0.9786   1.7135   2.7611   2.9842

          k =-0.3333 0.1925 0.0000 ( 10681 PWs)   bands (ev):

   -21.1904 -13.8890 -10.0387  -8.8684   0.6739   2.5254   3.3184   3.4915

          k =-0.4167 0.2406 0.0000 ( 10659 PWs)   bands (ev):

   -19.7943 -15.9902 -10.5125  -7.4453  -1.4615   3.2354   4.5368   5.3228

          k = 0.5000-0.2887 0.0000 ( 10652 PWs)   bands (ev):

   -18.5301 -17.4973 -10.6751  -6.6002  -2.5598   3.1563   6.8465   6.9924

          k =-0.0833 0.1443 0.0000 ( 10711 PWs)   bands (ev):

   -23.2828 -11.2813  -8.9798  -8.3083  -0.3580   0.3728   1.4084   2.0349

          k =-0.1667 0.1925 0.0000 ( 10714 PWs)   bands (ev):

   -22.6325 -10.6914 -10.5131  -9.3071   0.5344   1.2732   2.3128   2.9261

          k = 0.2500 0.0481 0.0000 ( 10714 PWs)   bands (ev):

   -22.6325 -10.6898 -10.5132  -9.3090   0.5344   1.2732   2.3127   2.9260

          k =-0.2500 0.2406 0.0000 ( 10708 PWs)   bands (ev):

   -21.6677 -12.7657 -10.1947  -9.3969   1.6850   1.8685   2.6433   3.6621

          k = 0.3333 0.0962 0.0000 ( 10708 PWs)   bands (ev):

   -21.6676 -12.7641 -10.1968  -9.3972   1.6858   1.8685   2.6434   3.6621

          k =-0.3333 0.2887 0.0000 ( 10664 PWs)   bands (ev):

   -20.4071 -14.8895 -10.8306  -8.0170  -0.5143   3.6188   4.0902   4.4185

          k = 0.4167 0.1443 0.0000 ( 10664 PWs)   bands (ev):

   -20.4071 -14.8881 -10.8325  -8.0177  -0.5125   3.6188   4.0892   4.4184

          k =-0.4167 0.3368 0.0000 ( 10650 PWs)   bands (ev):

   -18.9272 -16.8319 -11.1595  -6.7071  -2.2835   3.8950   5.8370   6.6035

          k = 0.5000 0.1925 0.0000 ( 10650 PWs)   bands (ev):

   -18.9276 -16.8302 -11.1614  -6.7088  -2.2806   3.8941   5.8370   6.6036

          k =-0.1667 0.2887 0.0000 ( 10701 PWs)   bands (ev):

   -21.8278 -12.0222 -10.6712  -9.5758   1.6482   2.1431   2.3934   3.4437

          k =-0.2500 0.3368 0.0000 ( 10675 PWs)   bands (ev):

   -20.7199 -13.7508 -11.7282  -8.3225   0.1950   3.1987   3.9440   5.0206

          k = 0.4167 0.0481 0.0000 ( 10675 PWs)   bands (ev):

   -20.7199 -13.7497 -11.7296  -8.3227   0.1957   3.1988   3.9440   5.0206

          k =-0.3333 0.3849 0.0000 ( 10646 PWs)   bands (ev):

   -19.3437 -15.6625 -12.3049  -6.8952  -1.7179   5.1602   5.8091   5.8606

          k = 0.5000 0.0962 0.0000 ( 10646 PWs)   bands (ev):

   -19.3438 -15.6611 -12.3065  -6.8961  -1.7162   5.1603   5.8080   5.8604

          k =-0.4167 0.4330 0.0000 ( 10644 PWs)   bands (ev):

   -18.1087 -17.0982 -12.4900  -6.0019  -2.7867   5.7035   7.3567   7.4118

          k =-0.2500 0.4330 0.0000 ( 10673 PWs)   bands (ev):

   -19.4915 -14.7865 -13.2130  -6.9797  -1.4195   4.9501   5.5814   6.8165

          k =-0.3333 0.4811 0.0000 ( 10626 PWs)   bands (ev):

   -18.0688 -16.2089 -13.9209  -5.5932  -2.9407   6.6319   7.0502   7.9690

          k = 0.5833 0.0481 0.0000 ( 10626 PWs)   bands (ev):

   -18.0691 -16.2074 -13.9221  -5.5942  -2.9392   6.6315   7.0503   7.9680

     the Fermi energy is    -4.1999 ev

!    total energy              =     -36.88772866 Ry
     total all-electron energy =      -152.415924 Ry
     estimated scf accuracy    <          7.6E-10 Ry
     smearing contrib. (-TS)   =      -0.00018231 Ry
     internal energy E=F+TS    =     -36.88754634 Ry

     The total energy is F=E-TS. E is the sum of the following terms:
     one-electron contribution =    -313.05440532 Ry
     hartree contribution      =     157.40579915 Ry
     xc contribution           =      -9.27529393 Ry
     ewald contribution        =     140.37044101 Ry
     one-center paw contrib.   =     -12.33408726 Ry

     convergence has been achieved in   6 iterations

     Writing all to output data dir ./tmp/graphene.save/ :
     XML data file, charge density, pseudopotentials, collected wavefunctions
 
     init_run     :      0.13s CPU      0.15s WALL (       1 calls)
     electrons    :      1.44s CPU      1.49s WALL (       1 calls)

     Called by init_run:
     wfcinit      :      0.07s CPU      0.08s WALL (       1 calls)
     potinit      :      0.01s CPU      0.01s WALL (       1 calls)
     hinit0       :      0.01s CPU      0.02s WALL (       1 calls)

     Called by electrons:
     c_bands      :      1.19s CPU      1.22s WALL (       6 calls)
     sum_band     :      0.19s CPU      0.20s WALL (       6 calls)
     v_of_rho     :      0.02s CPU      0.02s WALL (       7 calls)
     newd         :      0.01s CPU      0.02s WALL (       7 calls)
     PAW_pot      :      0.04s CPU      0.04s WALL (       7 calls)
     mix_rho      :      0.00s CPU      0.00s WALL (       6 calls)

     Called by c_bands:
     init_us_2    :      0.03s CPU      0.03s WALL (     559 calls)
     cegterg      :      1.14s CPU      1.18s WALL (     258 calls)

     Called by *egterg:
     cdiaghg      :      0.06s CPU      0.07s WALL (    1534 calls)
     h_psi        :      0.98s CPU      1.02s WALL (    1577 calls)
     s_psi        :      0.01s CPU      0.01s WALL (    1577 calls)
     g_psi        :      0.01s CPU      0.01s WALL (    1276 calls)

     Called by h_psi:
     h_psi:calbec :      0.03s CPU      0.03s WALL (    1577 calls)
     vloc_psi     :      0.93s CPU      0.96s WALL (    1577 calls)
     add_vuspsi   :      0.01s CPU      0.01s WALL (    1577 calls)

     General routines
     calbec       :      0.04s CPU      0.04s WALL (    1835 calls)
     fft          :      0.01s CPU      0.02s WALL (      77 calls)
     ffts         :      0.00s CPU      0.00s WALL (       6 calls)
     fftw         :      0.93s CPU      0.96s WALL (   16002 calls)
 
     Parallel routines
 
     PWSCF        :      1.64s CPU      1.74s WALL

 
   This run was terminated on:  11:39:51   9May2026            

=------------------------------------------------------------------------------=
   JOB DONE.
=------------------------------------------------------------------------------=
