
     Program PWSCF v.7.4 starts on  9May2026 at 11:30:33 

     This program is part of the open-source Quantum ESPRESSO suite
     for quantum simulation of materials; please cite
         "P. Giannozzi et al., J. Phys.:Condens. Matter 21 395502 (2009);
         "P. Giannozzi et al., J. Phys.:Condens. Matter 29 465901 (2017);
         "P. Giannozzi et al., J. Chem. Phys. 152 154105 (2020);
          URL http://www.quantum-espresso.org", 
     in publications or presentations arising from this work. More details at
     http://www.quantum-espresso.org/quote

     Parallel version (MPI), running on     1 processors

     MPI processes distributed on     1 nodes
     156799 MiB available memory on the printing compute node when the environment starts
 
     Waiting for input...
     Reading input from standard input

     Current dimensions of program PWSCF are:
     Max number of different atomic species (ntypx) = 10
     Max number of k-points (npk) =  40000
     Max angular momentum in pseudopotentials (lmaxx) =  4
     file C.upf: wavefunction(s)  2S 2P renormalized
 
     Subspace diagonalization in iterative solution of the eigenvalue problem:
     a serial algorithm will be used

 
     G-vector sticks info
     --------------------
     sticks:   dense  smooth     PW     G-vecs:    dense   smooth      PW
     Sum         595     595    169                85433    85433   13653
 
     Using Slab Decomposition
 


     bravais-lattice index     =            4
     lattice parameter (alat)  =       4.6588  a.u.
     unit-cell volume          =     632.2600 (a.u.)^3
     number of atoms/cell      =            2
     number of atomic types    =            1
     number of electrons       =         8.00
     number of Kohn-Sham states=            8
     kinetic-energy cutoff     =     100.0000  Ry
     charge density cutoff     =     400.0000  Ry
     scf convergence threshold =      1.0E-09
     mixing beta               =       0.7000
     number of iterations used =            8  plain     mixing
     Exchange-correlation= SLA  PW   PBX  PBC
                           (   1   4   3   4   0   0   0)

     celldm(1)=   4.658790  celldm(2)=   0.000000  celldm(3)=   7.220142
     celldm(4)=   0.000000  celldm(5)=   0.000000  celldm(6)=   0.000000

     crystal axes: (cart. coord. in units of alat)
               a(1) = (   1.000000   0.000000   0.000000 )  
               a(2) = (  -0.500000   0.866025   0.000000 )  
               a(3) = (   0.000000   0.000000   7.220142 )  

     reciprocal axes: (cart. coord. in units 2 pi/alat)
               b(1) = (  1.000000  0.577350  0.000000 )  
               b(2) = (  0.000000  1.154701  0.000000 )  
               b(3) = (  0.000000  0.000000  0.138501 )  


     PseudoPot. # 1 for C  read from file:
     ./C.upf
     MD5 check sum: 5d2aebdfa2cae82b50a7e79e9516da0f
     Pseudo is Projector augmented-wave + core cor, Zval =  4.0
     Generated using "atomic" code by A. Dal Corso  v.5.1
     Shape of augmentation charge: PSQ
     Using radial grid of 1073 points,  4 beta functions with: 
                l(1) =   0
                l(2) =   0
                l(3) =   1
                l(4) =   1
     Q(r) pseudized with 0 coefficients 


     atomic species   valence    mass     pseudopotential
     C                 4.00    12.01070     C ( 1.00)

      4 Sym. Ops. (no inversion) found



   Cartesian axes

     site n.     atom                  positions (alat units)
         1        C      tau(   1) = (   0.4749641   0.2453946   3.6100711  )
         2        C      tau(   2) = (  -0.0249641   0.5340283   3.6100711  )

     number of k points=    64  Marzari-Vanderbilt smearing, width (Ry)=  0.0200
                       cart. coord. in units 2pi/alat
        k(    1) = (   0.0000000   0.0000000   0.0000000), wk =   0.0088889
        k(    2) = (   0.0000000   0.0769800   0.0000000), wk =   0.0355556
        k(    3) = (   0.0000000   0.1539601   0.0000000), wk =   0.0355556
        k(    4) = (   0.0000000   0.2309401   0.0000000), wk =   0.0355556
        k(    5) = (   0.0000000   0.3079201   0.0000000), wk =   0.0355556
        k(    6) = (   0.0000000   0.3849002   0.0000000), wk =   0.0355556
        k(    7) = (   0.0000000   0.4618802   0.0000000), wk =   0.0355556
        k(    8) = (   0.0000000   0.5388603   0.0000000), wk =   0.0355556
        k(    9) = (   0.0666667   0.1154701   0.0000000), wk =   0.0177778
        k(   10) = (   0.0666667   0.1924501   0.0000000), wk =   0.0355556
        k(   11) = (   0.0666667   0.2694301   0.0000000), wk =   0.0355556
        k(   12) = (   0.0666667   0.3464102   0.0000000), wk =   0.0355556
        k(   13) = (   0.0666667   0.4233902   0.0000000), wk =   0.0355556
        k(   14) = (   0.0666667   0.5003702   0.0000000), wk =   0.0355556
        k(   15) = (   0.0666667   0.5773503   0.0000000), wk =   0.0355556
        k(   16) = (   0.1333333   0.2309401   0.0000000), wk =   0.0177778
        k(   17) = (   0.1333333   0.3079201   0.0000000), wk =   0.0355556
        k(   18) = (   0.1333333   0.3849002   0.0000000), wk =   0.0355556
        k(   19) = (   0.1333333   0.4618802   0.0000000), wk =   0.0355556
        k(   20) = (   0.1333333   0.5388603   0.0000000), wk =   0.0355556
        k(   21) = (   0.2000000   0.3464102   0.0000000), wk =   0.0177778
        k(   22) = (   0.2000000   0.4233902   0.0000000), wk =   0.0355556
        k(   23) = (   0.2000000   0.5003702   0.0000000), wk =   0.0355556
        k(   24) = (   0.2000000   0.5773503   0.0000000), wk =   0.0355556
        k(   25) = (   0.2666667   0.4618802   0.0000000), wk =   0.0177778
        k(   26) = (   0.2666667   0.5388603   0.0000000), wk =   0.0355556
        k(   27) = (   0.3333333   0.5773503   0.0000000), wk =   0.0177778
        k(   28) = (  -0.0666667   0.0384900   0.0000000), wk =   0.0177778
        k(   29) = (  -0.1333333   0.0769800   0.0000000), wk =   0.0177778
        k(   30) = (  -0.2000000   0.1154701   0.0000000), wk =   0.0177778
        k(   31) = (  -0.2666667   0.1539601   0.0000000), wk =   0.0177778
        k(   32) = (  -0.3333333   0.1924501   0.0000000), wk =   0.0177778
        k(   33) = (  -0.4000000   0.2309401   0.0000000), wk =   0.0177778
        k(   34) = (  -0.4666667   0.2694301   0.0000000), wk =   0.0177778
        k(   35) = (  -0.0666667   0.1154701   0.0000000), wk =   0.0355556
        k(   36) = (  -0.1333333   0.1539601   0.0000000), wk =   0.0355556
        k(   37) = (   0.2000000   0.0384900   0.0000000), wk =   0.0355556
        k(   38) = (  -0.2000000   0.1924501   0.0000000), wk =   0.0355556
        k(   39) = (   0.2666667   0.0769800   0.0000000), wk =   0.0355556
        k(   40) = (  -0.2666667   0.2309401   0.0000000), wk =   0.0355556
        k(   41) = (   0.3333333   0.1154701   0.0000000), wk =   0.0355556
        k(   42) = (  -0.3333333   0.2694301   0.0000000), wk =   0.0355556
        k(   43) = (   0.4000000   0.1539601   0.0000000), wk =   0.0355556
        k(   44) = (  -0.4000000   0.3079201   0.0000000), wk =   0.0355556
        k(   45) = (   0.4666667   0.1924501   0.0000000), wk =   0.0355556
        k(   46) = (  -0.4666667   0.3464102   0.0000000), wk =   0.0177778
        k(   47) = (  -0.1333333   0.2309401   0.0000000), wk =   0.0355556
        k(   48) = (  -0.2000000   0.2694301   0.0000000), wk =   0.0355556
        k(   49) = (   0.3333333   0.0384900   0.0000000), wk =   0.0355556
        k(   50) = (  -0.2666667   0.3079201   0.0000000), wk =   0.0355556
        k(   51) = (   0.4000000   0.0769800   0.0000000), wk =   0.0355556
        k(   52) = (  -0.3333333   0.3464102   0.0000000), wk =   0.0355556
        k(   53) = (   0.4666667   0.1154701   0.0000000), wk =   0.0355556
        k(   54) = (  -0.4000000   0.3849002   0.0000000), wk =   0.0355556
        k(   55) = (   0.5333333   0.1539601   0.0000000), wk =   0.0355556
        k(   56) = (  -0.2000000   0.3464102   0.0000000), wk =   0.0355556
        k(   57) = (  -0.2666667   0.3849002   0.0000000), wk =   0.0355556
        k(   58) = (   0.4666667   0.0384900   0.0000000), wk =   0.0355556
        k(   59) = (  -0.3333333   0.4233902   0.0000000), wk =   0.0355556
        k(   60) = (   0.5333333   0.0769800   0.0000000), wk =   0.0355556
        k(   61) = (  -0.4000000   0.4618802   0.0000000), wk =   0.0177778
        k(   62) = (  -0.2666667   0.4618802   0.0000000), wk =   0.0355556
        k(   63) = (  -0.3333333   0.5003702   0.0000000), wk =   0.0355556
        k(   64) = (   0.6000000   0.0384900   0.0000000), wk =   0.0355556

     Dense  grid:    85433 G-vectors     FFT dimensions: (  30,  30, 216)

     Estimated max dynamical RAM per process >     195.32 MB
 ----2D----2D----2D----2D----2D----2D----2D----2D----2D----2D----2D----2D
  The code is running with the 2D cutoff
  Please refer to:
  Sohier, T., Calandra, M., & Mauri, F. (2017), 
  Density functional perturbation theory for gated two-dimensional heterostructu
 res:
  Theoretical developments and application to flexural phonons in graphene.
  Physical Review B, 96(7), 75448. https://doi.org/10.1103/PhysRevB.96.075448
 ----2D----2D----2D----2D----2D----2D----2D----2D----2D----2D----2D----2D

     Check: negative core charge=   -0.000002

     Initial potential from superposition of free atoms

     starting charge       7.9999, renormalised to       8.0000

     negative rho (up, down):  9.152E-05 0.000E+00
     Starting wfcs are    8 randomized atomic wfcs
     Checking if some PAW data can be deallocated... 

     total cpu time spent up to now is        1.6 secs

     per-process dynamical memory:   161.7 Mb

     Self-consistent Calculation

     iteration #  1     ecut=   100.00 Ry     beta= 0.70
     Davidson diagonalization with overlap
     ethr =  1.00E-02,  avg # of iterations =  5.5

     negative rho (up, down):  8.745E-05 0.000E+00

     total cpu time spent up to now is        6.1 secs

     total energy              =     -36.86269409 Ry
     estimated scf accuracy    <       0.18914122 Ry

     iteration #  2     ecut=   100.00 Ry     beta= 0.70
     Davidson diagonalization with overlap
     ethr =  2.36E-03,  avg # of iterations =  3.7

     negative rho (up, down):  1.003E-04 0.000E+00

     total cpu time spent up to now is        9.3 secs

     total energy              =     -36.88757007 Ry
     estimated scf accuracy    <       0.00190971 Ry

     iteration #  3     ecut=   100.00 Ry     beta= 0.70
     Davidson diagonalization with overlap
     ethr =  2.39E-05,  avg # of iterations = 10.9

     negative rho (up, down):  1.105E-04 0.000E+00

     total cpu time spent up to now is       15.2 secs

     total energy              =     -36.88791085 Ry
     estimated scf accuracy    <       0.00015706 Ry

     iteration #  4     ecut=   100.00 Ry     beta= 0.70
     Davidson diagonalization with overlap
     ethr =  1.96E-06,  avg # of iterations =  3.9

     negative rho (up, down):  1.116E-04 0.000E+00

     total cpu time spent up to now is       18.7 secs

     total energy              =     -36.88792570 Ry
     estimated scf accuracy    <       0.00000286 Ry

     iteration #  5     ecut=   100.00 Ry     beta= 0.70
     Davidson diagonalization with overlap
     ethr =  3.58E-08,  avg # of iterations =  2.9

     negative rho (up, down):  1.116E-04 0.000E+00

     total cpu time spent up to now is       22.0 secs

     total energy              =     -36.88792711 Ry
     estimated scf accuracy    <       0.00000010 Ry

     iteration #  6     ecut=   100.00 Ry     beta= 0.70
     Davidson diagonalization with overlap
     ethr =  1.21E-09,  avg # of iterations =  2.8

     negative rho (up, down):  1.116E-04 0.000E+00

     total cpu time spent up to now is       25.2 secs

     total energy              =     -36.88792714 Ry
     estimated scf accuracy    <          1.3E-09 Ry

     iteration #  7     ecut=   100.00 Ry     beta= 0.70
     Davidson diagonalization with overlap
     ethr =  1.65E-11,  avg # of iterations =  3.2

     negative rho (up, down):  1.116E-04 0.000E+00

     total cpu time spent up to now is       28.7 secs

     End of self-consistent calculation

          k = 0.0000 0.0000 0.0000 ( 10757 PWs)   bands (ev):

   -23.7742 -11.8675  -7.2961  -7.2900  -1.0278  -0.3050   0.7301   1.3616

          k = 0.0000 0.0770 0.0000 ( 10735 PWs)   bands (ev):

   -23.6692 -11.7419  -7.7161  -7.5168  -0.8850  -0.1603   0.8747   1.5054

          k = 0.0000 0.1540 0.0000 ( 10727 PWs)   bands (ev):

   -23.3550 -11.3672  -8.8443  -8.0802  -0.4564   0.2735   1.3088   1.9363

          k = 0.0000 0.2309 0.0000 ( 10709 PWs)   bands (ev):

   -22.8339 -10.7504 -10.3918  -8.7849   0.2573   0.9940   2.0316   2.6493

          k = 0.0000 0.3079 0.0000 ( 10697 PWs)   bands (ev):

   -22.1099 -12.1235  -9.9067  -9.4708   1.2540   1.9684   2.5787   3.0375

          k = 0.0000 0.3849 0.0000 ( 10681 PWs)   bands (ev):

   -21.1907 -13.8878 -10.0416  -8.8693   0.6753   2.5253   3.3185   3.4899

          k = 0.0000 0.4619 0.0000 ( 10663 PWs)   bands (ev):

   -20.0926 -15.5856 -10.4442  -7.7250  -1.0722   3.2645   4.1118   4.8876

          k = 0.0000 0.5389 0.0000 ( 10664 PWs)   bands (ev):

   -18.8931 -17.0947 -10.6514  -6.7684  -2.3500   3.1683   5.9184   6.7226

          k = 0.0667 0.1155 0.0000 ( 10719 PWs)   bands (ev):

   -23.4596 -11.4917  -8.4395  -7.9633  -0.5992   0.1290   1.1641   1.7928

          k = 0.0667 0.1925 0.0000 ( 10714 PWs)   bands (ev):

   -23.0420 -10.9957  -9.6886  -8.6880  -0.0278   0.7065   1.7430   2.3660

          k = 0.0667 0.2694 0.0000 ( 10718 PWs)   bands (ev):

   -22.4194 -11.2701 -10.2643  -9.4431   0.8281   1.5672   2.6102   3.1665

          k = 0.0667 0.3464 0.0000 ( 10689 PWs)   bands (ev):

   -21.5977 -12.9876 -10.1026  -9.3194   1.5135   1.9652   2.7440   3.7480

          k = 0.0667 0.4234 0.0000 ( 10681 PWs)   bands (ev):

   -20.5877 -14.7047 -10.6043  -8.2122  -0.2714   3.3631   3.8616   4.1658

          k = 0.0667 0.5004 0.0000 ( 10652 PWs)   bands (ev):

   -19.4196 -16.3204 -10.9157  -7.0953  -1.8367   3.6731   5.0851   5.8631

          k = 0.0667 0.5774 0.0000 ( 10654 PWs)   bands (ev):

   -18.4642 -17.4285 -11.0211  -6.5068  -2.5811   3.6225   6.9390   7.0918

          k = 0.1333 0.2309 0.0000 ( 10727 PWs)   bands (ev):

   -22.5229 -10.7881 -10.3843  -9.6488   0.6862   1.4265   2.4671   3.6200

          k = 0.1333 0.3079 0.0000 ( 10709 PWs)   bands (ev):

   -21.8025 -12.1819 -10.5530  -9.5478   1.6834   2.0590   2.4403   3.4791

          k = 0.1333 0.3849 0.0000 ( 10671 PWs)   bands (ev):

   -20.8892 -13.7715 -11.2258  -8.5175   0.3931   2.9593   3.7172   4.7685

          k = 0.1333 0.4619 0.0000 ( 10667 PWs)   bands (ev):

   -19.8004 -15.3819 -11.6697  -7.3731  -1.2348   4.4944   5.0216   5.2593

          k = 0.1333 0.5389 0.0000 ( 10649 PWs)   bands (ev):

   -18.6162 -16.8445 -11.8914  -6.3942  -2.4736   4.8900   6.3198   6.9671

          k = 0.2000 0.3464 0.0000 ( 10677 PWs)   bands (ev):

   -20.9903 -13.1953 -11.7239  -8.6212   0.6656   2.8191   3.5614   4.6357

          k = 0.2000 0.4234 0.0000 ( 10673 PWs)   bands (ev):

   -19.9957 -14.4778 -12.5426  -7.5279  -0.8103   4.2272   4.9379   6.0713

          k = 0.2000 0.5004 0.0000 ( 10645 PWs)   bands (ev):

   -18.8527 -15.9018 -12.9689  -6.3915  -2.1989   5.8830   6.3993   6.6717

          k = 0.2000 0.5774 0.0000 ( 10626 PWs)   bands (ev):

   -17.9253 -16.9389 -13.1014  -5.7426  -2.9367   6.5928   7.0849   7.6451

          k = 0.2667 0.4619 0.0000 ( 10659 PWs)   bands (ev):

   -18.9404 -15.2595 -13.6649  -6.4042  -2.0557   5.7491   6.1739   7.6390

          k = 0.2667 0.5389 0.0000 ( 10619 PWs)   bands (ev):

   -17.8048 -16.3046 -14.2050  -5.3242  -3.1910   6.5693   7.4469   8.3339

          k = 0.3333 0.5774 0.0000 ( 10602 PWs)   bands (ev):

   -16.8529 -16.8508 -14.8182  -4.2396  -4.2368   6.3788   8.6398   8.6419

          k =-0.0667 0.0385 0.0000 ( 10735 PWs)   bands (ev):

   -23.6692 -11.7419  -7.7203  -7.5125  -0.8850  -0.1603   0.8747   1.5054

          k =-0.1333 0.0770 0.0000 ( 10727 PWs)   bands (ev):

   -23.3551 -11.3671  -8.8477  -8.0765  -0.4564   0.2734   1.3087   1.9362

          k =-0.2000 0.1155 0.0000 ( 10709 PWs)   bands (ev):

   -22.8339 -10.7502 -10.3944  -8.7818   0.2573   0.9940   2.0316   2.6493

          k =-0.2667 0.1540 0.0000 ( 10697 PWs)   bands (ev):

   -22.1100 -12.1256  -9.9064  -9.4682   1.2540   1.9686   2.5774   3.0375

          k =-0.3333 0.1925 0.0000 ( 10681 PWs)   bands (ev):

   -21.1908 -13.8895 -10.0392  -8.8688   0.6736   2.5253   3.3183   3.4912

          k =-0.4000 0.2309 0.0000 ( 10663 PWs)   bands (ev):

   -20.0926 -15.5871 -10.4421  -7.7239  -1.0746   3.2655   4.1118   4.8875

          k =-0.4667 0.2694 0.0000 ( 10664 PWs)   bands (ev):

   -18.8927 -17.0965 -10.6494  -6.7665  -2.3533   3.1691   5.9184   6.7226

          k =-0.0667 0.1155 0.0000 ( 10719 PWs)   bands (ev):

   -23.4597 -11.4917  -8.4435  -7.9590  -0.5992   0.1290   1.1641   1.7928

          k =-0.1333 0.1540 0.0000 ( 10714 PWs)   bands (ev):

   -23.0420 -10.9956  -9.6924  -8.6838  -0.0278   0.7065   1.7430   2.3660

          k = 0.2000 0.0385 0.0000 ( 10714 PWs)   bands (ev):

   -23.0420 -10.9956  -9.6906  -8.6858  -0.0278   0.7065   1.7430   2.3660

          k =-0.2000 0.1925 0.0000 ( 10718 PWs)   bands (ev):

   -22.4195 -11.2728 -10.2640  -9.4398   0.8281   1.5673   2.6102   3.1668

          k = 0.2667 0.0770 0.0000 ( 10718 PWs)   bands (ev):

   -22.4194 -11.2710 -10.2642  -9.4421   0.8281   1.5672   2.6103   3.1688

          k =-0.2667 0.2309 0.0000 ( 10689 PWs)   bands (ev):

   -21.5978 -12.9897 -10.0999  -9.3190   1.5119   1.9652   2.7439   3.7493

          k = 0.3333 0.1155 0.0000 ( 10689 PWs)   bands (ev):

   -21.5977 -12.9880 -10.1021  -9.3193   1.5130   1.9652   2.7440   3.7486

          k =-0.3333 0.2694 0.0000 ( 10681 PWs)   bands (ev):

   -20.5878 -14.7064 -10.6020  -8.2114  -0.2735   3.3632   3.8628   4.1658

          k = 0.4000 0.1540 0.0000 ( 10681 PWs)   bands (ev):

   -20.5877 -14.7049 -10.6041  -8.2120  -0.2718   3.3632   3.8619   4.1659

          k =-0.4000 0.3079 0.0000 ( 10652 PWs)   bands (ev):

   -19.4195 -16.3219 -10.9137  -7.0938  -1.8396   3.6742   5.0850   5.8631

          k = 0.4667 0.1925 0.0000 ( 10652 PWs)   bands (ev):

   -19.4196 -16.3204 -10.9156  -7.0952  -1.8370   3.6733   5.0850   5.8632

          k =-0.4667 0.3464 0.0000 ( 10654 PWs)   bands (ev):

   -18.4631 -17.4311 -11.0191  -6.5046  -2.5845   3.6234   6.9393   7.0913

          k =-0.1333 0.2309 0.0000 ( 10727 PWs)   bands (ev):

   -22.5229 -10.7913 -10.3841  -9.6454   0.6862   1.4265   2.4670   3.0800

          k =-0.2000 0.2694 0.0000 ( 10709 PWs)   bands (ev):

   -21.8026 -12.1848 -10.5497  -9.5474   1.6834   2.0575   2.4402   3.4793

          k = 0.3333 0.0385 0.0000 ( 10709 PWs)   bands (ev):

   -21.8026 -12.1837 -10.5510  -9.5475   1.6834   2.0578   2.4403   3.4792

          k =-0.2667 0.3079 0.0000 ( 10671 PWs)   bands (ev):

   -20.8892 -13.7736 -11.2232  -8.5168   0.3911   2.9593   3.7173   4.7685

          k = 0.4000 0.0770 0.0000 ( 10671 PWs)   bands (ev):

   -20.8892 -13.7723 -11.2249  -8.5172   0.3921   2.9593   3.7172   4.7678

          k =-0.3333 0.3464 0.0000 ( 10667 PWs)   bands (ev):

   -19.8004 -15.3836 -11.6676  -7.3719  -1.2373   4.4945   5.0230   5.2594

          k = 0.4667 0.1155 0.0000 ( 10667 PWs)   bands (ev):

   -19.8004 -15.3822 -11.6693  -7.3727  -1.2356   4.4946   5.0219   5.2595

          k =-0.4000 0.3849 0.0000 ( 10649 PWs)   bands (ev):

   -18.6157 -16.8464 -11.8895  -6.3922  -2.4768   4.8912   6.3197   6.9674

          k = 0.5333 0.1540 0.0000 ( 10649 PWs)   bands (ev):

   -18.6162 -16.8446 -11.8913  -6.3940  -2.4739   4.8903   6.3197   6.9674

          k =-0.2000 0.3464 0.0000 ( 10677 PWs)   bands (ev):

   -20.9903 -13.1978 -11.7211  -8.6207   0.6639   2.8192   3.5615   4.6357

          k =-0.2667 0.3849 0.0000 ( 10673 PWs)   bands (ev):

   -19.9957 -14.4800 -12.5400  -7.5270  -0.8124   4.2272   4.9381   6.0714

          k = 0.4667 0.0385 0.0000 ( 10673 PWs)   bands (ev):

   -19.9957 -14.4791 -12.5411  -7.5273  -0.8117   4.2273   4.9381   6.0713

          k =-0.3333 0.4234 0.0000 ( 10645 PWs)   bands (ev):

   -18.8525 -15.9037 -12.9669  -6.3900  -2.2016   5.8831   6.3998   6.6731

          k = 0.5333 0.0770 0.0000 ( 10645 PWs)   bands (ev):

   -18.8527 -15.9023 -12.9683  -6.3909  -2.2000   5.8832   6.3997   6.6721

          k =-0.4000 0.4619 0.0000 ( 10626 PWs)   bands (ev):

   -17.9240 -16.9416 -13.0997  -5.7405  -2.9398   6.5938   7.0857   7.6455

          k =-0.2667 0.4619 0.0000 ( 10659 PWs)   bands (ev):

   -18.9404 -15.2615 -13.6628  -6.4032  -2.0576   5.7491   6.1745   7.6394

          k =-0.3333 0.5004 0.0000 ( 10619 PWs)   bands (ev):

   -17.8042 -16.3068 -14.2033  -5.3222  -3.1936   6.5701   7.4470   8.3337

          k = 0.6000 0.0385 0.0000 ( 10619 PWs)   bands (ev):

   -17.8046 -16.3054 -14.2044  -5.3233  -3.1921   6.5698   7.4471   8.3327

     the Fermi energy is    -4.2003 ev

!    total energy              =     -36.88792714 Ry
     total all-electron energy =      -152.416123 Ry
     estimated scf accuracy    <          7.4E-11 Ry
     smearing contrib. (-TS)   =      -0.00011666 Ry
     internal energy E=F+TS    =     -36.88781049 Ry

     The total energy is F=E-TS. E is the sum of the following terms:
     one-electron contribution =    -313.05471681 Ry
     hartree contribution      =     157.40585053 Ry
     xc contribution           =      -9.27529796 Ry
     ewald contribution        =     140.37044101 Ry
     one-center paw contrib.   =     -12.33408726 Ry

     convergence has been achieved in   7 iterations

     Writing all to output data dir ./tmp/graphene.save/ :
     XML data file, charge density, pseudopotentials, collected wavefunctions
 
     init_run     :      1.43s CPU      1.52s WALL (       1 calls)
     electrons    :     26.80s CPU     27.14s WALL (       1 calls)

     Called by init_run:
     wfcinit      :      1.10s CPU      1.12s WALL (       1 calls)
     potinit      :      0.09s CPU      0.10s WALL (       1 calls)
     hinit0       :      0.11s CPU      0.13s WALL (       1 calls)

     Called by electrons:
     c_bands      :     22.27s CPU     22.34s WALL (       7 calls)
     sum_band     :      3.83s CPU      3.97s WALL (       7 calls)
     v_of_rho     :      0.27s CPU      0.28s WALL (       8 calls)
     newd         :      0.18s CPU      0.31s WALL (       8 calls)
     PAW_pot      :      0.31s CPU      0.31s WALL (       8 calls)
     mix_rho      :      0.04s CPU      0.04s WALL (       7 calls)

     Called by c_bands:
     init_us_2    :      0.61s CPU      0.62s WALL (     960 calls)
     cegterg      :     21.33s CPU     21.40s WALL (     448 calls)

     Called by *egterg:
     cdiaghg      :      0.10s CPU      0.10s WALL (    2548 calls)
     h_psi        :     19.60s CPU     19.68s WALL (    2612 calls)
     s_psi        :      0.36s CPU      0.36s WALL (    2612 calls)
     g_psi        :      0.10s CPU      0.11s WALL (    2100 calls)

     Called by h_psi:
     h_psi:calbec :      0.45s CPU      0.46s WALL (    2612 calls)
     vloc_psi     :     18.67s CPU     18.72s WALL (    2612 calls)
     add_vuspsi   :      0.37s CPU      0.37s WALL (    2612 calls)

     General routines
     calbec       :      0.56s CPU      0.56s WALL (    3060 calls)
     fft          :      0.07s CPU      0.09s WALL (      88 calls)
     ffts         :      0.00s CPU      0.00s WALL (       7 calls)
     fftw         :     17.79s CPU     17.84s WALL (   27232 calls)
 
     Parallel routines
 
     PWSCF        :     28.29s CPU     28.77s WALL

 
   This run was terminated on:  11:31: 2   9May2026            

=------------------------------------------------------------------------------=
   JOB DONE.
=------------------------------------------------------------------------------=
