
     Program PWSCF v.7.4 starts on  9May2026 at 11:39:51 

     This program is part of the open-source Quantum ESPRESSO suite
     for quantum simulation of materials; please cite
         "P. Giannozzi et al., J. Phys.:Condens. Matter 21 395502 (2009);
         "P. Giannozzi et al., J. Phys.:Condens. Matter 29 465901 (2017);
         "P. Giannozzi et al., J. Chem. Phys. 152 154105 (2020);
          URL http://www.quantum-espresso.org", 
     in publications or presentations arising from this work. More details at
     http://www.quantum-espresso.org/quote

     Parallel version (MPI), running on    12 processors

     MPI processes distributed on     1 nodes
     155624 MiB available memory on the printing compute node when the environment starts
 
     Waiting for input...
     Reading input from standard input

     Current dimensions of program PWSCF are:
     Max number of different atomic species (ntypx) = 10
     Max number of k-points (npk) =  40000
     Max angular momentum in pseudopotentials (lmaxx) =  4
     file C.upf: wavefunction(s)  2S 2P renormalized
 
     R & G space division:  proc/nbgrp/npool/nimage =      12
     Subspace diagonalization in iterative solution of the eigenvalue problem:
     a serial algorithm will be used

 
     Parallelization info
     --------------------
     sticks:   dense  smooth     PW     G-vecs:    dense   smooth      PW
     Min          49      49     14                 7111     7111    1106
     Max          50      50     15                 7132     7132    1132
     Sum         595     595    169                85433    85433   13437
 
     Using Slab Decomposition
 


     bravais-lattice index     =            4
     lattice parameter (alat)  =       4.6588  a.u.
     unit-cell volume          =     632.2600 (a.u.)^3
     number of atoms/cell      =            2
     number of atomic types    =            1
     number of electrons       =         8.00
     number of Kohn-Sham states=            8
     kinetic-energy cutoff     =     100.0000  Ry
     charge density cutoff     =     400.0000  Ry
     scf convergence threshold =      1.0E-09
     mixing beta               =       0.7000
     number of iterations used =            8  plain     mixing
     Exchange-correlation= SLA  PW   PBX  PBC
                           (   1   4   3   4   0   0   0)

     celldm(1)=   4.658790  celldm(2)=   0.000000  celldm(3)=   7.220142
     celldm(4)=   0.000000  celldm(5)=   0.000000  celldm(6)=   0.000000

     crystal axes: (cart. coord. in units of alat)
               a(1) = (   1.000000   0.000000   0.000000 )  
               a(2) = (  -0.500000   0.866025   0.000000 )  
               a(3) = (   0.000000   0.000000   7.220142 )  

     reciprocal axes: (cart. coord. in units 2 pi/alat)
               b(1) = (  1.000000  0.577350  0.000000 )  
               b(2) = (  0.000000  1.154701  0.000000 )  
               b(3) = (  0.000000  0.000000  0.138501 )  


     PseudoPot. # 1 for C  read from file:
     ./C.upf
     MD5 check sum: 5d2aebdfa2cae82b50a7e79e9516da0f
     Pseudo is Projector augmented-wave + core cor, Zval =  4.0
     Generated using "atomic" code by A. Dal Corso  v.5.1
     Shape of augmentation charge: PSQ
     Using radial grid of 1073 points,  4 beta functions with: 
                l(1) =   0
                l(2) =   0
                l(3) =   1
                l(4) =   1
     Q(r) pseudized with 0 coefficients 


     atomic species   valence    mass     pseudopotential
     C                 4.00    12.01070     C ( 1.00)

      4 Sym. Ops. (no inversion) found



   Cartesian axes

     site n.     atom                  positions (alat units)
         1        C      tau(   1) = (   0.4749641   0.2453946   3.6100711  )
         2        C      tau(   2) = (  -0.0249641   0.5340283   3.6100711  )

     number of k points=    73  Marzari-Vanderbilt smearing, width (Ry)=  0.0200
                       cart. coord. in units 2pi/alat
        k(    1) = (   0.0000000   0.0000000   0.0000000), wk =   0.0078125
        k(    2) = (   0.0000000   0.0721688   0.0000000), wk =   0.0312500
        k(    3) = (   0.0000000   0.1443376   0.0000000), wk =   0.0312500
        k(    4) = (   0.0000000   0.2165064   0.0000000), wk =   0.0312500
        k(    5) = (   0.0000000   0.2886751   0.0000000), wk =   0.0312500
        k(    6) = (   0.0000000   0.3608439   0.0000000), wk =   0.0312500
        k(    7) = (   0.0000000   0.4330127   0.0000000), wk =   0.0312500
        k(    8) = (   0.0000000   0.5051815   0.0000000), wk =   0.0312500
        k(    9) = (   0.0000000  -0.5773503   0.0000000), wk =   0.0156250
        k(   10) = (   0.0625000   0.1082532   0.0000000), wk =   0.0156250
        k(   11) = (   0.0625000   0.1804220   0.0000000), wk =   0.0312500
        k(   12) = (   0.0625000   0.2525907   0.0000000), wk =   0.0312500
        k(   13) = (   0.0625000   0.3247595   0.0000000), wk =   0.0312500
        k(   14) = (   0.0625000   0.3969283   0.0000000), wk =   0.0312500
        k(   15) = (   0.0625000   0.4690971   0.0000000), wk =   0.0312500
        k(   16) = (   0.0625000   0.5412659   0.0000000), wk =   0.0312500
        k(   17) = (   0.1250000   0.2165064   0.0000000), wk =   0.0156250
        k(   18) = (   0.1250000   0.2886751   0.0000000), wk =   0.0312500
        k(   19) = (   0.1250000   0.3608439   0.0000000), wk =   0.0312500
        k(   20) = (   0.1250000   0.4330127   0.0000000), wk =   0.0312500
        k(   21) = (   0.1250000   0.5051815   0.0000000), wk =   0.0312500
        k(   22) = (   0.1250000   0.5773503   0.0000000), wk =   0.0312500
        k(   23) = (   0.1875000   0.3247595   0.0000000), wk =   0.0156250
        k(   24) = (   0.1875000   0.3969283   0.0000000), wk =   0.0312500
        k(   25) = (   0.1875000   0.4690971   0.0000000), wk =   0.0312500
        k(   26) = (   0.1875000   0.5412659   0.0000000), wk =   0.0312500
        k(   27) = (   0.2500000   0.4330127   0.0000000), wk =   0.0156250
        k(   28) = (   0.2500000   0.5051815   0.0000000), wk =   0.0312500
        k(   29) = (   0.2500000   0.5773503   0.0000000), wk =   0.0312500
        k(   30) = (   0.3125000   0.5412659   0.0000000), wk =   0.0156250
        k(   31) = (  -0.0625000   0.0360844   0.0000000), wk =   0.0156250
        k(   32) = (  -0.1250000   0.0721688   0.0000000), wk =   0.0156250
        k(   33) = (  -0.1875000   0.1082532   0.0000000), wk =   0.0156250
        k(   34) = (  -0.2500000   0.1443376   0.0000000), wk =   0.0156250
        k(   35) = (  -0.3125000   0.1804220   0.0000000), wk =   0.0156250
        k(   36) = (  -0.3750000   0.2165064   0.0000000), wk =   0.0156250
        k(   37) = (  -0.4375000   0.2525907   0.0000000), wk =   0.0156250
        k(   38) = (   0.5000000  -0.2886751   0.0000000), wk =   0.0078125
        k(   39) = (  -0.0625000   0.1082532   0.0000000), wk =   0.0312500
        k(   40) = (  -0.1250000   0.1443376   0.0000000), wk =   0.0312500
        k(   41) = (   0.1875000   0.0360844   0.0000000), wk =   0.0312500
        k(   42) = (  -0.1875000   0.1804220   0.0000000), wk =   0.0312500
        k(   43) = (   0.2500000   0.0721688   0.0000000), wk =   0.0312500
        k(   44) = (  -0.2500000   0.2165064   0.0000000), wk =   0.0312500
        k(   45) = (   0.3125000   0.1082532   0.0000000), wk =   0.0312500
        k(   46) = (  -0.3125000   0.2525907   0.0000000), wk =   0.0312500
        k(   47) = (   0.3750000   0.1443376   0.0000000), wk =   0.0312500
        k(   48) = (  -0.3750000   0.2886751   0.0000000), wk =   0.0312500
        k(   49) = (   0.4375000   0.1804220   0.0000000), wk =   0.0312500
        k(   50) = (  -0.4375000   0.3247595   0.0000000), wk =   0.0312500
        k(   51) = (   0.5000000   0.2165064   0.0000000), wk =   0.0312500
        k(   52) = (  -0.1250000   0.2165064   0.0000000), wk =   0.0312500
        k(   53) = (  -0.1875000   0.2525907   0.0000000), wk =   0.0312500
        k(   54) = (   0.3125000   0.0360844   0.0000000), wk =   0.0312500
        k(   55) = (  -0.2500000   0.2886751   0.0000000), wk =   0.0312500
        k(   56) = (   0.3750000   0.0721688   0.0000000), wk =   0.0312500
        k(   57) = (  -0.3125000   0.3247595   0.0000000), wk =   0.0312500
        k(   58) = (   0.4375000   0.1082532   0.0000000), wk =   0.0312500
        k(   59) = (  -0.3750000   0.3608439   0.0000000), wk =   0.0312500
        k(   60) = (   0.5000000   0.1443376   0.0000000), wk =   0.0312500
        k(   61) = (  -0.4375000   0.3969283   0.0000000), wk =   0.0156250
        k(   62) = (  -0.1875000   0.3247595   0.0000000), wk =   0.0312500
        k(   63) = (  -0.2500000   0.3608439   0.0000000), wk =   0.0312500
        k(   64) = (   0.4375000   0.0360844   0.0000000), wk =   0.0312500
        k(   65) = (  -0.3125000   0.3969283   0.0000000), wk =   0.0312500
        k(   66) = (   0.5000000   0.0721688   0.0000000), wk =   0.0312500
        k(   67) = (  -0.3750000   0.4330127   0.0000000), wk =   0.0312500
        k(   68) = (   0.5625000   0.1082532   0.0000000), wk =   0.0312500
        k(   69) = (  -0.2500000   0.4330127   0.0000000), wk =   0.0312500
        k(   70) = (  -0.3125000   0.4690971   0.0000000), wk =   0.0312500
        k(   71) = (   0.5625000   0.0360844   0.0000000), wk =   0.0312500
        k(   72) = (  -0.3750000   0.5051815   0.0000000), wk =   0.0156250
        k(   73) = (  -0.3125000   0.5412659   0.0000000), wk =   0.0312500

     Dense  grid:    85433 G-vectors     FFT dimensions: (  30,  30, 216)

     Estimated max dynamical RAM per process >      17.66 MB

     Estimated total dynamical RAM >     211.90 MB
 ----2D----2D----2D----2D----2D----2D----2D----2D----2D----2D----2D----2D
  The code is running with the 2D cutoff
  Please refer to:
  Sohier, T., Calandra, M., & Mauri, F. (2017), 
  Density functional perturbation theory for gated two-dimensional heterostructu
 res:
  Theoretical developments and application to flexural phonons in graphene.
  Physical Review B, 96(7), 75448. https://doi.org/10.1103/PhysRevB.96.075448
 ----2D----2D----2D----2D----2D----2D----2D----2D----2D----2D----2D----2D

     Check: negative core charge=   -0.000002

     Initial potential from superposition of free atoms

     starting charge       7.9999, renormalised to       8.0000

     negative rho (up, down):  9.152E-05 0.000E+00
     Starting wfcs are    8 randomized atomic wfcs
     Checking if some PAW data can be deallocated... 

     total cpu time spent up to now is        0.3 secs

     per-process dynamical memory:    54.4 Mb

     Self-consistent Calculation

     iteration #  1     ecut=   100.00 Ry     beta= 0.70
     Davidson diagonalization with overlap
     ethr =  1.00E-02,  avg # of iterations =  5.9

     negative rho (up, down):  8.645E-05 0.000E+00

     total cpu time spent up to now is        0.8 secs

     WARNING: integrated charge=     8.00020285, expected=     8.00000000

     total energy              =     -36.86283637 Ry
     estimated scf accuracy    <       0.18953225 Ry

     iteration #  2     ecut=   100.00 Ry     beta= 0.70
     Davidson diagonalization with overlap
     ethr =  2.37E-03,  avg # of iterations =  3.8

     negative rho (up, down):  9.944E-05 0.000E+00

     total cpu time spent up to now is        1.1 secs

     WARNING: integrated charge=     8.00019624, expected=     8.00000000

     total energy              =     -36.88787218 Ry
     estimated scf accuracy    <       0.00191842 Ry

     iteration #  3     ecut=   100.00 Ry     beta= 0.70
     Davidson diagonalization with overlap
     ethr =  2.40E-05,  avg # of iterations = 10.5

     negative rho (up, down):  1.104E-04 0.000E+00

     total cpu time spent up to now is        1.7 secs

     WARNING: integrated charge=     8.00020409, expected=     8.00000000

     total energy              =     -36.88821090 Ry
     estimated scf accuracy    <       0.00015700 Ry

     iteration #  4     ecut=   100.00 Ry     beta= 0.70
     Davidson diagonalization with overlap
     ethr =  1.96E-06,  avg # of iterations =  3.7

     negative rho (up, down):  1.115E-04 0.000E+00

     total cpu time spent up to now is        2.1 secs

     WARNING: integrated charge=     8.00020527, expected=     8.00000000

     total energy              =     -36.88822693 Ry
     estimated scf accuracy    <       0.00000278 Ry

     iteration #  5     ecut=   100.00 Ry     beta= 0.70
     Davidson diagonalization with overlap
     ethr =  3.47E-08,  avg # of iterations =  2.9

     negative rho (up, down):  1.116E-04 0.000E+00

     total cpu time spent up to now is        2.4 secs

     WARNING: integrated charge=     8.00020534, expected=     8.00000000

     total energy              =     -36.88822826 Ry
     estimated scf accuracy    <       0.00000009 Ry

     iteration #  6     ecut=   100.00 Ry     beta= 0.70
     Davidson diagonalization with overlap
     ethr =  1.11E-09,  avg # of iterations =  2.7

     negative rho (up, down):  1.116E-04 0.000E+00

     total cpu time spent up to now is        2.7 secs

     End of self-consistent calculation

          k = 0.0000 0.0000 0.0000 ( 10757 PWs)   bands (ev):

   -23.7623 -11.8560  -7.2841  -7.2780  -1.0219  -0.3029   0.7276   1.3602

          k = 0.0000 0.0722 0.0000 ( 10727 PWs)   bands (ev):

   -23.6701 -11.7456  -7.6542  -7.4789  -0.8964  -0.1757   0.8547   1.4867

          k = 0.0000 0.1443 0.0000 ( 10735 PWs)   bands (ev):

   -23.3938 -11.4160  -8.6625  -7.9860  -0.5197   0.2056   1.2362   1.8654

          k = 0.0000 0.2165 0.0000 ( 10699 PWs)   bands (ev):

   -22.9353 -10.8724 -10.0697  -8.6383   0.1078   0.8395   1.8716   2.4936

          k = 0.0000 0.2887 0.0000 ( 10685 PWs)   bands (ev):

   -22.2977 -11.6708 -10.1260  -9.2953   0.9846   1.7159   2.7586   2.9945

          k = 0.0000 0.3608 0.0000 ( 10687 PWs)   bands (ev):

   -21.4864 -13.3276  -9.8674  -9.1994   1.2602   2.1065   2.8915   3.5592

          k = 0.0000 0.4330 0.0000 ( 10671 PWs)   bands (ev):

   -20.5115 -14.9502 -10.3031  -8.1445  -0.4328   3.2891   3.5551   4.2689

          k = 0.0000 0.5052 0.0000 ( 10662 PWs)   bands (ev):

   -19.4030 -16.4629 -10.5739  -7.1133  -1.8796   3.2124   5.1012   5.8926

          k = 0.0000-0.5774 0.0000 ( 10652 PWs)   bands (ev):

   -18.5198 -17.4833 -10.6656  -6.5912  -2.5451   3.1669   6.8531   6.9996

          k = 0.0625 0.1083 0.0000 ( 10715 PWs)   bands (ev):

   -23.4858 -11.5256  -8.3032  -7.8737  -0.6452   0.0785   1.1091   1.7392

          k = 0.0625 0.1804 0.0000 ( 10728 PWs)   bands (ev):

   -23.1184 -11.0888  -9.4370  -8.5289  -0.1429   0.5863   1.6178   2.2434

          k = 0.0625 0.2526 0.0000 ( 10705 PWs)   bands (ev):

   -22.5704 -10.8890 -10.4431  -9.2372   0.6097   1.3448   2.3803   2.9900

          k = 0.0625 0.3248 0.0000 ( 10706 PWs)   bands (ev):

   -21.8458 -12.4887  -9.8817  -9.6040   1.6104   2.0096   2.4181   3.3912

          k = 0.0625 0.3969 0.0000 ( 10686 PWs)   bands (ev):

   -20.9522 -14.1135 -10.4009  -8.6046   0.3529   2.8518   3.6343   3.8734

          k = 0.0625 0.4691 0.0000 ( 10655 PWs)   bands (ev):

   -19.9057 -15.6782 -10.7615  -7.5294  -1.2368   3.6724   4.3714   5.1345

          k = 0.0625 0.5413 0.0000 ( 10648 PWs)   bands (ev):

   -18.7856 -17.0657 -10.9457  -6.6548  -2.3835   3.5906   6.0740   6.8537

          k = 0.1250 0.2165 0.0000 ( 10725 PWs)   bands (ev):

   -22.6615 -10.5494 -10.4655  -9.3921   0.4848   1.2197   2.2541   2.8716

          k = 0.1250 0.2887 0.0000 ( 10718 PWs)   bands (ev):

   -22.0265 -11.7660 -10.2399  -9.8086   1.3620   2.0972   2.5597   3.1440

          k = 0.1250 0.3608 0.0000 ( 10689 PWs)   bands (ev):

   -21.2194 -13.2566 -10.9098  -8.8880   0.9768   2.4856   3.2408   4.2827

          k = 0.1250 0.4330 0.0000 ( 10658 PWs)   bands (ev):

   -20.2510 -14.7920 -11.3886  -7.8362  -0.6037   3.8471   4.6099   4.8941

          k = 0.1250 0.5052 0.0000 ( 10643 PWs)   bands (ev):

   -19.1528 -16.2568 -11.6772  -6.7952  -1.9901   4.7397   5.4685   6.1850

          k = 0.1250 0.5774 0.0000 ( 10630 PWs)   bands (ev):

   -18.2827 -17.2531 -11.7736  -6.2540  -2.6513   4.7000   7.1762   7.3457

          k = 0.1875 0.3248 0.0000 ( 10689 PWs)   bands (ev):

   -21.3088 -12.7516 -11.3197  -8.9836   1.2273   2.3620   3.1036   4.1609

          k = 0.1875 0.3969 0.0000 ( 10687 PWs)   bands (ev):

   -20.4260 -13.9754 -12.1284  -7.9974  -0.1881   3.6046   4.3352   5.4270

          k = 0.1875 0.4691 0.0000 ( 10662 PWs)   bands (ev):

   -19.3965 -15.3484 -12.6077  -6.9208  -1.5824   5.0775   5.7456   6.3848

          k = 0.1875 0.5413 0.0000 ( 10641 PWs)   bands (ev):

   -18.3022 -16.6452 -12.8316  -6.0011  -2.6725   6.2707   6.7791   6.9976

          k = 0.2500 0.4330 0.0000 ( 10673 PWs)   bands (ev):

   -19.4800 -14.7729 -13.2038  -6.9693  -1.4064   4.9566   5.5856   6.8142

          k = 0.2500 0.5052 0.0000 ( 10635 PWs)   bands (ev):

   -18.4168 -15.8219 -13.8125  -5.8990  -2.5902   6.5112   6.5350   8.0055

          k = 0.2500 0.5774 0.0000 ( 10628 PWs)   bands (ev):

   -17.5730 -16.6956 -13.9865  -5.2515  -3.2763   6.6873   7.8855   8.0486

          k = 0.3125 0.5413 0.0000 ( 10628 PWs)   bands (ev):

   -17.3920 -16.3959 -14.6354  -4.8492  -3.6119   6.4445   8.0155   8.7881

          k =-0.0625 0.0361 0.0000 ( 10727 PWs)   bands (ev):

   -23.6701 -11.7456  -7.6584  -7.4746  -0.8964  -0.1757   0.8547   1.4866

          k =-0.1250 0.0722 0.0000 ( 10735 PWs)   bands (ev):

   -23.3938 -11.4159  -8.6661  -7.9822  -0.5197   0.2056   1.2362   1.8654

          k =-0.1875 0.1083 0.0000 ( 10699 PWs)   bands (ev):

   -22.9353 -10.8723 -10.0726  -8.6351   0.1078   0.8395   1.8717   2.4936

          k =-0.2500 0.1443 0.0000 ( 10685 PWs)   bands (ev):

   -22.2977 -11.6731 -10.1258  -9.2925   0.9846   1.7160   2.7585   2.9940

          k =-0.3125 0.1804 0.0000 ( 10687 PWs)   bands (ev):

   -21.4864 -13.3294  -9.8650  -9.1989   1.2587   2.1065   2.8914   3.5605

          k =-0.3750 0.2165 0.0000 ( 10671 PWs)   bands (ev):

   -20.5116 -14.9517 -10.3009  -8.1437  -0.4349   3.2899   3.5553   4.2688

          k =-0.4375 0.2526 0.0000 ( 10662 PWs)   bands (ev):

   -19.4028 -16.4645 -10.5718  -7.1118  -1.8825   3.2134   5.1012   5.8926

          k = 0.5000-0.2887 0.0000 ( 10652 PWs)   bands (ev):

   -18.5186 -17.4858 -10.6635  -6.5890  -2.5486   3.1678   6.8534   6.9991

          k =-0.0625 0.1083 0.0000 ( 10715 PWs)   bands (ev):

   -23.4858 -11.5255  -8.3073  -7.8694  -0.6452   0.0785   1.1091   1.7393

          k =-0.1250 0.1443 0.0000 ( 10728 PWs)   bands (ev):

   -23.1184 -11.0887  -9.4409  -8.5246  -0.1429   0.5863   1.6178   2.2433

          k = 0.1875 0.0361 0.0000 ( 10728 PWs)   bands (ev):

   -23.1184 -11.0887  -9.4391  -8.5266  -0.1429   0.5863   1.6178   2.2433

          k =-0.1875 0.1804 0.0000 ( 10705 PWs)   bands (ev):

   -22.5704 -10.8920 -10.4429  -9.2337   0.6097   1.3448   2.3804   2.9894

          k = 0.2500 0.0722 0.0000 ( 10705 PWs)   bands (ev):

   -22.5704 -10.8900 -10.4430  -9.2361   0.6097   1.3448   2.3803   2.9888

          k =-0.2500 0.2165 0.0000 ( 10706 PWs)   bands (ev):

   -21.8459 -12.4910  -9.8789  -9.6036   1.6104   2.0085   2.4177   3.3918

          k = 0.3125 0.1083 0.0000 ( 10706 PWs)   bands (ev):

   -21.8459 -12.4892  -9.8811  -9.6039   1.6104   2.0091   2.4180   3.3916

          k =-0.3125 0.2526 0.0000 ( 10686 PWs)   bands (ev):

   -20.9523 -14.1152 -10.3985  -8.6039   0.3509   2.8519   3.6343   3.8749

          k = 0.3750 0.1443 0.0000 ( 10686 PWs)   bands (ev):

   -20.9523 -14.1137 -10.4007  -8.6044   0.3525   2.8519   3.6344   3.8739

          k =-0.3750 0.2887 0.0000 ( 10655 PWs)   bands (ev):

   -19.9057 -15.6797 -10.7594  -7.5282  -1.2394   3.6736   4.3715   5.1345

          k = 0.4375 0.1804 0.0000 ( 10655 PWs)   bands (ev):

   -19.9057 -15.6783 -10.7614  -7.5293  -1.2372   3.6727   4.3714   5.1345

          k =-0.4375 0.3248 0.0000 ( 10648 PWs)   bands (ev):

   -18.7851 -17.0676 -10.9437  -6.6528  -2.3869   3.5916   6.0740   6.8537

          k = 0.5000 0.2165 0.0000 ( 10648 PWs)   bands (ev):

   -18.7856 -17.0657 -10.9457  -6.6547  -2.3837   3.5907   6.0740   6.8538

          k =-0.1250 0.2165 0.0000 ( 10725 PWs)   bands (ev):

   -22.6615 -10.5492 -10.4688  -9.3885   0.4848   1.2198   2.2541   2.8717

          k =-0.1875 0.2526 0.0000 ( 10718 PWs)   bands (ev):

   -22.0266 -11.7690 -10.2365  -9.8083   1.3620   2.0972   2.5582   3.1441

          k = 0.3125 0.0361 0.0000 ( 10718 PWs)   bands (ev):

   -22.0266 -11.7679 -10.2378  -9.8084   1.3620   2.0971   2.5586   3.1440

          k =-0.2500 0.2887 0.0000 ( 10689 PWs)   bands (ev):

   -21.2194 -13.2589 -10.9070  -8.8875   0.9749   2.4856   3.2408   4.2828

          k = 0.3750 0.0722 0.0000 ( 10689 PWs)   bands (ev):

   -21.2194 -13.2575 -10.9088  -8.8877   0.9758   2.4856   3.2408   4.2829

          k =-0.3125 0.3248 0.0000 ( 10658 PWs)   bands (ev):

   -20.2511 -14.7937 -11.3863  -7.8353  -0.6060   3.8471   4.6097   4.8958

          k = 0.4375 0.1083 0.0000 ( 10658 PWs)   bands (ev):

   -20.2511 -14.7923 -11.3881  -7.8359  -0.6046   3.8472   4.6099   4.8949

          k =-0.3750 0.3608 0.0000 ( 10643 PWs)   bands (ev):

   -19.1527 -16.2585 -11.6751  -6.7936  -1.9930   4.7410   5.4684   6.1852

          k = 0.5000 0.1443 0.0000 ( 10643 PWs)   bands (ev):

   -19.1528 -16.2569 -11.6770  -6.7949  -1.9906   4.7401   5.4684   6.1852

          k =-0.4375 0.3969 0.0000 ( 10630 PWs)   bands (ev):

   -18.2814 -17.2557 -11.7717  -6.2519  -2.6547   4.7010   7.1768   7.3449

          k =-0.1875 0.3248 0.0000 ( 10689 PWs)   bands (ev):

   -21.3089 -12.7542 -11.3168  -8.9832   1.2257   2.3620   3.1036   4.1610

          k =-0.2500 0.3608 0.0000 ( 10687 PWs)   bands (ev):

   -20.4261 -13.9778 -12.1257  -7.9967  -0.1900   3.6046   4.3353   5.4267

          k = 0.4375 0.0361 0.0000 ( 10687 PWs)   bands (ev):

   -20.4261 -13.9768 -12.1267  -7.9969  -0.1895   3.6046   4.3353   5.4268

          k =-0.3125 0.3969 0.0000 ( 10662 PWs)   bands (ev):

   -19.3965 -15.3503 -12.6055  -6.9196  -1.5848   5.0775   5.7459   6.3865

          k = 0.5000 0.0722 0.0000 ( 10662 PWs)   bands (ev):

   -19.3965 -15.3490 -12.6070  -6.9203  -1.5835   5.0776   5.7459   6.3855

          k =-0.3750 0.4330 0.0000 ( 10641 PWs)   bands (ev):

   -18.3016 -16.6473 -12.8298  -5.9991  -2.6757   6.2720   6.7789   6.9982

          k = 0.5625 0.1083 0.0000 ( 10641 PWs)   bands (ev):

   -18.3022 -16.6454 -12.8314  -6.0007  -2.6731   6.2712   6.7787   6.9979

          k =-0.2500 0.4330 0.0000 ( 10673 PWs)   bands (ev):

   -19.4800 -14.7750 -13.2015  -6.9685  -1.4082   4.9566   5.5859   6.8140

          k =-0.3125 0.4691 0.0000 ( 10635 PWs)   bands (ev):

   -18.4166 -15.8240 -13.8104  -5.8975  -2.5926   6.5113   6.5359   8.0065

          k = 0.5625 0.0361 0.0000 ( 10635 PWs)   bands (ev):

   -18.4167 -15.8229 -13.8115  -5.8981  -2.5917   6.5113   6.5356   8.0058

          k =-0.3750 0.5052 0.0000 ( 10628 PWs)   bands (ev):

   -17.5716 -16.6984 -13.9849  -5.2494  -3.2791   6.6880   7.8857   8.0491

          k =-0.3125 0.5413 0.0000 ( 10628 PWs)   bands (ev):

   -17.3914 -16.3976 -14.6343  -4.8475  -3.6140   6.4449   8.0160   8.7857

     the Fermi energy is    -4.0600 ev

     WARNING: integrated charge=     8.00020533, expected=     8.00000000

!    total energy              =     -36.88822831 Ry
     total all-electron energy =      -152.416424 Ry
     estimated scf accuracy    <          9.7E-10 Ry
     smearing contrib. (-TS)   =       0.00000326 Ry
     internal energy E=F+TS    =     -36.88823156 Ry

     The total energy is F=E-TS. E is the sum of the following terms:
     one-electron contribution =    -313.06172839 Ry
     hartree contribution      =     157.41253986 Ry
     xc contribution           =      -9.27539902 Ry
     ewald contribution        =     140.37044101 Ry
     one-center paw contrib.   =     -12.33408502 Ry

     convergence has been achieved in   6 iterations

     Writing all to output data dir ./tmp/graphene.save/ :
     XML data file, charge density, pseudopotentials, collected wavefunctions
 
     init_run     :      0.20s CPU      0.24s WALL (       1 calls)
     electrons    :      2.37s CPU      2.44s WALL (       1 calls)

     Called by init_run:
     wfcinit      :      0.13s CPU      0.16s WALL (       1 calls)
     potinit      :      0.01s CPU      0.02s WALL (       1 calls)
     hinit0       :      0.01s CPU      0.02s WALL (       1 calls)

     Called by electrons:
     c_bands      :      2.00s CPU      2.05s WALL (       6 calls)
     sum_band     :      0.31s CPU      0.32s WALL (       6 calls)
     v_of_rho     :      0.02s CPU      0.03s WALL (       7 calls)
     newd         :      0.02s CPU      0.02s WALL (       7 calls)
     PAW_pot      :      0.04s CPU      0.04s WALL (       7 calls)
     mix_rho      :      0.00s CPU      0.00s WALL (       6 calls)

     Called by c_bands:
     init_us_2    :      0.05s CPU      0.05s WALL (     949 calls)
     cegterg      :      1.92s CPU      1.97s WALL (     438 calls)

     Called by *egterg:
     cdiaghg      :      0.11s CPU      0.11s WALL (    2592 calls)
     h_psi        :      1.68s CPU      1.74s WALL (    2665 calls)
     s_psi        :      0.02s CPU      0.03s WALL (    2665 calls)
     g_psi        :      0.01s CPU      0.01s WALL (    2154 calls)

     Called by h_psi:
     h_psi:calbec :      0.06s CPU      0.06s WALL (    2665 calls)
     vloc_psi     :      1.58s CPU      1.64s WALL (    2665 calls)
     add_vuspsi   :      0.03s CPU      0.03s WALL (    2665 calls)

     General routines
     calbec       :      0.07s CPU      0.07s WALL (    3103 calls)
     fft          :      0.01s CPU      0.02s WALL (      77 calls)
     ffts         :      0.00s CPU      0.00s WALL (       6 calls)
     fftw         :      1.59s CPU      1.65s WALL (   27146 calls)
 
     Parallel routines
 
     PWSCF        :      2.66s CPU      2.82s WALL

 
   This run was terminated on:  11:39:54   9May2026            

=------------------------------------------------------------------------------=
   JOB DONE.
=------------------------------------------------------------------------------=
