
     Program PWSCF v.7.4 starts on  9May2026 at 11:39:47 

     This program is part of the open-source Quantum ESPRESSO suite
     for quantum simulation of materials; please cite
         "P. Giannozzi et al., J. Phys.:Condens. Matter 21 395502 (2009);
         "P. Giannozzi et al., J. Phys.:Condens. Matter 29 465901 (2017);
         "P. Giannozzi et al., J. Chem. Phys. 152 154105 (2020);
          URL http://www.quantum-espresso.org", 
     in publications or presentations arising from this work. More details at
     http://www.quantum-espresso.org/quote

     Parallel version (MPI), running on    12 processors

     MPI processes distributed on     1 nodes
     155761 MiB available memory on the printing compute node when the environment starts
 
     Waiting for input...
     Reading input from standard input

     Current dimensions of program PWSCF are:
     Max number of different atomic species (ntypx) = 10
     Max number of k-points (npk) =  40000
     Max angular momentum in pseudopotentials (lmaxx) =  4
     file C.upf: wavefunction(s)  2S 2P renormalized
 
     R & G space division:  proc/nbgrp/npool/nimage =      12
     Subspace diagonalization in iterative solution of the eigenvalue problem:
     a serial algorithm will be used

 
     Parallelization info
     --------------------
     sticks:   dense  smooth     PW     G-vecs:    dense   smooth      PW
     Min          49      49     14                 7111     7111    1106
     Max          50      50     15                 7132     7132    1132
     Sum         595     595    169                85433    85433   13437
 
     Using Slab Decomposition
 


     bravais-lattice index     =            4
     lattice parameter (alat)  =       4.6588  a.u.
     unit-cell volume          =     632.2600 (a.u.)^3
     number of atoms/cell      =            2
     number of atomic types    =            1
     number of electrons       =         8.00
     number of Kohn-Sham states=            8
     kinetic-energy cutoff     =     100.0000  Ry
     charge density cutoff     =     400.0000  Ry
     scf convergence threshold =      1.0E-09
     mixing beta               =       0.7000
     number of iterations used =            8  plain     mixing
     Exchange-correlation= SLA  PW   PBX  PBC
                           (   1   4   3   4   0   0   0)

     celldm(1)=   4.658790  celldm(2)=   0.000000  celldm(3)=   7.220142
     celldm(4)=   0.000000  celldm(5)=   0.000000  celldm(6)=   0.000000

     crystal axes: (cart. coord. in units of alat)
               a(1) = (   1.000000   0.000000   0.000000 )  
               a(2) = (  -0.500000   0.866025   0.000000 )  
               a(3) = (   0.000000   0.000000   7.220142 )  

     reciprocal axes: (cart. coord. in units 2 pi/alat)
               b(1) = (  1.000000  0.577350  0.000000 )  
               b(2) = (  0.000000  1.154701  0.000000 )  
               b(3) = (  0.000000  0.000000  0.138501 )  


     PseudoPot. # 1 for C  read from file:
     ./C.upf
     MD5 check sum: 5d2aebdfa2cae82b50a7e79e9516da0f
     Pseudo is Projector augmented-wave + core cor, Zval =  4.0
     Generated using "atomic" code by A. Dal Corso  v.5.1
     Shape of augmentation charge: PSQ
     Using radial grid of 1073 points,  4 beta functions with: 
                l(1) =   0
                l(2) =   0
                l(3) =   1
                l(4) =   1
     Q(r) pseudized with 0 coefficients 


     atomic species   valence    mass     pseudopotential
     C                 4.00    12.01070     C ( 1.00)

      4 Sym. Ops. (no inversion) found



   Cartesian axes

     site n.     atom                  positions (alat units)
         1        C      tau(   1) = (   0.4749641   0.2453946   3.6100711  )
         2        C      tau(   2) = (  -0.0249641   0.5340283   3.6100711  )

     number of k points=    21  Marzari-Vanderbilt smearing, width (Ry)=  0.0200
                       cart. coord. in units 2pi/alat
        k(    1) = (   0.0000000   0.0000000   0.0000000), wk =   0.0312500
        k(    2) = (   0.0000000   0.1443376   0.0000000), wk =   0.1250000
        k(    3) = (   0.0000000   0.2886751   0.0000000), wk =   0.1250000
        k(    4) = (   0.0000000   0.4330127   0.0000000), wk =   0.1250000
        k(    5) = (   0.0000000  -0.5773503   0.0000000), wk =   0.0625000
        k(    6) = (   0.1250000   0.2165064   0.0000000), wk =   0.0625000
        k(    7) = (   0.1250000   0.3608439   0.0000000), wk =   0.1250000
        k(    8) = (   0.1250000   0.5051815   0.0000000), wk =   0.1250000
        k(    9) = (   0.2500000   0.4330127   0.0000000), wk =   0.0625000
        k(   10) = (   0.2500000   0.5773503   0.0000000), wk =   0.1250000
        k(   11) = (  -0.1250000   0.0721688   0.0000000), wk =   0.0625000
        k(   12) = (  -0.2500000   0.1443376   0.0000000), wk =   0.0625000
        k(   13) = (  -0.3750000   0.2165064   0.0000000), wk =   0.0625000
        k(   14) = (   0.5000000  -0.2886751   0.0000000), wk =   0.0312500
        k(   15) = (  -0.1250000   0.2165064   0.0000000), wk =   0.1250000
        k(   16) = (  -0.2500000   0.2886751   0.0000000), wk =   0.1250000
        k(   17) = (   0.3750000   0.0721688   0.0000000), wk =   0.1250000
        k(   18) = (  -0.3750000   0.3608439   0.0000000), wk =   0.1250000
        k(   19) = (   0.5000000   0.1443376   0.0000000), wk =   0.1250000
        k(   20) = (  -0.2500000   0.4330127   0.0000000), wk =   0.1250000
        k(   21) = (  -0.3750000   0.5051815   0.0000000), wk =   0.0625000

     Dense  grid:    85433 G-vectors     FFT dimensions: (  30,  30, 216)

     Estimated max dynamical RAM per process >      12.02 MB

     Estimated total dynamical RAM >     144.18 MB
 ----2D----2D----2D----2D----2D----2D----2D----2D----2D----2D----2D----2D
  The code is running with the 2D cutoff
  Please refer to:
  Sohier, T., Calandra, M., & Mauri, F. (2017), 
  Density functional perturbation theory for gated two-dimensional heterostructu
 res:
  Theoretical developments and application to flexural phonons in graphene.
  Physical Review B, 96(7), 75448. https://doi.org/10.1103/PhysRevB.96.075448
 ----2D----2D----2D----2D----2D----2D----2D----2D----2D----2D----2D----2D

     Check: negative core charge=   -0.000002

     Initial potential from superposition of free atoms

     starting charge       7.9999, renormalised to       8.0000

     negative rho (up, down):  9.152E-05 0.000E+00
     Starting wfcs are    8 randomized atomic wfcs
     Checking if some PAW data can be deallocated... 

     total cpu time spent up to now is        0.2 secs

     per-process dynamical memory:    48.2 Mb

     Self-consistent Calculation

     iteration #  1     ecut=   100.00 Ry     beta= 0.70
     Davidson diagonalization with overlap
     ethr =  1.00E-02,  avg # of iterations =  5.6

     negative rho (up, down):  8.816E-05 0.000E+00

     total cpu time spent up to now is        0.4 secs

     total energy              =     -36.86271909 Ry
     estimated scf accuracy    <       0.18945440 Ry

     iteration #  2     ecut=   100.00 Ry     beta= 0.70
     Davidson diagonalization with overlap
     ethr =  2.37E-03,  avg # of iterations =  4.9

     negative rho (up, down):  9.971E-05 0.000E+00

     total cpu time spent up to now is        0.5 secs

     total energy              =     -36.88769428 Ry
     estimated scf accuracy    <       0.00191479 Ry

     iteration #  3     ecut=   100.00 Ry     beta= 0.70
     Davidson diagonalization with overlap
     ethr =  2.39E-05,  avg # of iterations = 11.0

     negative rho (up, down):  1.104E-04 0.000E+00

     total cpu time spent up to now is        0.8 secs

     total energy              =     -36.88802401 Ry
     estimated scf accuracy    <       0.00015510 Ry

     iteration #  4     ecut=   100.00 Ry     beta= 0.70
     Davidson diagonalization with overlap
     ethr =  1.94E-06,  avg # of iterations =  4.1

     negative rho (up, down):  1.115E-04 0.000E+00

     total cpu time spent up to now is        0.9 secs

     total energy              =     -36.88804016 Ry
     estimated scf accuracy    <       0.00000244 Ry

     iteration #  5     ecut=   100.00 Ry     beta= 0.70
     Davidson diagonalization with overlap
     ethr =  3.05E-08,  avg # of iterations =  3.0

     negative rho (up, down):  1.116E-04 0.000E+00

     total cpu time spent up to now is        1.0 secs

     total energy              =     -36.88804157 Ry
     estimated scf accuracy    <       0.00000010 Ry

     iteration #  6     ecut=   100.00 Ry     beta= 0.70
     Davidson diagonalization with overlap
     ethr =  1.25E-09,  avg # of iterations =  2.6

     negative rho (up, down):  1.116E-04 0.000E+00

     total cpu time spent up to now is        1.1 secs

     End of self-consistent calculation

          k = 0.0000 0.0000 0.0000 ( 10757 PWs)   bands (ev):

   -23.7723 -11.8658  -7.2940  -7.2879  -1.0274  -0.3048   0.7302   1.3617

          k = 0.0000 0.1443 0.0000 ( 10735 PWs)   bands (ev):

   -23.4038 -11.4258  -8.6725  -7.9959  -0.5252   0.2037   1.2388   1.8669

          k = 0.0000 0.2887 0.0000 ( 10685 PWs)   bands (ev):

   -22.3077 -11.6808 -10.1359  -9.3052   0.9790   1.7137   2.7610   2.9863

          k = 0.0000 0.4330 0.0000 ( 10671 PWs)   bands (ev):

   -20.5215 -14.9602 -10.3131  -8.1544  -0.4426   3.2798   3.5484   4.2665

          k = 0.0000-0.5774 0.0000 ( 10652 PWs)   bands (ev):

   -18.5298 -17.4933 -10.6756  -6.6011  -2.5549   3.1569   6.8465   6.9937

          k = 0.1250 0.2165 0.0000 ( 10725 PWs)   bands (ev):

   -22.6715 -10.5592 -10.4755  -9.4020   0.4792   1.2178   2.2567   2.8732

          k = 0.1250 0.3608 0.0000 ( 10689 PWs)   bands (ev):

   -21.2294 -13.2666 -10.9198  -8.8978   0.9669   2.4798   3.2384   4.2853

          k = 0.1250 0.5052 0.0000 ( 10643 PWs)   bands (ev):

   -19.1628 -16.2668 -11.6871  -6.8051  -1.9999   4.7297   5.4624   6.1816

          k = 0.2500 0.4330 0.0000 ( 10673 PWs)   bands (ev):

   -19.4900 -14.7829 -13.2138  -6.9792  -1.4163   4.9505   5.5815   6.8165

          k = 0.2500 0.5774 0.0000 ( 10628 PWs)   bands (ev):

   -17.5830 -16.7056 -13.9965  -5.2614  -3.2862   6.6787   7.8758   8.0411

          k =-0.1250 0.0722 0.0000 ( 10735 PWs)   bands (ev):

   -23.4038 -11.4257  -8.6760  -7.9921  -0.5252   0.2036   1.2387   1.8669

          k =-0.2500 0.1443 0.0000 ( 10685 PWs)   bands (ev):

   -22.3078 -11.6830 -10.1356  -9.3025   0.9790   1.7138   2.7610   2.9852

          k =-0.3750 0.2165 0.0000 ( 10671 PWs)   bands (ev):

   -20.5216 -14.9617 -10.3108  -8.1536  -0.4447   3.2807   3.5487   4.2664

          k = 0.5000-0.2887 0.0000 ( 10652 PWs)   bands (ev):

   -18.5286 -17.4959 -10.6735  -6.5989  -2.5584   3.1578   6.8467   6.9930

          k =-0.1250 0.2165 0.0000 ( 10725 PWs)   bands (ev):

   -22.6716 -10.5591 -10.4788  -9.3984   0.4793   1.2177   2.2567   2.8732

          k =-0.2500 0.2887 0.0000 ( 10689 PWs)   bands (ev):

   -21.2295 -13.2689 -10.9170  -8.8973   0.9650   2.4798   3.2384   4.2854

          k = 0.3750 0.0722 0.0000 ( 10689 PWs)   bands (ev):

   -21.2294 -13.2675 -10.9187  -8.8976   0.9659   2.4798   3.2385   4.2852

          k =-0.3750 0.3608 0.0000 ( 10643 PWs)   bands (ev):

   -19.1627 -16.2685 -11.6851  -6.8035  -2.0029   4.7311   5.4623   6.1817

          k = 0.5000 0.1443 0.0000 ( 10643 PWs)   bands (ev):

   -19.1629 -16.2669 -11.6869  -6.8048  -2.0005   4.7302   5.4622   6.1817

          k =-0.2500 0.4330 0.0000 ( 10673 PWs)   bands (ev):

   -19.4900 -14.7850 -13.2115  -6.9784  -1.4181   4.9505   5.5818   6.8165

          k =-0.3750 0.5052 0.0000 ( 10628 PWs)   bands (ev):

   -17.5816 -16.7085 -13.9949  -5.2593  -3.2890   6.6793   7.8759   8.0418

     the Fermi energy is    -4.0892 ev

!    total energy              =     -36.88804160 Ry
     total all-electron energy =      -152.416237 Ry
     estimated scf accuracy    <          7.3E-10 Ry
     smearing contrib. (-TS)   =       0.00000000 Ry
     internal energy E=F+TS    =     -36.88804160 Ry

     The total energy is F=E-TS. E is the sum of the following terms:
     one-electron contribution =    -313.05571295 Ry
     hartree contribution      =     157.40673239 Ry
     xc contribution           =      -9.27542168 Ry
     ewald contribution        =     140.37044101 Ry
     one-center paw contrib.   =     -12.33408037 Ry

     convergence has been achieved in   6 iterations

     Writing all to output data dir ./tmp/graphene.save/ :
     XML data file, charge density, pseudopotentials, collected wavefunctions
 
     init_run     :      0.10s CPU      0.12s WALL (       1 calls)
     electrons    :      0.86s CPU      0.92s WALL (       1 calls)

     Called by init_run:
     wfcinit      :      0.04s CPU      0.05s WALL (       1 calls)
     potinit      :      0.01s CPU      0.02s WALL (       1 calls)
     hinit0       :      0.01s CPU      0.02s WALL (       1 calls)

     Called by electrons:
     c_bands      :      0.67s CPU      0.72s WALL (       6 calls)
     sum_band     :      0.11s CPU      0.12s WALL (       6 calls)
     v_of_rho     :      0.02s CPU      0.03s WALL (       7 calls)
     newd         :      0.02s CPU      0.02s WALL (       7 calls)
     PAW_pot      :      0.04s CPU      0.04s WALL (       7 calls)
     mix_rho      :      0.00s CPU      0.00s WALL (       6 calls)

     Called by c_bands:
     init_us_2    :      0.01s CPU      0.01s WALL (     273 calls)
     cegterg      :      0.65s CPU      0.69s WALL (     126 calls)

     Called by *egterg:
     cdiaghg      :      0.03s CPU      0.03s WALL (     781 calls)
     h_psi        :      0.56s CPU      0.61s WALL (     802 calls)
     s_psi        :      0.01s CPU      0.01s WALL (     802 calls)
     g_psi        :      0.00s CPU      0.00s WALL (     655 calls)

     Called by h_psi:
     h_psi:calbec :      0.02s CPU      0.02s WALL (     802 calls)
     vloc_psi     :      0.53s CPU      0.57s WALL (     802 calls)
     add_vuspsi   :      0.01s CPU      0.01s WALL (     802 calls)

     General routines
     calbec       :      0.02s CPU      0.03s WALL (     928 calls)
     fft          :      0.01s CPU      0.02s WALL (      77 calls)
     ffts         :      0.00s CPU      0.00s WALL (       6 calls)
     fftw         :      0.55s CPU      0.59s WALL (    7868 calls)
 
     Parallel routines
 
     PWSCF        :      1.01s CPU      1.12s WALL

 
   This run was terminated on:  11:39:48   9May2026            

=------------------------------------------------------------------------------=
   JOB DONE.
=------------------------------------------------------------------------------=
