
     Program PWSCF v.7.4 starts on 15Jun2026 at 23:59:18 

     This program is part of the open-source Quantum ESPRESSO suite
     for quantum simulation of materials; please cite
         "P. Giannozzi et al., J. Phys.:Condens. Matter 21 395502 (2009);
         "P. Giannozzi et al., J. Phys.:Condens. Matter 29 465901 (2017);
         "P. Giannozzi et al., J. Chem. Phys. 152 154105 (2020);
          URL http://www.quantum-espresso.org", 
     in publications or presentations arising from this work. More details at
     http://www.quantum-espresso.org/quote

     Parallel version (MPI), running on    12 processors

     MPI processes distributed on     1 nodes
     39983 MiB available memory on the printing compute node when the environment starts
 
     Reading input from al_sup.scf.in

     Current dimensions of program PWSCF are:
     Max number of different atomic species (ntypx) = 10
     Max number of k-points (npk) =  40000
     Max angular momentum in pseudopotentials (lmaxx) =  4
read_pp_mesh; mismatch in mesh size, discarding the one in header
     Found identity + (  0.0000  0.0000  0.2500) symmetry
     This is a supercell, fractional translations are disabled
     Message from routine setup:
     using ibrav=0 with symmetry is DISCOURAGED, use correct ibrav instead
 
     R & G space division:  proc/nbgrp/npool/nimage =      12
     Subspace diagonalization in iterative solution of the eigenvalue problem:
     a serial algorithm will be used

 
     Parallelization info
     --------------------
     sticks:   dense  smooth     PW     G-vecs:    dense   smooth      PW
     Min         536     536    144                28308    28308    3943
     Max         537     537    145                28311    28311    3944
     Sum        6433    6433   1735               339709   339709   47327
 
     Using Slab Decomposition
 


     bravais-lattice index     =            0
     lattice parameter (alat)  =      21.5818  a.u.
     unit-cell volume          =    7108.0585 (a.u.)^3
     number of atoms/cell      =           64
     number of atomic types    =            1
     number of electrons       =       192.00
     number of Kohn-Sham states=          115
     kinetic-energy cutoff     =      50.0000  Ry
     charge density cutoff     =     200.0000  Ry
     scf convergence threshold =      1.0E-16
     mixing beta               =       0.7000
     number of iterations used =            8  plain     mixing
     Exchange-correlation= SLA PW PBX PBC
                           (   1   4   3   4   0   0   0)

     celldm(1)=  21.581850  celldm(2)=   0.000000  celldm(3)=   0.000000
     celldm(4)=   0.000000  celldm(5)=   0.000000  celldm(6)=   0.000000

     crystal axes: (cart. coord. in units of alat)
               a(1) = (  -0.707107   0.000000   0.707107 )  
               a(2) = (   0.000000   0.707107   0.707107 )  
               a(3) = (  -0.707107   0.707107   0.000000 )  

     reciprocal axes: (cart. coord. in units 2 pi/alat)
               b(1) = ( -0.707107 -0.707107  0.707107 )  
               b(2) = (  0.707107  0.707107  0.707107 )  
               b(3) = ( -0.707107  0.707107 -0.707107 )  


     PseudoPot. # 1 for Al read from file:
     ../../../pseudopotentzialak/Al.upf
     MD5 check sum: fd3ab6bbf4b2322b308692f0f9c61a66
     Pseudo is Projector augmented-wave + core cor, Zval =  3.0
     Generated using ATOMPAW code
     Shape of augmentation charge: SINC**2
     Using radial grid of 2342 points,  4 beta functions with: 
                l(1) =   0
                l(2) =   0
                l(3) =   1
                l(4) =   1
     Q(r) pseudized with 0 coefficients 


     atomic species   valence    mass     pseudopotential
     Al                3.00    26.98150     Al( 1.00)

     48 Sym. Ops., with inversion, found


                                    s                        frac. trans.

      isym =  1     identity                                     

 cryst.   s( 1) = (     1          0          0      )
                  (     0          1          0      )
                  (     0          0          1      )

 cart.    s( 1) = (  1.0000000  0.0000000  0.0000000 )
                  (  0.0000000  1.0000000  0.0000000 )
                  (  0.0000000  0.0000000  1.0000000 )


      isym =  2     180 deg rotation - cart. axis [0,0,1]        

 cryst.   s( 2) = (     0          1         -1      )
                  (     1          0         -1      )
                  (     0          0         -1      )

 cart.    s( 2) = ( -1.0000000  0.0000000  0.0000000 )
                  (  0.0000000 -1.0000000  0.0000000 )
                  (  0.0000000  0.0000000  1.0000000 )


      isym =  3     180 deg rotation - cart. axis [0,1,0]        

 cryst.   s( 3) = (    -1          0          0      )
                  (    -1          0          1      )
                  (    -1          1          0      )

 cart.    s( 3) = ( -1.0000000  0.0000000  0.0000000 )
                  (  0.0000000  1.0000000  0.0000000 )
                  (  0.0000000  0.0000000 -1.0000000 )


      isym =  4     180 deg rotation - cart. axis [1,0,0]        

 cryst.   s( 4) = (     0         -1          1      )
                  (     0         -1          0      )
                  (     1         -1          0      )

 cart.    s( 4) = (  1.0000000  0.0000000  0.0000000 )
                  (  0.0000000 -1.0000000  0.0000000 )
                  (  0.0000000  0.0000000 -1.0000000 )


      isym =  5     180 deg rotation - cart. axis [1,1,0]        

 cryst.   s( 5) = (     0         -1          0      )
                  (    -1          0          0      )
                  (     0          0         -1      )

 cart.    s( 5) = (  0.0000000  1.0000000  0.0000000 )
                  (  1.0000000  0.0000000  0.0000000 )
                  (  0.0000000  0.0000000 -1.0000000 )


      isym =  6     180 deg rotation - cart. axis [1,-1,0]       

 cryst.   s( 6) = (    -1          0          1      )
                  (     0         -1          1      )
                  (     0          0          1      )

 cart.    s( 6) = (  0.0000000 -1.0000000  0.0000000 )
                  ( -1.0000000  0.0000000  0.0000000 )
                  (  0.0000000  0.0000000 -1.0000000 )


      isym =  7      90 deg rotation - cart. axis [0,0,-1]       

 cryst.   s( 7) = (     0          1          0      )
                  (     0          1         -1      )
                  (    -1          1          0      )

 cart.    s( 7) = (  0.0000000  1.0000000  0.0000000 )
                  ( -1.0000000  0.0000000  0.0000000 )
                  (  0.0000000  0.0000000  1.0000000 )


      isym =  8      90 deg rotation - cart. axis [0,0,1]        

 cryst.   s( 8) = (     1          0         -1      )
                  (     1          0          0      )
                  (     1         -1          0      )

 cart.    s( 8) = (  0.0000000 -1.0000000  0.0000000 )
                  (  1.0000000  0.0000000  0.0000000 )
                  (  0.0000000  0.0000000  1.0000000 )


      isym =  9     180 deg rotation - cart. axis [1,0,1]        

 cryst.   s( 9) = (    -1          0          0      )
                  (     0          0         -1      )
                  (     0         -1          0      )

 cart.    s( 9) = (  0.0000000  0.0000000  1.0000000 )
                  (  0.0000000 -1.0000000  0.0000000 )
                  (  1.0000000  0.0000000  0.0000000 )


      isym = 10     180 deg rotation - cart. axis [-1,0,1]       

 cryst.   s(10) = (     1          0          0      )
                  (     1         -1          0      )
                  (     1          0         -1      )

 cart.    s(10) = (  0.0000000  0.0000000 -1.0000000 )
                  (  0.0000000 -1.0000000  0.0000000 )
                  ( -1.0000000  0.0000000  0.0000000 )


      isym = 11      90 deg rotation - cart. axis [0,1,0]        

 cryst.   s(11) = (     0          1         -1      )
                  (    -1          1          0      )
                  (     0          1          0      )

 cart.    s(11) = (  0.0000000  0.0000000  1.0000000 )
                  (  0.0000000  1.0000000  0.0000000 )
                  ( -1.0000000  0.0000000  0.0000000 )


      isym = 12      90 deg rotation - cart. axis [0,-1,0]       

 cryst.   s(12) = (     0         -1          1      )
                  (     0          0          1      )
                  (    -1          0          1      )

 cart.    s(12) = (  0.0000000  0.0000000 -1.0000000 )
                  (  0.0000000  1.0000000  0.0000000 )
                  (  1.0000000  0.0000000  0.0000000 )


      isym = 13     180 deg rotation - cart. axis [0,1,1]        

 cryst.   s(13) = (    -1          1          0      )
                  (     0          1          0      )
                  (     0          1         -1      )

 cart.    s(13) = ( -1.0000000  0.0000000  0.0000000 )
                  (  0.0000000  0.0000000  1.0000000 )
                  (  0.0000000  1.0000000  0.0000000 )


      isym = 14     180 deg rotation - cart. axis [0,1,-1]       

 cryst.   s(14) = (     0          0         -1      )
                  (     0         -1          0      )
                  (    -1          0          0      )

 cart.    s(14) = ( -1.0000000  0.0000000  0.0000000 )
                  (  0.0000000  0.0000000 -1.0000000 )
                  (  0.0000000 -1.0000000  0.0000000 )


      isym = 15      90 deg rotation - cart. axis [-1,0,0]       

 cryst.   s(15) = (     0          0          1      )
                  (    -1          0          1      )
                  (     0         -1          1      )

 cart.    s(15) = (  1.0000000  0.0000000  0.0000000 )
                  (  0.0000000  0.0000000  1.0000000 )
                  (  0.0000000 -1.0000000  0.0000000 )


      isym = 16      90 deg rotation - cart. axis [1,0,0]        

 cryst.   s(16) = (     1         -1          0      )
                  (     1          0         -1      )
                  (     1          0          0      )

 cart.    s(16) = (  1.0000000  0.0000000  0.0000000 )
                  (  0.0000000  0.0000000 -1.0000000 )
                  (  0.0000000  1.0000000  0.0000000 )


      isym = 17     120 deg rotation - cart. axis [-1,-1,-1]     

 cryst.   s(17) = (    -1          0          1      )
                  (    -1          1          0      )
                  (    -1          0          0      )

 cart.    s(17) = (  0.0000000  1.0000000  0.0000000 )
                  (  0.0000000  0.0000000  1.0000000 )
                  (  1.0000000  0.0000000  0.0000000 )


      isym = 18     120 deg rotation - cart. axis [-1,1,1]       

 cryst.   s(18) = (     0          1          0      )
                  (     0          0          1      )
                  (     1          0          0      )

 cart.    s(18) = (  0.0000000 -1.0000000  0.0000000 )
                  (  0.0000000  0.0000000  1.0000000 )
                  ( -1.0000000  0.0000000  0.0000000 )


      isym = 19     120 deg rotation - cart. axis [1,1,-1]       

 cryst.   s(19) = (     1          0         -1      )
                  (     0          0         -1      )
                  (     0          1         -1      )

 cart.    s(19) = (  0.0000000  1.0000000  0.0000000 )
                  (  0.0000000  0.0000000 -1.0000000 )
                  ( -1.0000000  0.0000000  0.0000000 )


      isym = 20     120 deg rotation - cart. axis [1,-1,1]       

 cryst.   s(20) = (     0         -1          0      )
                  (     1         -1          0      )
                  (     0         -1          1      )

 cart.    s(20) = (  0.0000000 -1.0000000  0.0000000 )
                  (  0.0000000  0.0000000 -1.0000000 )
                  (  1.0000000  0.0000000  0.0000000 )


      isym = 21     120 deg rotation - cart. axis [1,1,1]        

 cryst.   s(21) = (     0          0         -1      )
                  (     0          1         -1      )
                  (     1          0         -1      )

 cart.    s(21) = (  0.0000000  0.0000000  1.0000000 )
                  (  1.0000000  0.0000000  0.0000000 )
                  (  0.0000000  1.0000000  0.0000000 )


      isym = 22     120 deg rotation - cart. axis [-1,1,-1]      

 cryst.   s(22) = (    -1          1          0      )
                  (    -1          0          0      )
                  (    -1          0          1      )

 cart.    s(22) = (  0.0000000  0.0000000  1.0000000 )
                  ( -1.0000000  0.0000000  0.0000000 )
                  (  0.0000000 -1.0000000  0.0000000 )


      isym = 23     120 deg rotation - cart. axis [1,-1,-1]      

 cryst.   s(23) = (     0          0          1      )
                  (     1          0          0      )
                  (     0          1          0      )

 cart.    s(23) = (  0.0000000  0.0000000 -1.0000000 )
                  ( -1.0000000  0.0000000  0.0000000 )
                  (  0.0000000  1.0000000  0.0000000 )


      isym = 24     120 deg rotation - cart. axis [-1,-1,1]      

 cryst.   s(24) = (     1         -1          0      )
                  (     0         -1          1      )
                  (     0         -1          0      )

 cart.    s(24) = (  0.0000000  0.0000000 -1.0000000 )
                  (  1.0000000  0.0000000  0.0000000 )
                  (  0.0000000 -1.0000000  0.0000000 )


      isym = 25     inversion                                    

 cryst.   s(25) = (    -1          0          0      )
                  (     0         -1          0      )
                  (     0          0         -1      )

 cart.    s(25) = ( -1.0000000  0.0000000  0.0000000 )
                  (  0.0000000 -1.0000000  0.0000000 )
                  (  0.0000000  0.0000000 -1.0000000 )


      isym = 26     inv. 180 deg rotation - cart. axis [0,0,1]   

 cryst.   s(26) = (     0         -1          1      )
                  (    -1          0          1      )
                  (     0          0          1      )

 cart.    s(26) = (  1.0000000  0.0000000  0.0000000 )
                  (  0.0000000  1.0000000  0.0000000 )
                  (  0.0000000  0.0000000 -1.0000000 )


      isym = 27     inv. 180 deg rotation - cart. axis [0,1,0]   

 cryst.   s(27) = (     1          0          0      )
                  (     1          0         -1      )
                  (     1         -1          0      )

 cart.    s(27) = (  1.0000000  0.0000000  0.0000000 )
                  (  0.0000000 -1.0000000  0.0000000 )
                  (  0.0000000  0.0000000  1.0000000 )


      isym = 28     inv. 180 deg rotation - cart. axis [1,0,0]   

 cryst.   s(28) = (     0          1         -1      )
                  (     0          1          0      )
                  (    -1          1          0      )

 cart.    s(28) = ( -1.0000000  0.0000000  0.0000000 )
                  (  0.0000000  1.0000000  0.0000000 )
                  (  0.0000000  0.0000000  1.0000000 )


      isym = 29     inv. 180 deg rotation - cart. axis [1,1,0]   

 cryst.   s(29) = (     0          1          0      )
                  (     1          0          0      )
                  (     0          0          1      )

 cart.    s(29) = (  0.0000000 -1.0000000  0.0000000 )
                  ( -1.0000000  0.0000000  0.0000000 )
                  (  0.0000000  0.0000000  1.0000000 )


      isym = 30     inv. 180 deg rotation - cart. axis [1,-1,0]  

 cryst.   s(30) = (     1          0         -1      )
                  (     0          1         -1      )
                  (     0          0         -1      )

 cart.    s(30) = (  0.0000000  1.0000000  0.0000000 )
                  (  1.0000000  0.0000000  0.0000000 )
                  (  0.0000000  0.0000000  1.0000000 )


      isym = 31     inv.  90 deg rotation - cart. axis [0,0,-1]  

 cryst.   s(31) = (     0         -1          0      )
                  (     0         -1          1      )
                  (     1         -1          0      )

 cart.    s(31) = (  0.0000000 -1.0000000  0.0000000 )
                  (  1.0000000  0.0000000  0.0000000 )
                  (  0.0000000  0.0000000 -1.0000000 )


      isym = 32     inv.  90 deg rotation - cart. axis [0,0,1]   

 cryst.   s(32) = (    -1          0          1      )
                  (    -1          0          0      )
                  (    -1          1          0      )

 cart.    s(32) = (  0.0000000  1.0000000  0.0000000 )
                  ( -1.0000000  0.0000000  0.0000000 )
                  (  0.0000000  0.0000000 -1.0000000 )


      isym = 33     inv. 180 deg rotation - cart. axis [1,0,1]   

 cryst.   s(33) = (     1          0          0      )
                  (     0          0          1      )
                  (     0          1          0      )

 cart.    s(33) = (  0.0000000  0.0000000 -1.0000000 )
                  (  0.0000000  1.0000000  0.0000000 )
                  ( -1.0000000  0.0000000  0.0000000 )


      isym = 34     inv. 180 deg rotation - cart. axis [-1,0,1]  

 cryst.   s(34) = (    -1          0          0      )
                  (    -1          1          0      )
                  (    -1          0          1      )

 cart.    s(34) = (  0.0000000  0.0000000  1.0000000 )
                  (  0.0000000  1.0000000  0.0000000 )
                  (  1.0000000  0.0000000  0.0000000 )


      isym = 35     inv.  90 deg rotation - cart. axis [0,1,0]   

 cryst.   s(35) = (     0         -1          1      )
                  (     1         -1          0      )
                  (     0         -1          0      )

 cart.    s(35) = (  0.0000000  0.0000000 -1.0000000 )
                  (  0.0000000 -1.0000000  0.0000000 )
                  (  1.0000000  0.0000000  0.0000000 )


      isym = 36     inv.  90 deg rotation - cart. axis [0,-1,0]  

 cryst.   s(36) = (     0          1         -1      )
                  (     0          0         -1      )
                  (     1          0         -1      )

 cart.    s(36) = (  0.0000000  0.0000000  1.0000000 )
                  (  0.0000000 -1.0000000  0.0000000 )
                  ( -1.0000000  0.0000000  0.0000000 )


      isym = 37     inv. 180 deg rotation - cart. axis [0,1,1]   

 cryst.   s(37) = (     1         -1          0      )
                  (     0         -1          0      )
                  (     0         -1          1      )

 cart.    s(37) = (  1.0000000  0.0000000  0.0000000 )
                  (  0.0000000  0.0000000 -1.0000000 )
                  (  0.0000000 -1.0000000  0.0000000 )


      isym = 38     inv. 180 deg rotation - cart. axis [0,1,-1]  

 cryst.   s(38) = (     0          0          1      )
                  (     0          1          0      )
                  (     1          0          0      )

 cart.    s(38) = (  1.0000000  0.0000000  0.0000000 )
                  (  0.0000000  0.0000000  1.0000000 )
                  (  0.0000000  1.0000000  0.0000000 )


      isym = 39     inv.  90 deg rotation - cart. axis [-1,0,0]  

 cryst.   s(39) = (     0          0         -1      )
                  (     1          0         -1      )
                  (     0          1         -1      )

 cart.    s(39) = ( -1.0000000  0.0000000  0.0000000 )
                  (  0.0000000  0.0000000 -1.0000000 )
                  (  0.0000000  1.0000000  0.0000000 )


      isym = 40     inv.  90 deg rotation - cart. axis [1,0,0]   

 cryst.   s(40) = (    -1          1          0      )
                  (    -1          0          1      )
                  (    -1          0          0      )

 cart.    s(40) = ( -1.0000000  0.0000000  0.0000000 )
                  (  0.0000000  0.0000000  1.0000000 )
                  (  0.0000000 -1.0000000  0.0000000 )


      isym = 41     inv. 120 deg rotation - cart. axis [-1,-1,-1]

 cryst.   s(41) = (     1          0         -1      )
                  (     1         -1          0      )
                  (     1          0          0      )

 cart.    s(41) = (  0.0000000 -1.0000000  0.0000000 )
                  (  0.0000000  0.0000000 -1.0000000 )
                  ( -1.0000000  0.0000000  0.0000000 )


      isym = 42     inv. 120 deg rotation - cart. axis [-1,1,1]  

 cryst.   s(42) = (     0         -1          0      )
                  (     0          0         -1      )
                  (    -1          0          0      )

 cart.    s(42) = (  0.0000000  1.0000000  0.0000000 )
                  (  0.0000000  0.0000000 -1.0000000 )
                  (  1.0000000  0.0000000  0.0000000 )


      isym = 43     inv. 120 deg rotation - cart. axis [1,1,-1]  

 cryst.   s(43) = (    -1          0          1      )
                  (     0          0          1      )
                  (     0         -1          1      )

 cart.    s(43) = (  0.0000000 -1.0000000  0.0000000 )
                  (  0.0000000  0.0000000  1.0000000 )
                  (  1.0000000  0.0000000  0.0000000 )


      isym = 44     inv. 120 deg rotation - cart. axis [1,-1,1]  

 cryst.   s(44) = (     0          1          0      )
                  (    -1          1          0      )
                  (     0          1         -1      )

 cart.    s(44) = (  0.0000000  1.0000000  0.0000000 )
                  (  0.0000000  0.0000000  1.0000000 )
                  ( -1.0000000  0.0000000  0.0000000 )


      isym = 45     inv. 120 deg rotation - cart. axis [1,1,1]   

 cryst.   s(45) = (     0          0          1      )
                  (     0         -1          1      )
                  (    -1          0          1      )

 cart.    s(45) = (  0.0000000  0.0000000 -1.0000000 )
                  ( -1.0000000  0.0000000  0.0000000 )
                  (  0.0000000 -1.0000000  0.0000000 )


      isym = 46     inv. 120 deg rotation - cart. axis [-1,1,-1] 

 cryst.   s(46) = (     1         -1          0      )
                  (     1          0          0      )
                  (     1          0         -1      )

 cart.    s(46) = (  0.0000000  0.0000000 -1.0000000 )
                  (  1.0000000  0.0000000  0.0000000 )
                  (  0.0000000  1.0000000  0.0000000 )


      isym = 47     inv. 120 deg rotation - cart. axis [1,-1,-1] 

 cryst.   s(47) = (     0          0         -1      )
                  (    -1          0          0      )
                  (     0         -1          0      )

 cart.    s(47) = (  0.0000000  0.0000000  1.0000000 )
                  (  1.0000000  0.0000000  0.0000000 )
                  (  0.0000000 -1.0000000  0.0000000 )


      isym = 48     inv. 120 deg rotation - cart. axis [-1,-1,1] 

 cryst.   s(48) = (    -1          1          0      )
                  (     0          1         -1      )
                  (     0          1          0      )

 cart.    s(48) = (  0.0000000  0.0000000  1.0000000 )
                  ( -1.0000000  0.0000000  0.0000000 )
                  (  0.0000000  1.0000000  0.0000000 )


   Cartesian axes

     site n.     atom                  positions (alat units)
         1        Al     tau(   1) = (   0.0000000   0.0000000   0.0000000  )
         2        Al     tau(   2) = (  -0.1767767   0.1767767   0.0000000  )
         3        Al     tau(   3) = (  -0.3535534   0.3535534   0.0000000  )
         4        Al     tau(   4) = (  -0.5303301   0.5303301   0.0000000  )
         5        Al     tau(   5) = (   0.0000000   0.1767767   0.1767767  )
         6        Al     tau(   6) = (  -0.1767767   0.3535534   0.1767767  )
         7        Al     tau(   7) = (  -0.3535534   0.5303301   0.1767767  )
         8        Al     tau(   8) = (  -0.5303301   0.7071068   0.1767767  )
         9        Al     tau(   9) = (   0.0000000   0.3535534   0.3535534  )
        10        Al     tau(  10) = (  -0.1767767   0.5303301   0.3535534  )
        11        Al     tau(  11) = (  -0.3535534   0.7071068   0.3535534  )
        12        Al     tau(  12) = (  -0.5303301   0.8838835   0.3535534  )
        13        Al     tau(  13) = (   0.0000000   0.5303301   0.5303301  )
        14        Al     tau(  14) = (  -0.1767767   0.7071068   0.5303301  )
        15        Al     tau(  15) = (  -0.3535534   0.8838835   0.5303301  )
        16        Al     tau(  16) = (  -0.5303301   1.0606602   0.5303301  )
        17        Al     tau(  17) = (  -0.1767767   0.0000000   0.1767767  )
        18        Al     tau(  18) = (  -0.3535534   0.1767767   0.1767767  )
        19        Al     tau(  19) = (  -0.5303301   0.3535534   0.1767767  )
        20        Al     tau(  20) = (  -0.7071068   0.5303301   0.1767767  )
        21        Al     tau(  21) = (  -0.1767767   0.1767767   0.3535534  )
        22        Al     tau(  22) = (  -0.3535534   0.3535534   0.3535534  )
        23        Al     tau(  23) = (  -0.5303301   0.5303301   0.3535534  )
        24        Al     tau(  24) = (  -0.7071068   0.7071068   0.3535534  )
        25        Al     tau(  25) = (  -0.1767767   0.3535534   0.5303301  )
        26        Al     tau(  26) = (  -0.3535534   0.5303301   0.5303301  )
        27        Al     tau(  27) = (  -0.5303301   0.7071068   0.5303301  )
        28        Al     tau(  28) = (  -0.7071068   0.8838835   0.5303301  )
        29        Al     tau(  29) = (  -0.1767767   0.5303301   0.7071068  )
        30        Al     tau(  30) = (  -0.3535534   0.7071068   0.7071068  )
        31        Al     tau(  31) = (  -0.5303301   0.8838835   0.7071068  )
        32        Al     tau(  32) = (  -0.7071068   1.0606602   0.7071068  )
        33        Al     tau(  33) = (  -0.3535534   0.0000000   0.3535534  )
        34        Al     tau(  34) = (  -0.5303301   0.1767767   0.3535534  )
        35        Al     tau(  35) = (  -0.7071068   0.3535534   0.3535534  )
        36        Al     tau(  36) = (  -0.8838835   0.5303301   0.3535534  )
        37        Al     tau(  37) = (  -0.3535534   0.1767767   0.5303301  )
        38        Al     tau(  38) = (  -0.5303301   0.3535534   0.5303301  )
        39        Al     tau(  39) = (  -0.7071068   0.5303301   0.5303301  )
        40        Al     tau(  40) = (  -0.8838835   0.7071068   0.5303301  )
        41        Al     tau(  41) = (  -0.3535534   0.3535534   0.7071068  )
        42        Al     tau(  42) = (  -0.5303301   0.5303301   0.7071068  )
        43        Al     tau(  43) = (  -0.7071068   0.7071068   0.7071068  )
        44        Al     tau(  44) = (  -0.8838835   0.8838835   0.7071068  )
        45        Al     tau(  45) = (  -0.3535534   0.5303301   0.8838835  )
        46        Al     tau(  46) = (  -0.5303301   0.7071068   0.8838835  )
        47        Al     tau(  47) = (  -0.7071068   0.8838835   0.8838835  )
        48        Al     tau(  48) = (  -0.8838835   1.0606602   0.8838835  )
        49        Al     tau(  49) = (  -0.5303301   0.0000000   0.5303301  )
        50        Al     tau(  50) = (  -0.7071068   0.1767767   0.5303301  )
        51        Al     tau(  51) = (  -0.8838835   0.3535534   0.5303301  )
        52        Al     tau(  52) = (  -1.0606602   0.5303301   0.5303301  )
        53        Al     tau(  53) = (  -0.5303301   0.1767767   0.7071068  )
        54        Al     tau(  54) = (  -0.7071068   0.3535534   0.7071068  )
        55        Al     tau(  55) = (  -0.8838835   0.5303301   0.7071068  )
        56        Al     tau(  56) = (  -1.0606602   0.7071068   0.7071068  )
        57        Al     tau(  57) = (  -0.5303301   0.3535534   0.8838835  )
        58        Al     tau(  58) = (  -0.7071068   0.5303301   0.8838835  )
        59        Al     tau(  59) = (  -0.8838835   0.7071068   0.8838835  )
        60        Al     tau(  60) = (  -1.0606602   0.8838835   0.8838835  )
        61        Al     tau(  61) = (  -0.5303301   0.5303301   1.0606602  )
        62        Al     tau(  62) = (  -0.7071068   0.7071068   1.0606602  )
        63        Al     tau(  63) = (  -0.8838835   0.8838835   1.0606602  )
        64        Al     tau(  64) = (  -1.0606602   1.0606602   1.0606602  )

   Crystallographic axes

     site n.     atom                  positions (cryst. coord.)
         1        Al     tau(   1) = (  0.0000000  0.0000000  0.0000000  )
         2        Al     tau(   2) = (  0.0000000  0.0000000  0.2500000  )
         3        Al     tau(   3) = (  0.0000000  0.0000000  0.5000000  )
         4        Al     tau(   4) = (  0.0000000  0.0000000  0.7500000  )
         5        Al     tau(   5) = (  0.0000000  0.2500000  0.0000000  )
         6        Al     tau(   6) = (  0.0000000  0.2500000  0.2500000  )
         7        Al     tau(   7) = (  0.0000000  0.2500000  0.5000000  )
         8        Al     tau(   8) = (  0.0000000  0.2500000  0.7500000  )
         9        Al     tau(   9) = (  0.0000000  0.5000000  0.0000000  )
        10        Al     tau(  10) = (  0.0000000  0.5000000  0.2500000  )
        11        Al     tau(  11) = (  0.0000000  0.5000000  0.5000000  )
        12        Al     tau(  12) = (  0.0000000  0.5000000  0.7500000  )
        13        Al     tau(  13) = (  0.0000000  0.7500000  0.0000000  )
        14        Al     tau(  14) = (  0.0000000  0.7500000  0.2500000  )
        15        Al     tau(  15) = (  0.0000000  0.7500000  0.5000000  )
        16        Al     tau(  16) = (  0.0000000  0.7500000  0.7500000  )
        17        Al     tau(  17) = (  0.2500000  0.0000000  0.0000000  )
        18        Al     tau(  18) = (  0.2500000  0.0000000  0.2500000  )
        19        Al     tau(  19) = (  0.2500000  0.0000000  0.5000000  )
        20        Al     tau(  20) = (  0.2500000  0.0000000  0.7500000  )
        21        Al     tau(  21) = (  0.2500000  0.2500000  0.0000000  )
        22        Al     tau(  22) = (  0.2500000  0.2500000  0.2500000  )
        23        Al     tau(  23) = (  0.2500000  0.2500000  0.5000000  )
        24        Al     tau(  24) = (  0.2500000  0.2500000  0.7500000  )
        25        Al     tau(  25) = (  0.2500000  0.5000000  0.0000000  )
        26        Al     tau(  26) = (  0.2500000  0.5000000  0.2500000  )
        27        Al     tau(  27) = (  0.2500000  0.5000000  0.5000000  )
        28        Al     tau(  28) = (  0.2500000  0.5000000  0.7500000  )
        29        Al     tau(  29) = (  0.2500000  0.7500000  0.0000000  )
        30        Al     tau(  30) = (  0.2500000  0.7500000  0.2500000  )
        31        Al     tau(  31) = (  0.2500000  0.7500000  0.5000000  )
        32        Al     tau(  32) = (  0.2500000  0.7500000  0.7500000  )
        33        Al     tau(  33) = (  0.5000000  0.0000000  0.0000000  )
        34        Al     tau(  34) = (  0.5000000  0.0000000  0.2500000  )
        35        Al     tau(  35) = (  0.5000000  0.0000000  0.5000000  )
        36        Al     tau(  36) = (  0.5000000  0.0000000  0.7500000  )
        37        Al     tau(  37) = (  0.5000000  0.2500000  0.0000000  )
        38        Al     tau(  38) = (  0.5000000  0.2500000  0.2500000  )
        39        Al     tau(  39) = (  0.5000000  0.2500000  0.5000000  )
        40        Al     tau(  40) = (  0.5000000  0.2500000  0.7500000  )
        41        Al     tau(  41) = (  0.5000000  0.5000000  0.0000000  )
        42        Al     tau(  42) = (  0.5000000  0.5000000  0.2500000  )
        43        Al     tau(  43) = (  0.5000000  0.5000000  0.5000000  )
        44        Al     tau(  44) = (  0.5000000  0.5000000  0.7500000  )
        45        Al     tau(  45) = (  0.5000000  0.7500000  0.0000000  )
        46        Al     tau(  46) = (  0.5000000  0.7500000  0.2500000  )
        47        Al     tau(  47) = (  0.5000000  0.7500000  0.5000000  )
        48        Al     tau(  48) = (  0.5000000  0.7500000  0.7500000  )
        49        Al     tau(  49) = (  0.7500000  0.0000000  0.0000000  )
        50        Al     tau(  50) = (  0.7500000  0.0000000  0.2500000  )
        51        Al     tau(  51) = (  0.7500000  0.0000000  0.5000000  )
        52        Al     tau(  52) = (  0.7500000  0.0000000  0.7500000  )
        53        Al     tau(  53) = (  0.7500000  0.2500000  0.0000000  )
        54        Al     tau(  54) = (  0.7500000  0.2500000  0.2500000  )
        55        Al     tau(  55) = (  0.7500000  0.2500000  0.5000000  )
        56        Al     tau(  56) = (  0.7500000  0.2500000  0.7500000  )
        57        Al     tau(  57) = (  0.7500000  0.5000000  0.0000000  )
        58        Al     tau(  58) = (  0.7500000  0.5000000  0.2500000  )
        59        Al     tau(  59) = (  0.7500000  0.5000000  0.5000000  )
        60        Al     tau(  60) = (  0.7500000  0.5000000  0.7500000  )
        61        Al     tau(  61) = (  0.7500000  0.7500000  0.0000000  )
        62        Al     tau(  62) = (  0.7500000  0.7500000  0.2500000  )
        63        Al     tau(  63) = (  0.7500000  0.7500000  0.5000000  )
        64        Al     tau(  64) = (  0.7500000  0.7500000  0.7500000  )

     number of k points=    16  Methfessel-Paxton smearing, width (Ry)=  0.0200
                       cart. coord. in units 2pi/alat
        k(    1) = (   0.0000000   0.0000000   0.0000000), wk =   0.0092593
        k(    2) = (  -0.1178511   0.1178511  -0.1178511), wk =   0.0740741
        k(    3) = (  -0.2357023   0.2357023  -0.2357023), wk =   0.0740741
        k(    4) = (   0.3535534  -0.3535534   0.3535534), wk =   0.0370370
        k(    5) = (   0.0000000   0.2357023   0.0000000), wk =   0.0555556
        k(    6) = (  -0.1178511   0.3535534  -0.1178511), wk =   0.2222222
        k(    7) = (   0.4714045  -0.2357023   0.4714045), wk =   0.2222222
        k(    8) = (   0.3535534  -0.1178511   0.3535534), wk =   0.2222222
        k(    9) = (   0.2357023  -0.0000000   0.2357023), wk =   0.1111111
        k(   10) = (   0.0000000   0.4714045   0.0000000), wk =   0.0555556
        k(   11) = (   0.5892557  -0.1178511   0.5892557), wk =   0.2222222
        k(   12) = (   0.4714045  -0.0000000   0.4714045), wk =   0.1111111
        k(   13) = (   0.0000000  -0.7071068   0.0000000), wk =   0.0277778
        k(   14) = (   0.4714045  -0.2357023   0.7071068), wk =   0.2222222
        k(   15) = (   0.3535534  -0.1178511   0.5892557), wk =   0.2222222
        k(   16) = (  -0.2357023  -0.7071068   0.0000000), wk =   0.1111111

                       cryst. coord.
        k(    1) = (   0.0000000   0.0000000   0.0000000), wk =   0.0092593
        k(    2) = (   0.0000000   0.0000000   0.1666667), wk =   0.0740741
        k(    3) = (   0.0000000   0.0000000   0.3333333), wk =   0.0740741
        k(    4) = (   0.0000000   0.0000000  -0.5000000), wk =   0.0370370
        k(    5) = (   0.0000000   0.1666667   0.1666667), wk =   0.0555556
        k(    6) = (   0.0000000   0.1666667   0.3333333), wk =   0.2222222
        k(    7) = (   0.0000000   0.1666667  -0.5000000), wk =   0.2222222
        k(    8) = (   0.0000000   0.1666667  -0.3333333), wk =   0.2222222
        k(    9) = (   0.0000000   0.1666667  -0.1666667), wk =   0.1111111
        k(   10) = (   0.0000000   0.3333333   0.3333333), wk =   0.0555556
        k(   11) = (   0.0000000   0.3333333  -0.5000000), wk =   0.2222222
        k(   12) = (   0.0000000   0.3333333  -0.3333333), wk =   0.1111111
        k(   13) = (   0.0000000  -0.5000000  -0.5000000), wk =   0.0277778
        k(   14) = (   0.1666667   0.3333333  -0.5000000), wk =   0.2222222
        k(   15) = (   0.1666667   0.3333333  -0.3333333), wk =   0.2222222
        k(   16) = (   0.1666667  -0.5000000  -0.3333333), wk =   0.1111111

     Dense  grid:   339709 G-vectors     FFT dimensions: ( 100, 100, 100)

     Dynamical RAM for                 wfc:       6.20 MB

     Dynamical RAM for     wfc (w. buffer):     105.48 MB

     Dynamical RAM for           str. fact:       0.43 MB

     Dynamical RAM for           local pot:       0.00 MB

     Dynamical RAM for          nlocal pot:      27.62 MB

     Dynamical RAM for                qrad:       0.32 MB

     Dynamical RAM for          rho,v,vnew:       3.36 MB

     Dynamical RAM for               rhoin:       1.12 MB

     Dynamical RAM for            rho*nmix:       6.91 MB

     Dynamical RAM for           G-vectors:       1.84 MB

     Dynamical RAM for          h,s,v(r/c):       2.42 MB

     Dynamical RAM for          <psi|beta>:       0.90 MB

     Dynamical RAM for                 psi:      12.41 MB

     Dynamical RAM for                hpsi:      12.41 MB

     Dynamical RAM for                spsi:      12.41 MB

     Dynamical RAM for      wfcinit/wfcrot:      12.71 MB

     Dynamical RAM for           addusdens:      46.22 MB

     Dynamical RAM for          addusforce:     100.92 MB

     Dynamical RAM for         addusstress:      21.60 MB

     Estimated static dynamical RAM per process >     144.47 MB

     Estimated max dynamical RAM per process >     252.30 MB

     Estimated total dynamical RAM >       2.96 GB

     Initial potential from superposition of free atoms

     starting charge     191.8398, renormalised to     192.0000

     negative rho (up, down):  4.350E-02 0.000E+00
     Starting wfcs are  512 randomized atomic wfcs
     Checking if some PAW data can be deallocated... 

     total cpu time spent up to now is       28.5 secs

     per-process dynamical memory:   224.9 Mb

     Self-consistent Calculation

     iteration #  1     ecut=    50.00 Ry     beta= 0.70
     Davidson diagonalization with overlap

---- Real-time Memory Report at c_bands before calling an iterative solver
           341 MiB given to the printing process from OS
           219 MiB allocation reported by mallinfo(arena+hblkhd)
         36457 MiB available memory on the node where the printing process lives
------------------
     ethr =  1.00E-02,  avg # of iterations =  2.2

     Threshold (ethr) on eigenvalues was too large:
     Diagonalizing with lowered threshold

     Davidson diagonalization with overlap

---- Real-time Memory Report at c_bands before calling an iterative solver
           341 MiB given to the printing process from OS
           262 MiB allocation reported by mallinfo(arena+hblkhd)
         36579 MiB available memory on the node where the printing process lives
------------------
     ethr =  1.72E-04,  avg # of iterations =  4.1

     negative rho (up, down):  4.819E-02 0.000E+00

     total cpu time spent up to now is       76.1 secs

     total energy              =   -2528.17842386 Ry
     estimated scf accuracy    <       0.33801922 Ry

     iteration #  2     ecut=    50.00 Ry     beta= 0.70
     Davidson diagonalization with overlap

---- Real-time Memory Report at c_bands before calling an iterative solver
           341 MiB given to the printing process from OS
           262 MiB allocation reported by mallinfo(arena+hblkhd)
         35955 MiB available memory on the node where the printing process lives
------------------
     ethr =  1.76E-04,  avg # of iterations =  1.0

     negative rho (up, down):  4.985E-02 0.000E+00

     total cpu time spent up to now is       95.4 secs

     total energy              =   -2528.10399217 Ry
     estimated scf accuracy    <       0.03909111 Ry

     iteration #  3     ecut=    50.00 Ry     beta= 0.70
     Davidson diagonalization with overlap

---- Real-time Memory Report at c_bands before calling an iterative solver
           341 MiB given to the printing process from OS
           262 MiB allocation reported by mallinfo(arena+hblkhd)
         23687 MiB available memory on the node where the printing process lives
------------------
     ethr =  2.04E-05,  avg # of iterations =  7.1

     negative rho (up, down):  4.934E-02 0.000E+00

     total cpu time spent up to now is      128.4 secs

     total energy              =   -2528.06012369 Ry
     estimated scf accuracy    <       0.53176362 Ry

     iteration #  4     ecut=    50.00 Ry     beta= 0.70
     Davidson diagonalization with overlap

---- Real-time Memory Report at c_bands before calling an iterative solver
           341 MiB given to the printing process from OS
           262 MiB allocation reported by mallinfo(arena+hblkhd)
         23802 MiB available memory on the node where the printing process lives
------------------
     ethr =  2.04E-05,  avg # of iterations =  5.1

     negative rho (up, down):  4.775E-02 0.000E+00

     total cpu time spent up to now is      156.9 secs

     total energy              =   -2528.11718681 Ry
     estimated scf accuracy    <       0.01358152 Ry

     iteration #  5     ecut=    50.00 Ry     beta= 0.70
     Davidson diagonalization with overlap

---- Real-time Memory Report at c_bands before calling an iterative solver
           341 MiB given to the printing process from OS
           262 MiB allocation reported by mallinfo(arena+hblkhd)
         22561 MiB available memory on the node where the printing process lives
------------------
     ethr =  7.07E-06,  avg # of iterations =  2.2

     negative rho (up, down):  4.654E-02 0.000E+00

     total cpu time spent up to now is      177.8 secs

     total energy              =   -2528.11826782 Ry
     estimated scf accuracy    <       0.00534149 Ry

     iteration #  6     ecut=    50.00 Ry     beta= 0.70
     Davidson diagonalization with overlap

---- Real-time Memory Report at c_bands before calling an iterative solver
           341 MiB given to the printing process from OS
           262 MiB allocation reported by mallinfo(arena+hblkhd)
         23181 MiB available memory on the node where the printing process lives
------------------
     ethr =  2.78E-06,  avg # of iterations =  3.0

     negative rho (up, down):  4.532E-02 0.000E+00

     total cpu time spent up to now is      197.1 secs

     total energy              =   -2528.11861863 Ry
     estimated scf accuracy    <       0.00112158 Ry

     iteration #  7     ecut=    50.00 Ry     beta= 0.70
     Davidson diagonalization with overlap

---- Real-time Memory Report at c_bands before calling an iterative solver
           342 MiB given to the printing process from OS
           264 MiB allocation reported by mallinfo(arena+hblkhd)
         22743 MiB available memory on the node where the printing process lives
------------------
     ethr =  5.84E-07,  avg # of iterations =  2.2

     negative rho (up, down):  4.460E-02 0.000E+00

     total cpu time spent up to now is      216.7 secs

     total energy              =   -2528.11876566 Ry
     estimated scf accuracy    <       0.00002394 Ry

     iteration #  8     ecut=    50.00 Ry     beta= 0.70
     Davidson diagonalization with overlap

---- Real-time Memory Report at c_bands before calling an iterative solver
           344 MiB given to the printing process from OS
           265 MiB allocation reported by mallinfo(arena+hblkhd)
         22424 MiB available memory on the node where the printing process lives
------------------
     ethr =  1.25E-08,  avg # of iterations =  6.0

     negative rho (up, down):  4.447E-02 0.000E+00

     total cpu time spent up to now is      243.5 secs

     total energy              =   -2528.11877718 Ry
     estimated scf accuracy    <       0.00002701 Ry

     iteration #  9     ecut=    50.00 Ry     beta= 0.70
     Davidson diagonalization with overlap

---- Real-time Memory Report at c_bands before calling an iterative solver
           345 MiB given to the printing process from OS
           265 MiB allocation reported by mallinfo(arena+hblkhd)
         26523 MiB available memory on the node where the printing process lives
------------------
     ethr =  1.25E-08,  avg # of iterations =  1.9

     negative rho (up, down):  4.437E-02 0.000E+00

     total cpu time spent up to now is      260.4 secs

     total energy              =   -2528.11877779 Ry
     estimated scf accuracy    <       0.00000478 Ry

     iteration # 10     ecut=    50.00 Ry     beta= 0.70
     Davidson diagonalization with overlap

---- Real-time Memory Report at c_bands before calling an iterative solver
           346 MiB given to the printing process from OS
           266 MiB allocation reported by mallinfo(arena+hblkhd)
         26795 MiB available memory on the node where the printing process lives
------------------
     ethr =  2.49E-09,  avg # of iterations =  3.1

     negative rho (up, down):  4.433E-02 0.000E+00

     total cpu time spent up to now is      279.6 secs

     total energy              =   -2528.11877845 Ry
     estimated scf accuracy    <       0.00000002 Ry

     iteration # 11     ecut=    50.00 Ry     beta= 0.70
     Davidson diagonalization with overlap

---- Real-time Memory Report at c_bands before calling an iterative solver
           346 MiB given to the printing process from OS
           266 MiB allocation reported by mallinfo(arena+hblkhd)
         67551 MiB available memory on the node where the printing process lives
------------------
     ethr =  8.30E-12,  avg # of iterations =  7.6

     negative rho (up, down):  4.432E-02 0.000E+00

     total cpu time spent up to now is      314.0 secs

     total energy              =   -2528.11877848 Ry
     estimated scf accuracy    <       0.00000018 Ry

     iteration # 12     ecut=    50.00 Ry     beta= 0.70
     Davidson diagonalization with overlap

---- Real-time Memory Report at c_bands before calling an iterative solver
           347 MiB given to the printing process from OS
           266 MiB allocation reported by mallinfo(arena+hblkhd)
         23877 MiB available memory on the node where the printing process lives
------------------
     ethr =  8.30E-12,  avg # of iterations =  2.9

     negative rho (up, down):  4.432E-02 0.000E+00

     total cpu time spent up to now is      334.7 secs

     total energy              =   -2528.11877848 Ry
     estimated scf accuracy    <       0.00000004 Ry

     iteration # 13     ecut=    50.00 Ry     beta= 0.70
     Davidson diagonalization with overlap

---- Real-time Memory Report at c_bands before calling an iterative solver
           347 MiB given to the printing process from OS
           266 MiB allocation reported by mallinfo(arena+hblkhd)
         23430 MiB available memory on the node where the printing process lives
------------------
     ethr =  8.30E-12,  avg # of iterations =  2.6

     negative rho (up, down):  4.432E-02 0.000E+00

     total cpu time spent up to now is      354.2 secs

     total energy              =   -2528.11877848 Ry
     estimated scf accuracy    <          2.3E-09 Ry

     iteration # 14     ecut=    50.00 Ry     beta= 0.70
     Davidson diagonalization with overlap

---- Real-time Memory Report at c_bands before calling an iterative solver
           348 MiB given to the printing process from OS
           266 MiB allocation reported by mallinfo(arena+hblkhd)
         27372 MiB available memory on the node where the printing process lives
------------------
     ethr =  1.20E-12,  avg # of iterations =  4.4

     negative rho (up, down):  4.432E-02 0.000E+00

     total cpu time spent up to now is      376.6 secs

     total energy              =   -2528.11877848 Ry
     estimated scf accuracy    <          8.8E-10 Ry

     iteration # 15     ecut=    50.00 Ry     beta= 0.70
     Davidson diagonalization with overlap

---- Real-time Memory Report at c_bands before calling an iterative solver
           348 MiB given to the printing process from OS
           266 MiB allocation reported by mallinfo(arena+hblkhd)
         23045 MiB available memory on the node where the printing process lives
------------------
     ethr =  4.57E-13,  avg # of iterations =  1.1

     negative rho (up, down):  4.432E-02 0.000E+00

     total cpu time spent up to now is      392.4 secs

     total energy              =   -2528.11877848 Ry
     estimated scf accuracy    <          3.6E-10 Ry

     iteration # 16     ecut=    50.00 Ry     beta= 0.70
     Davidson diagonalization with overlap

---- Real-time Memory Report at c_bands before calling an iterative solver
           348 MiB given to the printing process from OS
           266 MiB allocation reported by mallinfo(arena+hblkhd)
         22918 MiB available memory on the node where the printing process lives
------------------
     ethr =  1.89E-13,  avg # of iterations =  2.2

     negative rho (up, down):  4.432E-02 0.000E+00

     total cpu time spent up to now is      410.2 secs

     total energy              =   -2528.11877848 Ry
     estimated scf accuracy    <          2.5E-11 Ry

     iteration # 17     ecut=    50.00 Ry     beta= 0.70
     Davidson diagonalization with overlap

---- Real-time Memory Report at c_bands before calling an iterative solver
           348 MiB given to the printing process from OS
           266 MiB allocation reported by mallinfo(arena+hblkhd)
         22810 MiB available memory on the node where the printing process lives
------------------
     ethr =  1.00E-13,  avg # of iterations =  2.1

     negative rho (up, down):  4.432E-02 0.000E+00

     total cpu time spent up to now is      427.8 secs

     total energy              =   -2528.11877848 Ry
     estimated scf accuracy    <          7.4E-12 Ry

     iteration # 18     ecut=    50.00 Ry     beta= 0.70
     Davidson diagonalization with overlap

---- Real-time Memory Report at c_bands before calling an iterative solver
           348 MiB given to the printing process from OS
           266 MiB allocation reported by mallinfo(arena+hblkhd)
         22139 MiB available memory on the node where the printing process lives
------------------
     ethr =  1.00E-13,  avg # of iterations =  1.0

     negative rho (up, down):  4.432E-02 0.000E+00

     total cpu time spent up to now is      443.8 secs

     total energy              =   -2528.11877848 Ry
     estimated scf accuracy    <          5.2E-12 Ry

     iteration # 19     ecut=    50.00 Ry     beta= 0.70
     Davidson diagonalization with overlap

---- Real-time Memory Report at c_bands before calling an iterative solver
           350 MiB given to the printing process from OS
           266 MiB allocation reported by mallinfo(arena+hblkhd)
         22151 MiB available memory on the node where the printing process lives
------------------
     ethr =  1.00E-13,  avg # of iterations =  1.0

     negative rho (up, down):  4.432E-02 0.000E+00

     total cpu time spent up to now is      459.5 secs

     total energy              =   -2528.11877848 Ry
     estimated scf accuracy    <          5.2E-13 Ry

     iteration # 20     ecut=    50.00 Ry     beta= 0.70
     Davidson diagonalization with overlap

---- Real-time Memory Report at c_bands before calling an iterative solver
           350 MiB given to the printing process from OS
           266 MiB allocation reported by mallinfo(arena+hblkhd)
         21622 MiB available memory on the node where the printing process lives
------------------
     ethr =  1.00E-13,  avg # of iterations =  1.0

     negative rho (up, down):  4.432E-02 0.000E+00

     total cpu time spent up to now is      475.3 secs

     total energy              =   -2528.11877848 Ry
     estimated scf accuracy    <          1.4E-14 Ry

     iteration # 21     ecut=    50.00 Ry     beta= 0.70
     Davidson diagonalization with overlap

---- Real-time Memory Report at c_bands before calling an iterative solver
           350 MiB given to the printing process from OS
           266 MiB allocation reported by mallinfo(arena+hblkhd)
         21897 MiB available memory on the node where the printing process lives
------------------
     ethr =  1.00E-13,  avg # of iterations =  1.0

     negative rho (up, down):  4.432E-02 0.000E+00

     total cpu time spent up to now is      491.3 secs

     total energy              =   -2528.11877848 Ry
     estimated scf accuracy    <          2.9E-15 Ry

     iteration # 22     ecut=    50.00 Ry     beta= 0.70
     Davidson diagonalization with overlap

---- Real-time Memory Report at c_bands before calling an iterative solver
           351 MiB given to the printing process from OS
           266 MiB allocation reported by mallinfo(arena+hblkhd)
         21290 MiB available memory on the node where the printing process lives
------------------
     ethr =  1.00E-13,  avg # of iterations =  1.0

     negative rho (up, down):  4.432E-02 0.000E+00

     total cpu time spent up to now is      507.1 secs

     total energy              =   -2528.11877848 Ry
     estimated scf accuracy    <          2.9E-16 Ry

     iteration # 23     ecut=    50.00 Ry     beta= 0.70
     Davidson diagonalization with overlap

---- Real-time Memory Report at c_bands before calling an iterative solver
           351 MiB given to the printing process from OS
           266 MiB allocation reported by mallinfo(arena+hblkhd)
         21018 MiB available memory on the node where the printing process lives
------------------
     ethr =  1.00E-13,  avg # of iterations =  1.0

     negative rho (up, down):  4.432E-02 0.000E+00

     total cpu time spent up to now is      522.9 secs

     total energy              =   -2528.11877848 Ry
     estimated scf accuracy    <          7.0E-16 Ry

     iteration # 24     ecut=    50.00 Ry     beta= 0.70
     Davidson diagonalization with overlap

---- Real-time Memory Report at c_bands before calling an iterative solver
           351 MiB given to the printing process from OS
           266 MiB allocation reported by mallinfo(arena+hblkhd)
         21214 MiB available memory on the node where the printing process lives
------------------
     ethr =  1.00E-13,  avg # of iterations =  1.0

     negative rho (up, down):  4.432E-02 0.000E+00

     total cpu time spent up to now is      538.6 secs

     total energy              =   -2528.11877848 Ry
     estimated scf accuracy    <          2.9E-16 Ry

     iteration # 25     ecut=    50.00 Ry     beta= 0.70
     Davidson diagonalization with overlap

---- Real-time Memory Report at c_bands before calling an iterative solver
           351 MiB given to the printing process from OS
           266 MiB allocation reported by mallinfo(arena+hblkhd)
         26670 MiB available memory on the node where the printing process lives
------------------
     ethr =  1.00E-13,  avg # of iterations =  1.0

     negative rho (up, down):  4.432E-02 0.000E+00

     total cpu time spent up to now is      554.1 secs

     End of self-consistent calculation

          k = 0.0000 0.0000 0.0000 ( 42615 PWs)   bands (ev):

    -3.1912  -1.4991  -1.4991  -1.4991  -1.4991  -1.4991  -1.4991  -1.4991
    -1.4991  -0.9397  -0.9397  -0.9397  -0.9397  -0.9397  -0.9397   1.2773
     1.2773   1.2773   1.2773   1.2773   1.2773   1.2773   1.2773   1.2773
     1.2773   1.2773   1.2773   2.9098   2.9098   2.9098   2.9098   2.9098
     2.9098   2.9098   2.9098   2.9098   2.9098   2.9098   2.9098   2.9098
     2.9098   2.9098   2.9098   2.9098   2.9098   2.9098   2.9098   2.9098
     2.9098   2.9098   2.9098   3.3568   3.3568   3.3568   3.3568   3.5795
     3.5795   3.5795   3.5795   5.0306   5.0306   5.0306   6.3619   6.3619
     6.3619   7.1129   7.1129   7.1129   7.1129   7.1129   7.1129   7.1129
     7.1129   7.1129   7.1129   7.1129   7.1129   7.2056   7.2056   7.2056
     7.2056   7.2056   7.2056   7.2056   7.2056   7.2056   7.2056   7.2056
     7.2056   7.2056   7.2056   7.2056   7.2056   7.2056   7.2056   7.2056
     7.2056   7.2056   7.2056   7.2056   7.2056   8.1284   8.1284   8.1284
     8.1284   8.1284   8.1284   9.0822   9.0822   9.0822   9.0822   9.0822
     9.0822   9.2009   9.2009

     occupation numbers 
     1.0000   1.0000   1.0000   1.0000   1.0000   1.0000   1.0000   1.0000
     1.0000   1.0000   1.0000   1.0000   1.0000   1.0000   1.0000   1.0000
     1.0000   1.0000   1.0000   1.0000   1.0000   1.0000   1.0000   1.0000
     1.0000   1.0000   1.0000   1.0000   1.0000   1.0000   1.0000   1.0000
     1.0000   1.0000   1.0000   1.0000   1.0000   1.0000   1.0000   1.0000
     1.0000   1.0000   1.0000   1.0000   1.0000   1.0000   1.0000   1.0000
     1.0000   1.0000   1.0000   1.0000   1.0000   1.0000   1.0000   1.0000
     1.0000   1.0000   1.0000   1.0000   1.0000   1.0000   1.0000   1.0000
     1.0000   1.0000   1.0000   1.0000   1.0000   1.0000   1.0000   1.0000
     1.0000   1.0000   1.0000   1.0000   1.0000   1.0002   1.0002   1.0002
     1.0002   1.0002   1.0002   1.0002   1.0002   1.0002   1.0002   1.0002
     1.0002   1.0002   1.0002   1.0002   1.0002   1.0002   1.0002   1.0002
     1.0002   1.0002   1.0002   1.0002   1.0002   0.1013   0.1013   0.1013
     0.1013   0.1013   0.1013  -0.0000  -0.0000  -0.0000  -0.0000  -0.0000
    -0.0000  -0.0000  -0.0000

          k =-0.1179 0.1179-0.1179 ( 42480 PWs)   bands (ev):

    -3.1440  -2.0141  -1.6394  -1.6394  -1.6394  -1.2658  -1.2658  -1.2658
    -1.2657  -1.2657  -1.2657  -0.8929  -0.5215  -0.5215  -0.5215   0.5883
     0.5883   0.5883   1.3230   1.3230   1.3230   1.3230   1.3230   1.3230
     2.0502   2.0502   2.0502   2.0539   2.0539   2.0539   2.4142   2.4142
     2.4142   2.4142   2.4142   2.4142   2.4180   2.7770   2.7770   2.7770
     3.1308   3.1308   3.1308   3.1337   3.1337   3.1337   3.4912   3.4912
     3.4912   3.4912   3.4912   3.4912   3.8492   3.8492   3.8492   3.8918
     3.8918   3.8918   4.6014   4.7577   4.7577   4.7577   6.0206   6.0206
     6.0206   6.3753   6.3753   6.3753   6.5031   6.5031   6.5031   6.5031
     6.5031   6.5031   6.7213   6.7213   6.7213   7.0683   7.0683   7.0683
     7.0683   7.0683   7.0683   7.2054   7.2054   7.2054   7.2054   7.2054
     7.2054   7.4246   7.4246   7.4246   7.4246   7.4246   7.4246   8.1079
     8.1079   8.1079   8.2682   8.2682   8.2682   8.4067   8.4067   8.4067
     8.4067   8.4067   8.4067   8.4673   8.4673   8.4673   8.9672   8.9672
     8.9672   8.9672   8.9672

     occupation numbers 
     1.0000   1.0000   1.0000   1.0000   1.0000   1.0000   1.0000   1.0000
     1.0000   1.0000   1.0000   1.0000   1.0000   1.0000   1.0000   1.0000
     1.0000   1.0000   1.0000   1.0000   1.0000   1.0000   1.0000   1.0000
     1.0000   1.0000   1.0000   1.0000   1.0000   1.0000   1.0000   1.0000
     1.0000   1.0000   1.0000   1.0000   1.0000   1.0000   1.0000   1.0000
     1.0000   1.0000   1.0000   1.0000   1.0000   1.0000   1.0000   1.0000
     1.0000   1.0000   1.0000   1.0000   1.0000   1.0000   1.0000   1.0000
     1.0000   1.0000   1.0000   1.0000   1.0000   1.0000   1.0000   1.0000
     1.0000   1.0000   1.0000   1.0000   1.0000   1.0000   1.0000   1.0000
     1.0000   1.0000   1.0000   1.0000   1.0000   1.0000   1.0000   1.0000
     1.0000   1.0000   1.0000   1.0002   1.0002   1.0002   1.0002   1.0002
     1.0002   1.0072   1.0072   1.0072   1.0072   1.0072   1.0072   0.1414
     0.1414   0.1414  -0.0309  -0.0309  -0.0309  -0.0241  -0.0241  -0.0241
    -0.0241  -0.0241  -0.0241  -0.0144  -0.0144  -0.0144  -0.0000  -0.0000
    -0.0000  -0.0000  -0.0000

          k =-0.2357 0.2357-0.2357 ( 42445 PWs)   bands (ev):

    -3.0022  -2.4367  -1.6862  -1.6862  -1.6862  -1.4992  -1.4992  -1.4992
    -0.9395  -0.9395  -0.9395  -0.1966  -0.0123  -0.0123  -0.0123  -0.0116
    -0.0116  -0.0116   1.2751   1.2751   1.2751   1.4601   1.4601   1.4601
     1.4601   1.4601   1.4601   1.4611   2.0064   2.0064   2.0064   2.0064
     2.0064   2.0064   2.7333   2.7333   2.7333   2.9141   2.9141   2.9141
     2.9162   2.9162   2.9162   3.4377   3.4377   3.4377   4.1548   4.1548
     4.1548   4.1548   4.1548   4.1548   4.2811   4.2811   4.2811   4.3788
     4.3788   4.3788   4.7531   4.7531   4.7531   5.0273   5.0273   5.0273
     5.6250   5.6250   5.6250   5.6929   5.6929   5.6929   5.6929   5.6929
     5.6929   5.8073   7.0118   7.0118   7.0118   7.0118   7.0118   7.0118
     7.1112   7.1112   7.1112   7.1112   7.1112   7.1112   7.1246   7.1246
     7.1246   7.4566   7.4566   7.4566   7.7238   7.7238   7.7238   7.7238
     7.7238   7.7238   8.4590   8.5299   8.5299   8.5299   8.5299   8.5299
     8.5299   8.8701   8.8701   8.8701   8.8701   8.8701   8.8701   8.9908
     8.9908   8.9908   9.4754

     occupation numbers 
     1.0000   1.0000   1.0000   1.0000   1.0000   1.0000   1.0000   1.0000
     1.0000   1.0000   1.0000   1.0000   1.0000   1.0000   1.0000   1.0000
     1.0000   1.0000   1.0000   1.0000   1.0000   1.0000   1.0000   1.0000
     1.0000   1.0000   1.0000   1.0000   1.0000   1.0000   1.0000   1.0000
     1.0000   1.0000   1.0000   1.0000   1.0000   1.0000   1.0000   1.0000
     1.0000   1.0000   1.0000   1.0000   1.0000   1.0000   1.0000   1.0000
     1.0000   1.0000   1.0000   1.0000   1.0000   1.0000   1.0000   1.0000
     1.0000   1.0000   1.0000   1.0000   1.0000   1.0000   1.0000   1.0000
     1.0000   1.0000   1.0000   1.0000   1.0000   1.0000   1.0000   1.0000
     1.0000   1.0000   1.0000   1.0000   1.0000   1.0000   1.0000   1.0000
     1.0000   1.0000   1.0000   1.0000   1.0000   1.0000   1.0000   1.0000
     1.0000   1.0105   1.0105   1.0105   1.0165   1.0165   1.0165   1.0165
     1.0165   1.0165  -0.0156  -0.0072  -0.0072  -0.0072  -0.0072  -0.0072
    -0.0072  -0.0000  -0.0000  -0.0000  -0.0000  -0.0000  -0.0000  -0.0000
    -0.0000  -0.0000  -0.0000

          k = 0.3536-0.3536 0.3536 ( 42478 PWs)   bands (ev):

    -2.7663  -2.7663  -1.6394  -1.6394  -1.6394  -1.6394  -1.6394  -1.6394
    -0.5212  -0.5212  -0.5212  -0.5212  -0.5212  -0.5212   0.5870   0.5870
     0.5870   0.5870   0.5870   0.5870   0.5887   0.5887   1.6881   1.6881
     1.6881   1.6881   1.6881   1.6881   1.6881   1.6881   1.6881   1.6881
     1.6881   1.6881   2.7793   2.7793   2.7793   2.7793   2.7793   2.7793
     3.8255   3.8255   3.8255   3.8255   3.8255   3.8255   3.8602   3.8602
     3.8602   3.8602   3.8602   3.8602   4.8939   4.8939   4.8939   4.8939
     4.8939   4.8939   4.8939   4.8939   4.8939   4.8939   4.8939   4.8939
     4.9584   4.9584   4.9584   4.9584   4.9584   4.9584   5.9822   5.9822
     5.9822   5.9822   5.9822   5.9822   7.0309   7.0309   7.0309   7.0309
     7.0309   7.0309   7.0309   7.0309   7.0309   7.0309   7.0309   7.0309
     7.0945   7.0945   8.0975   8.0975   8.0975   8.0975   8.0975   8.0975
     8.0975   8.0975   8.0975   8.0975   8.0975   8.0975   8.3362   8.3362
     8.3362   8.3362   8.3362   8.3362   9.4235   9.4235   9.4235   9.4235
     9.4235   9.4235   9.4235

     occupation numbers 
     1.0000   1.0000   1.0000   1.0000   1.0000   1.0000   1.0000   1.0000
     1.0000   1.0000   1.0000   1.0000   1.0000   1.0000   1.0000   1.0000
     1.0000   1.0000   1.0000   1.0000   1.0000   1.0000   1.0000   1.0000
     1.0000   1.0000   1.0000   1.0000   1.0000   1.0000   1.0000   1.0000
     1.0000   1.0000   1.0000   1.0000   1.0000   1.0000   1.0000   1.0000
     1.0000   1.0000   1.0000   1.0000   1.0000   1.0000   1.0000   1.0000
     1.0000   1.0000   1.0000   1.0000   1.0000   1.0000   1.0000   1.0000
     1.0000   1.0000   1.0000   1.0000   1.0000   1.0000   1.0000   1.0000
     1.0000   1.0000   1.0000   1.0000   1.0000   1.0000   1.0000   1.0000
     1.0000   1.0000   1.0000   1.0000   1.0000   1.0000   1.0000   1.0000
     1.0000   1.0000   1.0000   1.0000   1.0000   1.0000   1.0000   1.0000
     1.0000   1.0000   0.1638   0.1638   0.1638   0.1638   0.1638   0.1638
     0.1638   0.1638   0.1638   0.1638   0.1638   0.1638  -0.0343  -0.0343
    -0.0343  -0.0343  -0.0343  -0.0343  -0.0000  -0.0000  -0.0000  -0.0000
    -0.0000  -0.0000  -0.0000

          k = 0.0000 0.2357 0.0000 ( 42447 PWs)   bands (ev):

    -3.1282  -1.8110  -1.8110  -1.8110  -1.8110  -1.6238  -1.0637  -1.0637
    -1.0637  -1.0637  -0.8776  -0.8776  -0.8776  -0.8776  -0.1356   0.6036
     0.6036   0.6036   0.6036   1.3384   1.3384   1.3384   1.3384   1.8848
     1.8848   1.8848   1.8848   2.0689   2.0689   2.0689   2.0689   2.6079
     2.6079   2.6079   2.6079   2.6079   2.6079   2.6079   2.6079   2.7941
     2.7941   2.7941   2.7941   3.3309   3.3309   3.3309   3.3309   3.3309
     3.3309   3.3309   3.3309   4.0353   4.0353   4.0353   4.0353   4.1625
     4.2591   4.2591   4.2591   4.2591   5.0883   5.0883   6.2107   6.2107
     6.2107   6.2107   6.2107   6.2107   6.2107   6.2107   6.2780   6.2780
     6.2780   6.2780   6.4228   6.4228   6.4759   6.4759   6.9070   6.9070
     6.9070   6.9070   7.1708   7.1708   7.1708   7.1708   7.3391   7.6202
     7.6202   7.6202   7.6202   7.7965   7.7965   7.8665   7.8665   8.2975
     8.2975   8.2975   8.2975   8.2975   8.2975   8.2975   8.2975   8.4139
     8.4139   8.4139   8.4139   8.5205   8.5205   8.5205   8.5205   8.5625
     8.5625   8.5625   8.5625

     occupation numbers 
     1.0000   1.0000   1.0000   1.0000   1.0000   1.0000   1.0000   1.0000
     1.0000   1.0000   1.0000   1.0000   1.0000   1.0000   1.0000   1.0000
     1.0000   1.0000   1.0000   1.0000   1.0000   1.0000   1.0000   1.0000
     1.0000   1.0000   1.0000   1.0000   1.0000   1.0000   1.0000   1.0000
     1.0000   1.0000   1.0000   1.0000   1.0000   1.0000   1.0000   1.0000
     1.0000   1.0000   1.0000   1.0000   1.0000   1.0000   1.0000   1.0000
     1.0000   1.0000   1.0000   1.0000   1.0000   1.0000   1.0000   1.0000
     1.0000   1.0000   1.0000   1.0000   1.0000   1.0000   1.0000   1.0000
     1.0000   1.0000   1.0000   1.0000   1.0000   1.0000   1.0000   1.0000
     1.0000   1.0000   1.0000   1.0000   1.0000   1.0000   1.0000   1.0000
     1.0000   1.0000   1.0001   1.0001   1.0001   1.0001   1.0022   1.0344
     1.0344   1.0344   1.0344   0.9470   0.9470   0.8152   0.8152  -0.0351
    -0.0351  -0.0351  -0.0351  -0.0351  -0.0351  -0.0351  -0.0351  -0.0229
    -0.0229  -0.0229  -0.0229  -0.0081  -0.0081  -0.0081  -0.0081  -0.0048
    -0.0048  -0.0048  -0.0048

          k =-0.1179 0.3536-0.1179 ( 42432 PWs)   bands (ev):

    -3.0180  -2.2644  -1.8891  -1.8891  -1.8891  -1.5147  -1.1414  -1.1414
    -1.1413  -0.7689  -0.7689  -0.3978  -0.3978  -0.3974  -0.0270  -0.0270
     0.3412   0.7108   0.7108   0.7111   1.0775   1.4442   1.4442   1.4452
     1.4452   1.8069   1.8069   1.8100   1.8115   2.1716   2.1716   2.1746
     2.1746   2.1754   2.5387   2.5387   2.8898   2.8898   2.8977   2.8977
     2.9008   2.9008   3.2512   3.2512   3.2532   3.2581   3.2581   3.5864
     3.9689   3.9689   4.0120   4.3018   4.3139   4.3139   4.6565   4.6565
     4.7203   4.7203   4.8747   4.8747   4.9986   5.0888   5.0888   5.3672
     5.3672   5.4318   5.4318   5.4353   5.7942   5.9251   5.9251   6.0609
     6.0609   6.1318   6.1318   6.4860   6.4860   6.6443   6.6443   6.8265
     6.8265   6.8410   6.8410   6.8493   7.1597   7.3320   7.3320   7.6852
     7.6852   7.7990   7.7990   7.8436   7.8652   7.8652   7.8973   7.8973
     8.1105   8.1356   8.1356   8.2001   8.2001   8.3844   8.3844   8.5582
     8.5582   8.5691   8.6508   8.6508   8.8884   8.9393   8.9678   9.2187
     9.2187   9.2321   9.2328

     occupation numbers 
     1.0000   1.0000   1.0000   1.0000   1.0000   1.0000   1.0000   1.0000
     1.0000   1.0000   1.0000   1.0000   1.0000   1.0000   1.0000   1.0000
     1.0000   1.0000   1.0000   1.0000   1.0000   1.0000   1.0000   1.0000
     1.0000   1.0000   1.0000   1.0000   1.0000   1.0000   1.0000   1.0000
     1.0000   1.0000   1.0000   1.0000   1.0000   1.0000   1.0000   1.0000
     1.0000   1.0000   1.0000   1.0000   1.0000   1.0000   1.0000   1.0000
     1.0000   1.0000   1.0000   1.0000   1.0000   1.0000   1.0000   1.0000
     1.0000   1.0000   1.0000   1.0000   1.0000   1.0000   1.0000   1.0000
     1.0000   1.0000   1.0000   1.0000   1.0000   1.0000   1.0000   1.0000
     1.0000   1.0000   1.0000   1.0000   1.0000   1.0000   1.0000   1.0000
     1.0000   1.0000   1.0000   1.0000   1.0001   1.0020   1.0020   1.0312
     1.0312   0.9434   0.9434   0.8654   0.8183   0.8183   0.7374   0.7374
     0.1360   0.0886   0.0886   0.0054   0.0054  -0.0278  -0.0278  -0.0051
    -0.0051  -0.0044  -0.0013  -0.0013  -0.0000  -0.0000  -0.0000  -0.0000
    -0.0000  -0.0000  -0.0000

          k = 0.4714-0.2357 0.4714 ( 42450 PWs)   bands (ev):

    -2.8135  -2.6250  -2.0610  -1.8734  -1.8734  -1.3124  -1.3124  -1.1258
    -1.1258  -0.5676  -0.5676  -0.3820  -0.3820   0.1726   0.1726   0.1734
     0.3572   0.3581   0.9080   0.9097   0.9097   0.9107   1.0917   1.0917
     1.0935   1.0935   1.6431   1.6431   1.8240   1.8240   1.8259   2.3706
     2.3706   2.3723   2.3723   2.5523   2.5523   3.0772   3.0966   3.2576
     3.2576   3.2730   3.2730   3.7069   3.8159   3.8159   3.9478   3.9766
     3.9766   3.9914   3.9914   4.4587   4.4587   4.5126   4.5126   4.6360
     4.6863   4.6863   4.7053   4.7368   4.7368   5.1668   5.1668   5.2701
     5.2701   5.3396   5.3396   5.4298   5.4298   5.7814   5.7814   5.9587
     6.0404   6.0404   6.0723   6.1377   6.1377   6.1594   6.5967   6.5967
     6.6952   6.8236   6.8236   6.8435   6.8435   7.2951   7.2951   7.3749
     7.3749   7.5791   7.6304   7.6304   7.7873   7.9164   7.9164   8.0022
     8.0022   8.1620   8.1620   8.2541   8.2541   8.4412   8.4412   8.5769
     8.5769   8.7850   8.8763   8.8763   8.9792   8.9846   9.0873   9.0873
     9.1431   9.1431   9.2813

     occupation numbers 
     1.0000   1.0000   1.0000   1.0000   1.0000   1.0000   1.0000   1.0000
     1.0000   1.0000   1.0000   1.0000   1.0000   1.0000   1.0000   1.0000
     1.0000   1.0000   1.0000   1.0000   1.0000   1.0000   1.0000   1.0000
     1.0000   1.0000   1.0000   1.0000   1.0000   1.0000   1.0000   1.0000
     1.0000   1.0000   1.0000   1.0000   1.0000   1.0000   1.0000   1.0000
     1.0000   1.0000   1.0000   1.0000   1.0000   1.0000   1.0000   1.0000
     1.0000   1.0000   1.0000   1.0000   1.0000   1.0000   1.0000   1.0000
     1.0000   1.0000   1.0000   1.0000   1.0000   1.0000   1.0000   1.0000
     1.0000   1.0000   1.0000   1.0000   1.0000   1.0000   1.0000   1.0000
     1.0000   1.0000   1.0000   1.0000   1.0000   1.0000   1.0000   1.0000
     1.0000   1.0000   1.0000   1.0000   1.0000   1.0011   1.0011   1.0038
     1.0038   1.0292   1.0351   1.0351   0.9594   0.6846   0.6846   0.4232
     0.4232   0.0479   0.0479  -0.0268  -0.0268  -0.0184  -0.0184  -0.0039
    -0.0039  -0.0001  -0.0000  -0.0000  -0.0000  -0.0000  -0.0000  -0.0000
    -0.0000  -0.0000  -0.0000

          k = 0.3536-0.1179 0.3536 ( 42424 PWs)   bands (ev):

    -2.8921  -2.5151  -2.1392  -1.7642  -1.7642  -1.3902  -1.3902  -1.0172
    -1.0171  -1.0171  -0.6450  -0.2742  -0.2738   0.0963   0.0963   0.0965
     0.4642   0.4642   0.8325   0.8325   0.8335   0.8335   1.1998   1.1998
     1.2015   1.5633   1.5662   1.5662   1.9316   1.9316   1.9328   2.2959
     2.2959   2.2960   2.2960   2.6484   2.6563   2.6563   3.0213   3.0213
     3.3720   3.3720   3.7060   3.7060   3.7272   3.7313   3.7313   3.7420
     4.0640   4.0640   4.0866   4.1326   4.1326   4.4208   4.4208   4.4932
     4.7773   4.7773   4.7967   4.7967   4.8417   4.9916   5.1169   5.1169
     5.4714   5.4714   5.5250   5.5250   5.5534   5.9058   5.9058   5.9059
     5.9059   6.0363   6.0363   6.2276   6.2276   6.2665   6.5706   6.5706
     6.8859   6.8859   6.9586   6.9595   6.9595   7.1023   7.2712   7.2712
     7.2767   7.2767   7.6262   7.6262   7.9395   7.9395   8.0334   8.1028
     8.1028   8.1372   8.1372   8.2260   8.2260   8.5108   8.5108   8.6846
     8.6846   8.9924   8.9924   9.0294   9.0294   9.0760   9.1114   9.1114
     9.1657   9.1989   9.1989

     occupation numbers 
     1.0000   1.0000   1.0000   1.0000   1.0000   1.0000   1.0000   1.0000
     1.0000   1.0000   1.0000   1.0000   1.0000   1.0000   1.0000   1.0000
     1.0000   1.0000   1.0000   1.0000   1.0000   1.0000   1.0000   1.0000
     1.0000   1.0000   1.0000   1.0000   1.0000   1.0000   1.0000   1.0000
     1.0000   1.0000   1.0000   1.0000   1.0000   1.0000   1.0000   1.0000
     1.0000   1.0000   1.0000   1.0000   1.0000   1.0000   1.0000   1.0000
     1.0000   1.0000   1.0000   1.0000   1.0000   1.0000   1.0000   1.0000
     1.0000   1.0000   1.0000   1.0000   1.0000   1.0000   1.0000   1.0000
     1.0000   1.0000   1.0000   1.0000   1.0000   1.0000   1.0000   1.0000
     1.0000   1.0000   1.0000   1.0000   1.0000   1.0000   1.0000   1.0000
     1.0000   1.0000   1.0000   1.0000   1.0000   1.0000   1.0007   1.0007
     1.0008   1.0008   1.0348   1.0348   0.6166   0.6166   0.3299   0.1521
     0.1521   0.0857   0.0857  -0.0137  -0.0137  -0.0091  -0.0091  -0.0007
    -0.0007  -0.0000  -0.0000  -0.0000  -0.0000  -0.0000  -0.0000  -0.0000
    -0.0000  -0.0000  -0.0000

          k = 0.2357-0.0000 0.2357 ( 42446 PWs)   bands (ev):

    -3.0652  -2.1235  -2.1235  -1.5615  -1.5615  -1.3746  -1.3746  -1.3746
    -1.3746  -0.8156  -0.8156  -0.6295  -0.6295  -0.0740  -0.0740  -0.0733
     0.6650   0.6650   0.6650   0.6650   1.3990   1.3990   1.5803   1.5803
     1.5803   1.5803   2.1297   2.1297   2.1297   2.1297   2.1304   2.1304
     2.3052   2.3052   2.3100   2.3100   2.3100   2.3100   2.8559   3.0305
     3.0305   3.0305   3.0305   3.4735   3.4735   3.7026   3.7026   3.7372
     3.7372   3.7372   3.7372   3.7473   3.7473   4.2218   4.2218   4.4483
     4.4483   4.4483   4.4483   5.0335   5.0335   5.1461   5.2127   5.2127
     5.6373   5.6373   5.9176   5.9176   5.9176   5.9176   6.2346   6.2346
     6.4601   6.4601   6.4833   6.5337   6.5337   6.6253   6.6253   6.6253
     6.6253   7.0085   7.0085   7.3098   7.3098   7.3098   7.3098   7.3981
     7.3981   7.7696   7.7696   7.7696   7.7696   7.9243   7.9245   7.9245
     7.9855   7.9855   7.9913   7.9913   7.9913   7.9913   8.6603   8.6603
     8.7124   8.7124   8.7124   8.7124   9.1731   9.1731   9.1731   9.1731
     9.2419   9.2419   9.3173

     occupation numbers 
     1.0000   1.0000   1.0000   1.0000   1.0000   1.0000   1.0000   1.0000
     1.0000   1.0000   1.0000   1.0000   1.0000   1.0000   1.0000   1.0000
     1.0000   1.0000   1.0000   1.0000   1.0000   1.0000   1.0000   1.0000
     1.0000   1.0000   1.0000   1.0000   1.0000   1.0000   1.0000   1.0000
     1.0000   1.0000   1.0000   1.0000   1.0000   1.0000   1.0000   1.0000
     1.0000   1.0000   1.0000   1.0000   1.0000   1.0000   1.0000   1.0000
     1.0000   1.0000   1.0000   1.0000   1.0000   1.0000   1.0000   1.0000
     1.0000   1.0000   1.0000   1.0000   1.0000   1.0000   1.0000   1.0000
     1.0000   1.0000   1.0000   1.0000   1.0000   1.0000   1.0000   1.0000
     1.0000   1.0000   1.0000   1.0000   1.0000   1.0000   1.0000   1.0000
     1.0000   1.0000   1.0000   1.0014   1.0014   1.0014   1.0014   1.0052
     1.0052   0.9801   0.9801   0.9801   0.9801   0.6615   0.6611   0.6611
     0.4748   0.4748   0.4569   0.4569   0.4569   0.4569  -0.0011  -0.0011
    -0.0004  -0.0004  -0.0004  -0.0004  -0.0000  -0.0000  -0.0000  -0.0000
    -0.0000  -0.0000  -0.0000

          k = 0.0000 0.4714 0.0000 ( 42478 PWs)   bands (ev):

    -2.9393  -2.1861  -1.9984  -1.9984  -1.9984  -1.9984  -0.6916  -0.6916
    -0.6916  -0.6916  -0.5057  -0.5057  -0.5057  -0.5057   0.0499   0.0499
     0.0499   0.0499   0.7855   0.9710   0.9710   0.9710   0.9710   1.5216
     1.5216   1.5216   1.5216   2.2516   2.2516   2.2516   2.2516   2.4263
     2.4263   2.4263   2.4263   2.4263   2.4263   2.4263   2.4263   2.9569
     2.9753   2.9753   2.9753   2.9753   3.8670   3.8670   3.8670   3.8670
     3.8670   3.8670   3.8670   3.8670   5.1059   5.1059   5.1059   5.1059
     5.1513   5.1513   5.1513   5.1513   5.2216   5.2216   5.2216   5.2216
     5.2616   5.2616   5.3278   5.3278   5.3278   5.3278   5.3278   5.3278
     5.3278   5.3278   5.9551   5.9551   6.6045   6.6045   6.7179   6.7179
     6.7179   6.7179   7.2581   7.2581   7.2581   7.2581   7.3120   7.3120
     7.3447   7.3447   7.3447   7.3447   8.0404   8.0404   8.0404   8.0404
     8.1512   8.1512   8.1512   8.1512   8.4658   8.4658   8.4658   8.4658
     8.7369   8.7369   8.7979   8.7979   8.7979   8.7979   8.8718   9.4425
     9.4425   9.4425   9.4426

     occupation numbers 
     1.0000   1.0000   1.0000   1.0000   1.0000   1.0000   1.0000   1.0000
     1.0000   1.0000   1.0000   1.0000   1.0000   1.0000   1.0000   1.0000
     1.0000   1.0000   1.0000   1.0000   1.0000   1.0000   1.0000   1.0000
     1.0000   1.0000   1.0000   1.0000   1.0000   1.0000   1.0000   1.0000
     1.0000   1.0000   1.0000   1.0000   1.0000   1.0000   1.0000   1.0000
     1.0000   1.0000   1.0000   1.0000   1.0000   1.0000   1.0000   1.0000
     1.0000   1.0000   1.0000   1.0000   1.0000   1.0000   1.0000   1.0000
     1.0000   1.0000   1.0000   1.0000   1.0000   1.0000   1.0000   1.0000
     1.0000   1.0000   1.0000   1.0000   1.0000   1.0000   1.0000   1.0000
     1.0000   1.0000   1.0000   1.0000   1.0000   1.0000   1.0000   1.0000
     1.0000   1.0000   1.0006   1.0006   1.0006   1.0006   1.0015   1.0015
     1.0024   1.0024   1.0024   1.0024   0.3098   0.3098   0.3098   0.3098
     0.0634   0.0634   0.0634   0.0634  -0.0146  -0.0146  -0.0146  -0.0146
    -0.0003  -0.0003  -0.0001  -0.0001  -0.0001  -0.0001  -0.0000  -0.0000
    -0.0000  -0.0000  -0.0000

          k = 0.5893-0.1179 0.5893 ( 42451 PWs)   bands (ev):

    -2.7663  -2.3897  -2.3897  -2.0141  -2.0141  -1.6394  -0.8930  -0.8930
    -0.5213  -0.5213  -0.5212  -0.1507  -0.1507  -0.1504  -0.1504   0.2191
     0.2191   0.2191   0.2196   0.5881   0.5881   0.9562   0.9564   1.3193
     1.3236   1.6852   1.6852   1.6892   1.6892   2.0502   2.0502   2.0543
     2.0543   2.4065   2.4179   2.7692   2.7692   2.7800   3.1310   3.1310
     3.1393   3.1393   3.4984   3.4984   3.8464   3.8464   3.8597   3.8597
     4.2035   4.2035   4.2099   4.2099   4.5515   4.5515   4.6112   4.6112
     4.9223   4.9223   4.9562   4.9614   4.9614   5.1086   5.1086   5.3186
     5.3186   5.4580   5.4590   5.4590   5.6227   5.6601   5.6601   5.6697
     5.6697   5.8027   5.8027   6.0149   6.1814   6.3821   6.6772   6.6772
     6.7252   6.7252   6.8695   6.8695   7.0782   7.0782   7.2186   7.2186
     7.3276   7.4254   7.4254   7.4338   7.4406   7.5670   7.5670   7.8842
     7.8842   7.9133   7.9176   7.9176   8.1475   8.2195   8.4860   8.4860
     8.9137   8.9137   8.9825   8.9825   9.1894   9.1894   9.2784   9.2784
     9.3012   9.3012   9.5258

     occupation numbers 
     1.0000   1.0000   1.0000   1.0000   1.0000   1.0000   1.0000   1.0000
     1.0000   1.0000   1.0000   1.0000   1.0000   1.0000   1.0000   1.0000
     1.0000   1.0000   1.0000   1.0000   1.0000   1.0000   1.0000   1.0000
     1.0000   1.0000   1.0000   1.0000   1.0000   1.0000   1.0000   1.0000
     1.0000   1.0000   1.0000   1.0000   1.0000   1.0000   1.0000   1.0000
     1.0000   1.0000   1.0000   1.0000   1.0000   1.0000   1.0000   1.0000
     1.0000   1.0000   1.0000   1.0000   1.0000   1.0000   1.0000   1.0000
     1.0000   1.0000   1.0000   1.0000   1.0000   1.0000   1.0000   1.0000
     1.0000   1.0000   1.0000   1.0000   1.0000   1.0000   1.0000   1.0000
     1.0000   1.0000   1.0000   1.0000   1.0000   1.0000   1.0000   1.0000
     1.0000   1.0000   1.0000   1.0000   1.0000   1.0000   1.0003   1.0003
     1.0019   1.0073   1.0073   1.0081   1.0087   1.0273   1.0273   0.7718
     0.7718   0.6932   0.6812   0.6812   0.0690  -0.0096  -0.0119  -0.0119
    -0.0000  -0.0000  -0.0000  -0.0000  -0.0000  -0.0000  -0.0000  -0.0000
    -0.0000  -0.0000  -0.0000

          k = 0.4714-0.0000 0.4714 ( 42402 PWs)   bands (ev):

    -2.6878  -2.4995  -2.4995  -1.9359  -1.9359  -1.1880  -1.0016  -1.0016
    -1.0016  -1.0016  -0.4440  -0.4440   0.2963   0.2963   0.2963   0.2963
     0.4802   0.4802   0.4802   0.4802   0.4810   0.4810   1.0305   1.0305
     1.0330   1.0330   1.7631   1.7631   1.9410   1.9410   1.9475   1.9475
     1.9475   1.9475   3.1975   3.1975   3.2157   3.2157   3.2157   3.2157
     3.3918   3.3918   3.3918   3.3918   3.3943   3.3943   3.8235   3.8235
     3.9170   3.9170   4.0698   4.0698   4.6497   4.7543   4.7543   4.7543
     4.7543   4.8205   4.8205   4.8205   4.8205   4.8512   4.8512   5.2162
     5.2162   5.4927   5.4930   5.4930   6.0768   6.0768   6.0768   6.0768
     6.1865   6.1865   6.1897   6.1897   6.1897   6.1897   6.2733   6.2733
     6.2733   6.2733   6.7057   6.7057   6.8115   6.8115   6.8360   6.8811
     7.5907   7.5907   7.5907   7.5907   7.6816   7.6816   7.6917   7.6917
     7.9061   7.9061   7.9061   7.9061   8.3605   8.8998   8.8998   8.8998
     8.8998   8.9065   8.9691   8.9691   9.0313   9.0313   9.0313   9.0313
     9.0984   9.0984   9.3931

     occupation numbers 
     1.0000   1.0000   1.0000   1.0000   1.0000   1.0000   1.0000   1.0000
     1.0000   1.0000   1.0000   1.0000   1.0000   1.0000   1.0000   1.0000
     1.0000   1.0000   1.0000   1.0000   1.0000   1.0000   1.0000   1.0000
     1.0000   1.0000   1.0000   1.0000   1.0000   1.0000   1.0000   1.0000
     1.0000   1.0000   1.0000   1.0000   1.0000   1.0000   1.0000   1.0000
     1.0000   1.0000   1.0000   1.0000   1.0000   1.0000   1.0000   1.0000
     1.0000   1.0000   1.0000   1.0000   1.0000   1.0000   1.0000   1.0000
     1.0000   1.0000   1.0000   1.0000   1.0000   1.0000   1.0000   1.0000
     1.0000   1.0000   1.0000   1.0000   1.0000   1.0000   1.0000   1.0000
     1.0000   1.0000   1.0000   1.0000   1.0000   1.0000   1.0000   1.0000
     1.0000   1.0000   1.0000   1.0000   1.0000   1.0000   1.0000   1.0000
     1.0310   1.0310   1.0310   1.0310   1.0320   1.0320   1.0296   1.0296
     0.7134   0.7134   0.7134   0.7134  -0.0315  -0.0000  -0.0000  -0.0000
    -0.0000  -0.0000  -0.0000  -0.0000  -0.0000  -0.0000  -0.0000  -0.0000
    -0.0000  -0.0000  -0.0000

          k = 0.0000-0.7071 0.0000 ( 42394 PWs)   bands (ev):

    -2.6250  -2.6250  -2.0610  -2.0610  -2.0610  -2.0610  -0.3822  -0.3822
    -0.3822  -0.3822  -0.3822  -0.3822  -0.3822  -0.3822   0.1732   0.1732
     0.1732   0.1732   0.1732   0.1732   0.1732   0.1732   1.8194   1.8194
     1.8264   1.8264   1.8264   1.8264   1.8264   1.8264   1.8264   1.8264
     2.3658   2.3658   2.3658   2.3658   2.3658   2.3658   2.3658   2.3658
     3.9915   3.9915   3.9915   3.9915   3.9915   3.9915   3.9915   3.9915
     4.4057   4.4057   4.4057   4.4057   4.4057   4.4057   4.4057   4.4057
     4.6732   4.6732   4.6732   4.6732   4.6732   4.6732   4.6732   4.6732
     5.5505   5.5505   5.5505   5.5505   6.0708   6.0708   6.0708   6.0708
     6.1555   6.1555   6.1555   6.1555   6.1555   6.1555   6.1555   6.1555
     6.5972   6.5972   6.5972   6.5972   6.9039   6.9039   6.9039   6.9039
     7.5698   7.5698   7.5698   7.5698   7.6345   7.6345   7.6345   7.6345
     7.6345   7.6345   7.6345   7.6345   8.7976   8.7976   8.7976   8.7976
     8.7976   8.7976   8.7976   8.7976   9.1193   9.1193   9.1193   9.1193
     9.1193   9.1193   9.1193

     occupation numbers 
     1.0000   1.0000   1.0000   1.0000   1.0000   1.0000   1.0000   1.0000
     1.0000   1.0000   1.0000   1.0000   1.0000   1.0000   1.0000   1.0000
     1.0000   1.0000   1.0000   1.0000   1.0000   1.0000   1.0000   1.0000
     1.0000   1.0000   1.0000   1.0000   1.0000   1.0000   1.0000   1.0000
     1.0000   1.0000   1.0000   1.0000   1.0000   1.0000   1.0000   1.0000
     1.0000   1.0000   1.0000   1.0000   1.0000   1.0000   1.0000   1.0000
     1.0000   1.0000   1.0000   1.0000   1.0000   1.0000   1.0000   1.0000
     1.0000   1.0000   1.0000   1.0000   1.0000   1.0000   1.0000   1.0000
     1.0000   1.0000   1.0000   1.0000   1.0000   1.0000   1.0000   1.0000
     1.0000   1.0000   1.0000   1.0000   1.0000   1.0000   1.0000   1.0000
     1.0000   1.0000   1.0000   1.0000   1.0000   1.0000   1.0000   1.0000
     1.0277   1.0277   1.0277   1.0277   1.0353   1.0353   1.0353   1.0353
     1.0353   1.0353   1.0353   1.0353  -0.0001  -0.0001  -0.0001  -0.0001
    -0.0001  -0.0001  -0.0001  -0.0001  -0.0000  -0.0000  -0.0000  -0.0000
    -0.0000  -0.0000  -0.0000

          k = 0.4714-0.2357 0.7071 ( 42437 PWs)   bands (ev):

    -2.8764  -2.3114  -2.3114  -2.1235  -1.5615  -1.5615  -1.3746  -0.8154
    -0.8154  -0.6297  -0.6297  -0.6295  -0.0732  -0.0732   0.1110   0.1116
     0.1116   0.6644   0.6644   0.8468   0.8484   0.8491   0.8491   1.3973
     1.3973   1.3991   1.3991   1.5829   1.5829   2.1232   2.1232   2.3100
     2.3117   2.3117   2.8496   2.8496   2.8541   2.8541   3.0171   3.0343
     3.0343   3.0356   3.0356   3.5577   3.5577   3.5712   3.5712   3.7566
     4.1730   4.1730   4.3996   4.4332   4.4332   4.4538   4.4975   4.4975
     4.8692   4.8692   4.9306   4.9306   5.1085   5.1451   5.1451   5.1611
     5.1611   5.3193   5.5502   5.5502   5.7395   5.7395   5.8161   5.8161
     5.8671   5.9244   5.9244   6.0130   6.4300   6.4300   6.5402   6.5402
     6.6087   6.6087   6.6635   6.7074   7.1580   7.1580   7.2415   7.2415
     7.3191   7.4026   7.5743   7.7170   7.7170   8.0227   8.0227   8.0299
     8.0985   8.1718   8.2534   8.2583   8.2583   8.4637   8.4637   8.5709
     8.5709   8.7948   8.7949   8.8687   8.8687   8.8959   8.9290   9.0796
     9.0796   9.2415   9.2415

     occupation numbers 
     1.0000   1.0000   1.0000   1.0000   1.0000   1.0000   1.0000   1.0000
     1.0000   1.0000   1.0000   1.0000   1.0000   1.0000   1.0000   1.0000
     1.0000   1.0000   1.0000   1.0000   1.0000   1.0000   1.0000   1.0000
     1.0000   1.0000   1.0000   1.0000   1.0000   1.0000   1.0000   1.0000
     1.0000   1.0000   1.0000   1.0000   1.0000   1.0000   1.0000   1.0000
     1.0000   1.0000   1.0000   1.0000   1.0000   1.0000   1.0000   1.0000
     1.0000   1.0000   1.0000   1.0000   1.0000   1.0000   1.0000   1.0000
     1.0000   1.0000   1.0000   1.0000   1.0000   1.0000   1.0000   1.0000
     1.0000   1.0000   1.0000   1.0000   1.0000   1.0000   1.0000   1.0000
     1.0000   1.0000   1.0000   1.0000   1.0000   1.0000   1.0000   1.0000
     1.0000   1.0000   1.0000   1.0000   1.0001   1.0001   1.0004   1.0004
     1.0016   1.0055   1.0285   1.0201   1.0201   0.3613   0.3613   0.3399
     0.1615   0.0351  -0.0265  -0.0282  -0.0282  -0.0149  -0.0149  -0.0043
    -0.0043  -0.0001  -0.0001  -0.0000  -0.0000  -0.0000  -0.0000  -0.0000
    -0.0000  -0.0000  -0.0000

          k = 0.3536-0.1179 0.5893 ( 42430 PWs)   bands (ev):

    -2.6407  -2.6407  -2.2644  -2.2644  -1.5147  -1.5147  -1.1413  -1.1413
    -0.7690  -0.7690  -0.3975  -0.3975  -0.0273  -0.0273   0.3422   0.3422
     0.3426   0.3426   0.7098   0.7098   0.7113   0.7113   1.0774   1.0774
     1.0786   1.0786   1.4413   1.4413   1.4454   1.4454   2.5275   2.5275
     2.5353   2.5353   2.5382   2.5382   2.8999   2.8999   3.2594   3.2594
     3.2610   3.2610   3.6107   3.6107   3.6118   3.6118   3.9449   3.9449
     3.9778   3.9778   4.3023   4.3023   4.3274   4.3274   4.3708   4.3708
     4.6927   4.6927   5.0258   5.0258   5.0754   5.0754   5.2253   5.2253
     5.4228   5.4228   5.5749   5.5749   5.7348   5.7348   5.7610   5.7610
     6.1001   6.1001   6.1331   6.1331   6.2976   6.2976   6.4525   6.4525
     6.4994   6.4994   6.6368   6.6368   6.8053   6.8053   7.1871   7.1871
     7.2094   7.2094   7.4466   7.4466   7.5501   7.5501   7.9997   7.9997
     8.2564   8.2564   8.3334   8.3334   8.3798   8.3798   8.4528   8.4528
     8.6904   8.6904   8.7319   8.7319   8.7472   8.7472   8.9399   8.9399
     9.1395   9.1395   9.6150

     occupation numbers 
     1.0000   1.0000   1.0000   1.0000   1.0000   1.0000   1.0000   1.0000
     1.0000   1.0000   1.0000   1.0000   1.0000   1.0000   1.0000   1.0000
     1.0000   1.0000   1.0000   1.0000   1.0000   1.0000   1.0000   1.0000
     1.0000   1.0000   1.0000   1.0000   1.0000   1.0000   1.0000   1.0000
     1.0000   1.0000   1.0000   1.0000   1.0000   1.0000   1.0000   1.0000
     1.0000   1.0000   1.0000   1.0000   1.0000   1.0000   1.0000   1.0000
     1.0000   1.0000   1.0000   1.0000   1.0000   1.0000   1.0000   1.0000
     1.0000   1.0000   1.0000   1.0000   1.0000   1.0000   1.0000   1.0000
     1.0000   1.0000   1.0000   1.0000   1.0000   1.0000   1.0000   1.0000
     1.0000   1.0000   1.0000   1.0000   1.0000   1.0000   1.0000   1.0000
     1.0000   1.0000   1.0000   1.0000   1.0000   1.0000   1.0002   1.0002
     1.0002   1.0002   1.0093   1.0093   1.0245   1.0245   0.4308   0.4308
    -0.0275  -0.0275  -0.0345  -0.0345  -0.0286  -0.0286  -0.0165  -0.0165
    -0.0007  -0.0007  -0.0003  -0.0003  -0.0002  -0.0002  -0.0000  -0.0000
    -0.0000  -0.0000  -0.0000

          k =-0.2357-0.7071 0.0000 ( 42432 PWs)   bands (ev):

    -2.5622  -2.5622  -2.3740  -2.3740  -1.6238  -1.6238  -1.0637  -1.0637
    -0.3204  -0.3204  -0.3204  -0.3204  -0.1351  -0.1351  -0.1351  -0.1351
     0.4187   0.4187   0.6037   0.6037   0.6037   0.6037   1.1554   1.1554
     1.1554   1.1554   1.3362   1.3362   1.8802   1.8802   2.0625   2.0625
     2.6142   2.6142   2.6142   2.6142   2.7893   2.7893   3.3318   3.3318
     3.4978   3.4978   3.5130   3.5130   3.5130   3.5130   4.0506   4.0506
     4.0506   4.0506   4.2254   4.2254   4.2254   4.2254   4.6954   4.6954
     4.7651   4.7651   4.9707   4.9707   4.9707   4.9707   5.5025   5.5025
     5.5025   5.5025   5.6082   5.6082   5.6455   5.6455   5.6669   5.6669
     5.6669   5.6669   5.7817   5.7817   6.4758   6.4758   6.8308   6.8308
     6.8308   6.8308   6.9248   6.9248   6.9248   6.9248   6.9571   6.9571
     6.9970   6.9970   7.0771   7.0771   7.8072   7.8072   7.8072   7.8072
     7.8638   7.8638   7.8800   7.8800   7.9464   7.9464   8.3886   8.3886
     8.4750   8.4750   8.9606   8.9606   9.2595   9.2595   9.3702   9.3702
     9.7822   9.7823   9.8611

     occupation numbers 
     1.0000   1.0000   1.0000   1.0000   1.0000   1.0000   1.0000   1.0000
     1.0000   1.0000   1.0000   1.0000   1.0000   1.0000   1.0000   1.0000
     1.0000   1.0000   1.0000   1.0000   1.0000   1.0000   1.0000   1.0000
     1.0000   1.0000   1.0000   1.0000   1.0000   1.0000   1.0000   1.0000
     1.0000   1.0000   1.0000   1.0000   1.0000   1.0000   1.0000   1.0000
     1.0000   1.0000   1.0000   1.0000   1.0000   1.0000   1.0000   1.0000
     1.0000   1.0000   1.0000   1.0000   1.0000   1.0000   1.0000   1.0000
     1.0000   1.0000   1.0000   1.0000   1.0000   1.0000   1.0000   1.0000
     1.0000   1.0000   1.0000   1.0000   1.0000   1.0000   1.0000   1.0000
     1.0000   1.0000   1.0000   1.0000   1.0000   1.0000   1.0000   1.0000
     1.0000   1.0000   1.0000   1.0000   1.0000   1.0000   1.0000   1.0000
     1.0000   1.0000   1.0000   1.0000   0.9311   0.9311   0.9311   0.9311
     0.8215   0.8215   0.7825   0.7825   0.5958   0.5958  -0.0272  -0.0272
    -0.0134  -0.0134  -0.0000  -0.0000  -0.0000  -0.0000  -0.0000  -0.0000
    -0.0000  -0.0000  -0.0000

     the Fermi energy is     7.9774 ev

!    total energy              =   -2528.11877848 Ry
     total all-electron energy =     -2528.118778 Ry
     estimated scf accuracy    <          1.7E-17 Ry
     smearing contrib. (-TS)   =      -0.00504596 Ry
     internal energy E=F+TS    =   -2528.11373252 Ry

     The total energy is F=E-TS. E is the sum of the following terms:
     one-electron contribution =     202.39314601 Ry
     hartree contribution      =       0.52627078 Ry
     xc contribution           =    -134.65399014 Ry
     ewald contribution        =    -346.10278029 Ry
     one-center paw contrib.   =   -2250.27637889 Ry
      -> PAW hartree energy AE =       1.84495098 Ry
      -> PAW hartree energy PS =      -1.78902276 Ry
      -> PAW xc energy AE      =    -216.14813542 Ry
      -> PAW xc energy PS      =       5.12879668 Ry
      -> total E_H with PAW    =       0.58219900 Ry
      -> total E_XC with PAW   =    -345.67332888 Ry

     convergence has been achieved in  25 iterations

     negative rho (up, down):  4.432E-02 0.000E+00

     Forces acting on atoms (cartesian axes, Ry/au):

     atom    1 type  1   force =    -0.00000000   -0.00000000   -0.00000000
     atom    2 type  1   force =    -0.00000000    0.00000000    0.00000000
     atom    3 type  1   force =    -0.00000000   -0.00000000    0.00000000
     atom    4 type  1   force =     0.00000000   -0.00000000    0.00000000
     atom    5 type  1   force =     0.00000000    0.00000000    0.00000000
     atom    6 type  1   force =    -0.00000000    0.00000000    0.00000000
     atom    7 type  1   force =     0.00000000   -0.00000000    0.00000000
     atom    8 type  1   force =     0.00000000    0.00000000    0.00000000
     atom    9 type  1   force =     0.00000000    0.00000000   -0.00000000
     atom   10 type  1   force =    -0.00000000   -0.00000000   -0.00000000
     atom   11 type  1   force =     0.00000000    0.00000000    0.00000000
     atom   12 type  1   force =     0.00000000    0.00000000    0.00000000
     atom   13 type  1   force =     0.00000000   -0.00000000   -0.00000000
     atom   14 type  1   force =    -0.00000000   -0.00000000   -0.00000000
     atom   15 type  1   force =    -0.00000000    0.00000000   -0.00000000
     atom   16 type  1   force =     0.00000000   -0.00000000   -0.00000000
     atom   17 type  1   force =    -0.00000000   -0.00000000    0.00000000
     atom   18 type  1   force =    -0.00000000    0.00000000    0.00000000
     atom   19 type  1   force =     0.00000000   -0.00000000    0.00000000
     atom   20 type  1   force =     0.00000000   -0.00000000    0.00000000
     atom   21 type  1   force =    -0.00000000    0.00000000    0.00000000
     atom   22 type  1   force =     0.00000000    0.00000000   -0.00000000
     atom   23 type  1   force =     0.00000000   -0.00000000    0.00000000
     atom   24 type  1   force =     0.00000000    0.00000000    0.00000000
     atom   25 type  1   force =    -0.00000000   -0.00000000   -0.00000000
     atom   26 type  1   force =    -0.00000000   -0.00000000   -0.00000000
     atom   27 type  1   force =    -0.00000000    0.00000000    0.00000000
     atom   28 type  1   force =     0.00000000   -0.00000000    0.00000000
     atom   29 type  1   force =    -0.00000000   -0.00000000    0.00000000
     atom   30 type  1   force =    -0.00000000    0.00000000   -0.00000000
     atom   31 type  1   force =    -0.00000000   -0.00000000    0.00000000
     atom   32 type  1   force =     0.00000000   -0.00000000    0.00000000
     atom   33 type  1   force =     0.00000000    0.00000000    0.00000000
     atom   34 type  1   force =     0.00000000    0.00000000   -0.00000000
     atom   35 type  1   force =    -0.00000000   -0.00000000    0.00000000
     atom   36 type  1   force =    -0.00000000   -0.00000000    0.00000000
     atom   37 type  1   force =     0.00000000    0.00000000   -0.00000000
     atom   38 type  1   force =     0.00000000    0.00000000   -0.00000000
     atom   39 type  1   force =     0.00000000    0.00000000    0.00000000
     atom   40 type  1   force =     0.00000000    0.00000000    0.00000000
     atom   41 type  1   force =     0.00000000    0.00000000   -0.00000000
     atom   42 type  1   force =    -0.00000000    0.00000000   -0.00000000
     atom   43 type  1   force =    -0.00000000   -0.00000000   -0.00000000
     atom   44 type  1   force =     0.00000000   -0.00000000    0.00000000
     atom   45 type  1   force =    -0.00000000   -0.00000000    0.00000000
     atom   46 type  1   force =    -0.00000000    0.00000000   -0.00000000
     atom   47 type  1   force =     0.00000000   -0.00000000   -0.00000000
     atom   48 type  1   force =    -0.00000000   -0.00000000    0.00000000
     atom   49 type  1   force =     0.00000000    0.00000000   -0.00000000
     atom   50 type  1   force =    -0.00000000    0.00000000   -0.00000000
     atom   51 type  1   force =    -0.00000000    0.00000000   -0.00000000
     atom   52 type  1   force =     0.00000000   -0.00000000   -0.00000000
     atom   53 type  1   force =     0.00000000    0.00000000    0.00000000
     atom   54 type  1   force =    -0.00000000    0.00000000   -0.00000000
     atom   55 type  1   force =     0.00000000    0.00000000    0.00000000
     atom   56 type  1   force =     0.00000000   -0.00000000    0.00000000
     atom   57 type  1   force =     0.00000000    0.00000000    0.00000000
     atom   58 type  1   force =     0.00000000    0.00000000   -0.00000000
     atom   59 type  1   force =     0.00000000    0.00000000   -0.00000000
     atom   60 type  1   force =     0.00000000    0.00000000    0.00000000
     atom   61 type  1   force =     0.00000000   -0.00000000   -0.00000000
     atom   62 type  1   force =     0.00000000    0.00000000   -0.00000000
     atom   63 type  1   force =    -0.00000000    0.00000000   -0.00000000
     atom   64 type  1   force =     0.00000000    0.00000000    0.00000000
     The non-local contrib.  to forces
     atom    1 type  1   force =    -0.00000000    0.00000000   -0.00000000
     atom    2 type  1   force =     0.00000000   -0.00000000    0.00000000
     atom    3 type  1   force =    -0.00000000   -0.00000000   -0.00000000
     atom    4 type  1   force =    -0.00000000    0.00000000    0.00000000
     atom    5 type  1   force =     0.00000000   -0.00000000   -0.00000000
     atom    6 type  1   force =     0.00000000   -0.00000000   -0.00000000
     atom    7 type  1   force =    -0.00000000    0.00000000   -0.00000000
     atom    8 type  1   force =    -0.00000000   -0.00000000   -0.00000000
     atom    9 type  1   force =     0.00000000    0.00000000    0.00000000
     atom   10 type  1   force =     0.00000000    0.00000000    0.00000000
     atom   11 type  1   force =    -0.00000000   -0.00000000    0.00000000
     atom   12 type  1   force =    -0.00000000   -0.00000000   -0.00000000
     atom   13 type  1   force =     0.00000000    0.00000000    0.00000000
     atom   14 type  1   force =     0.00000000    0.00000000    0.00000000
     atom   15 type  1   force =     0.00000000   -0.00000000    0.00000000
     atom   16 type  1   force =    -0.00000000    0.00000000    0.00000000
     atom   17 type  1   force =     0.00000000   -0.00000000   -0.00000000
     atom   18 type  1   force =     0.00000000   -0.00000000   -0.00000000
     atom   19 type  1   force =    -0.00000000    0.00000000   -0.00000000
     atom   20 type  1   force =    -0.00000000    0.00000000   -0.00000000
     atom   21 type  1   force =     0.00000000   -0.00000000   -0.00000000
     atom   22 type  1   force =    -0.00000000   -0.00000000    0.00000000
     atom   23 type  1   force =    -0.00000000    0.00000000   -0.00000000
     atom   24 type  1   force =    -0.00000000    0.00000000    0.00000000
     atom   25 type  1   force =     0.00000000    0.00000000    0.00000000
     atom   26 type  1   force =     0.00000000    0.00000000    0.00000000
     atom   27 type  1   force =     0.00000000   -0.00000000   -0.00000000
     atom   28 type  1   force =    -0.00000000    0.00000000   -0.00000000
     atom   29 type  1   force =     0.00000000    0.00000000   -0.00000000
     atom   30 type  1   force =    -0.00000000    0.00000000    0.00000000
     atom   31 type  1   force =     0.00000000    0.00000000   -0.00000000
     atom   32 type  1   force =     0.00000000   -0.00000000    0.00000000
     atom   33 type  1   force =    -0.00000000   -0.00000000    0.00000000
     atom   34 type  1   force =    -0.00000000   -0.00000000    0.00000000
     atom   35 type  1   force =    -0.00000000    0.00000000   -0.00000000
     atom   36 type  1   force =     0.00000000    0.00000000   -0.00000000
     atom   37 type  1   force =    -0.00000000   -0.00000000    0.00000000
     atom   38 type  1   force =    -0.00000000   -0.00000000    0.00000000
     atom   39 type  1   force =     0.00000000   -0.00000000   -0.00000000
     atom   40 type  1   force =    -0.00000000    0.00000000   -0.00000000
     atom   41 type  1   force =     0.00000000    0.00000000    0.00000000
     atom   42 type  1   force =     0.00000000   -0.00000000   -0.00000000
     atom   43 type  1   force =     0.00000000    0.00000000    0.00000000
     atom   44 type  1   force =    -0.00000000    0.00000000    0.00000000
     atom   45 type  1   force =     0.00000000    0.00000000   -0.00000000
     atom   46 type  1   force =     0.00000000    0.00000000    0.00000000
     atom   47 type  1   force =    -0.00000000    0.00000000    0.00000000
     atom   48 type  1   force =     0.00000000    0.00000000   -0.00000000
     atom   49 type  1   force =    -0.00000000   -0.00000000    0.00000000
     atom   50 type  1   force =    -0.00000000   -0.00000000    0.00000000
     atom   51 type  1   force =     0.00000000   -0.00000000    0.00000000
     atom   52 type  1   force =    -0.00000000    0.00000000    0.00000000
     atom   53 type  1   force =    -0.00000000   -0.00000000   -0.00000000
     atom   54 type  1   force =     0.00000000    0.00000000    0.00000000
     atom   55 type  1   force =    -0.00000000   -0.00000000   -0.00000000
     atom   56 type  1   force =     0.00000000    0.00000000    0.00000000
     atom   57 type  1   force =    -0.00000000   -0.00000000   -0.00000000
     atom   58 type  1   force =    -0.00000000   -0.00000000    0.00000000
     atom   59 type  1   force =    -0.00000000    0.00000000    0.00000000
     atom   60 type  1   force =    -0.00000000   -0.00000000   -0.00000000
     atom   61 type  1   force =    -0.00000000    0.00000000    0.00000000
     atom   62 type  1   force =     0.00000000    0.00000000   -0.00000000
     atom   63 type  1   force =     0.00000000   -0.00000000    0.00000000
     atom   64 type  1   force =     0.00000000    0.00000000    0.00000000
     The ionic contribution  to forces
     atom    1 type  1   force =    -0.00000000    0.00000000    0.00000000
     atom    2 type  1   force =    -0.00000000    0.00000000   -0.00000000
     atom    3 type  1   force =    -0.00000000    0.00000000   -0.00000000
     atom    4 type  1   force =    -0.00000000    0.00000000    0.00000000
     atom    5 type  1   force =    -0.00000000   -0.00000000    0.00000000
     atom    6 type  1   force =    -0.00000000   -0.00000000   -0.00000000
     atom    7 type  1   force =    -0.00000000    0.00000000   -0.00000000
     atom    8 type  1   force =    -0.00000000    0.00000000   -0.00000000
     atom    9 type  1   force =     0.00000000   -0.00000000    0.00000000
     atom   10 type  1   force =    -0.00000000    0.00000000    0.00000000
     atom   11 type  1   force =    -0.00000000    0.00000000    0.00000000
     atom   12 type  1   force =    -0.00000000    0.00000000    0.00000000
     atom   13 type  1   force =     0.00000000    0.00000000    0.00000000
     atom   14 type  1   force =    -0.00000000    0.00000000    0.00000000
     atom   15 type  1   force =    -0.00000000    0.00000000    0.00000000
     atom   16 type  1   force =    -0.00000000    0.00000000    0.00000000
     atom   17 type  1   force =     0.00000000   -0.00000000   -0.00000000
     atom   18 type  1   force =     0.00000000   -0.00000000   -0.00000000
     atom   19 type  1   force =     0.00000000   -0.00000000   -0.00000000
     atom   20 type  1   force =     0.00000000   -0.00000000   -0.00000000
     atom   21 type  1   force =     0.00000000   -0.00000000   -0.00000000
     atom   22 type  1   force =     0.00000000   -0.00000000   -0.00000000
     atom   23 type  1   force =     0.00000000   -0.00000000   -0.00000000
     atom   24 type  1   force =     0.00000000   -0.00000000   -0.00000000
     atom   25 type  1   force =     0.00000000   -0.00000000   -0.00000000
     atom   26 type  1   force =     0.00000000   -0.00000000   -0.00000000
     atom   27 type  1   force =     0.00000000   -0.00000000   -0.00000000
     atom   28 type  1   force =     0.00000000   -0.00000000   -0.00000000
     atom   29 type  1   force =     0.00000000   -0.00000000   -0.00000000
     atom   30 type  1   force =     0.00000000   -0.00000000   -0.00000000
     atom   31 type  1   force =     0.00000000   -0.00000000   -0.00000000
     atom   32 type  1   force =     0.00000000    0.00000000   -0.00000000
     atom   33 type  1   force =     0.00000000   -0.00000000   -0.00000000
     atom   34 type  1   force =     0.00000000   -0.00000000   -0.00000000
     atom   35 type  1   force =     0.00000000   -0.00000000   -0.00000000
     atom   36 type  1   force =     0.00000000   -0.00000000   -0.00000000
     atom   37 type  1   force =     0.00000000   -0.00000000   -0.00000000
     atom   38 type  1   force =     0.00000000   -0.00000000   -0.00000000
     atom   39 type  1   force =     0.00000000   -0.00000000   -0.00000000
     atom   40 type  1   force =     0.00000000   -0.00000000   -0.00000000
     atom   41 type  1   force =     0.00000000   -0.00000000   -0.00000000
     atom   42 type  1   force =     0.00000000   -0.00000000   -0.00000000
     atom   43 type  1   force =     0.00000000   -0.00000000   -0.00000000
     atom   44 type  1   force =     0.00000000   -0.00000000   -0.00000000
     atom   45 type  1   force =     0.00000000   -0.00000000    0.00000000
     atom   46 type  1   force =     0.00000000   -0.00000000   -0.00000000
     atom   47 type  1   force =     0.00000000   -0.00000000   -0.00000000
     atom   48 type  1   force =     0.00000000   -0.00000000   -0.00000000
     atom   49 type  1   force =    -0.00000000   -0.00000000    0.00000000
     atom   50 type  1   force =    -0.00000000   -0.00000000    0.00000000
     atom   51 type  1   force =    -0.00000000    0.00000000    0.00000000
     atom   52 type  1   force =    -0.00000000    0.00000000    0.00000000
     atom   53 type  1   force =    -0.00000000   -0.00000000    0.00000000
     atom   54 type  1   force =    -0.00000000    0.00000000    0.00000000
     atom   55 type  1   force =    -0.00000000    0.00000000    0.00000000
     atom   56 type  1   force =    -0.00000000    0.00000000    0.00000000
     atom   57 type  1   force =    -0.00000000    0.00000000    0.00000000
     atom   58 type  1   force =    -0.00000000    0.00000000    0.00000000
     atom   59 type  1   force =    -0.00000000    0.00000000    0.00000000
     atom   60 type  1   force =    -0.00000000    0.00000000    0.00000000
     atom   61 type  1   force =    -0.00000000    0.00000000    0.00000000
     atom   62 type  1   force =    -0.00000000    0.00000000    0.00000000
     atom   63 type  1   force =    -0.00000000    0.00000000    0.00000000
     atom   64 type  1   force =    -0.00000000    0.00000000    0.00000000
     The local contribution  to forces
     atom    1 type  1   force =     0.00000000   -0.00000000    0.00000000
     atom    2 type  1   force =    -0.00000000    0.00000000   -0.00000000
     atom    3 type  1   force =     0.00000000   -0.00000000   -0.00000000
     atom    4 type  1   force =     0.00000000   -0.00000000    0.00000000
     atom    5 type  1   force =     0.00000000    0.00000000    0.00000000
     atom    6 type  1   force =    -0.00000000    0.00000000    0.00000000
     atom    7 type  1   force =     0.00000000   -0.00000000    0.00000000
     atom    8 type  1   force =     0.00000000   -0.00000000    0.00000000
     atom    9 type  1   force =     0.00000000   -0.00000000   -0.00000000
     atom   10 type  1   force =    -0.00000000   -0.00000000   -0.00000000
     atom   11 type  1   force =     0.00000000   -0.00000000   -0.00000000
     atom   12 type  1   force =     0.00000000    0.00000000    0.00000000
     atom   13 type  1   force =     0.00000000   -0.00000000   -0.00000000
     atom   14 type  1   force =    -0.00000000   -0.00000000   -0.00000000
     atom   15 type  1   force =    -0.00000000    0.00000000   -0.00000000
     atom   16 type  1   force =     0.00000000   -0.00000000   -0.00000000
     atom   17 type  1   force =    -0.00000000   -0.00000000    0.00000000
     atom   18 type  1   force =    -0.00000000    0.00000000    0.00000000
     atom   19 type  1   force =     0.00000000   -0.00000000    0.00000000
     atom   20 type  1   force =     0.00000000   -0.00000000    0.00000000
     atom   21 type  1   force =    -0.00000000    0.00000000    0.00000000
     atom   22 type  1   force =     0.00000000   -0.00000000   -0.00000000
     atom   23 type  1   force =     0.00000000   -0.00000000    0.00000000
     atom   24 type  1   force =     0.00000000   -0.00000000    0.00000000
     atom   25 type  1   force =    -0.00000000   -0.00000000   -0.00000000
     atom   26 type  1   force =    -0.00000000   -0.00000000   -0.00000000
     atom   27 type  1   force =    -0.00000000   -0.00000000    0.00000000
     atom   28 type  1   force =     0.00000000   -0.00000000    0.00000000
     atom   29 type  1   force =    -0.00000000   -0.00000000   -0.00000000
     atom   30 type  1   force =    -0.00000000   -0.00000000   -0.00000000
     atom   31 type  1   force =    -0.00000000   -0.00000000   -0.00000000
     atom   32 type  1   force =     0.00000000   -0.00000000   -0.00000000
     atom   33 type  1   force =     0.00000000   -0.00000000   -0.00000000
     atom   34 type  1   force =     0.00000000    0.00000000   -0.00000000
     atom   35 type  1   force =     0.00000000   -0.00000000   -0.00000000
     atom   36 type  1   force =    -0.00000000   -0.00000000    0.00000000
     atom   37 type  1   force =     0.00000000    0.00000000   -0.00000000
     atom   38 type  1   force =     0.00000000    0.00000000   -0.00000000
     atom   39 type  1   force =     0.00000000    0.00000000    0.00000000
     atom   40 type  1   force =     0.00000000   -0.00000000    0.00000000
     atom   41 type  1   force =     0.00000000   -0.00000000   -0.00000000
     atom   42 type  1   force =    -0.00000000    0.00000000   -0.00000000
     atom   43 type  1   force =     0.00000000   -0.00000000   -0.00000000
     atom   44 type  1   force =     0.00000000   -0.00000000   -0.00000000
     atom   45 type  1   force =    -0.00000000   -0.00000000    0.00000000
     atom   46 type  1   force =    -0.00000000   -0.00000000   -0.00000000
     atom   47 type  1   force =     0.00000000   -0.00000000   -0.00000000
     atom   48 type  1   force =    -0.00000000   -0.00000000    0.00000000
     atom   49 type  1   force =     0.00000000   -0.00000000   -0.00000000
     atom   50 type  1   force =     0.00000000    0.00000000   -0.00000000
     atom   51 type  1   force =    -0.00000000    0.00000000   -0.00000000
     atom   52 type  1   force =     0.00000000   -0.00000000   -0.00000000
     atom   53 type  1   force =     0.00000000    0.00000000   -0.00000000
     atom   54 type  1   force =     0.00000000    0.00000000   -0.00000000
     atom   55 type  1   force =     0.00000000    0.00000000   -0.00000000
     atom   56 type  1   force =     0.00000000   -0.00000000   -0.00000000
     atom   57 type  1   force =     0.00000000    0.00000000    0.00000000
     atom   58 type  1   force =     0.00000000    0.00000000   -0.00000000
     atom   59 type  1   force =     0.00000000   -0.00000000   -0.00000000
     atom   60 type  1   force =     0.00000000    0.00000000    0.00000000
     atom   61 type  1   force =     0.00000000   -0.00000000   -0.00000000
     atom   62 type  1   force =     0.00000000   -0.00000000   -0.00000000
     atom   63 type  1   force =    -0.00000000    0.00000000   -0.00000000
     atom   64 type  1   force =     0.00000000   -0.00000000   -0.00000000
     The core correction contribution to forces
     atom    1 type  1   force =     0.00000000   -0.00000000   -0.00000000
     atom    2 type  1   force =    -0.00000000    0.00000000   -0.00000000
     atom    3 type  1   force =     0.00000000   -0.00000000   -0.00000000
     atom    4 type  1   force =     0.00000000   -0.00000000   -0.00000000
     atom    5 type  1   force =     0.00000000    0.00000000    0.00000000
     atom    6 type  1   force =    -0.00000000    0.00000000    0.00000000
     atom    7 type  1   force =     0.00000000   -0.00000000    0.00000000
     atom    8 type  1   force =     0.00000000   -0.00000000    0.00000000
     atom    9 type  1   force =     0.00000000   -0.00000000   -0.00000000
     atom   10 type  1   force =    -0.00000000   -0.00000000   -0.00000000
     atom   11 type  1   force =     0.00000000   -0.00000000   -0.00000000
     atom   12 type  1   force =     0.00000000    0.00000000    0.00000000
     atom   13 type  1   force =     0.00000000   -0.00000000   -0.00000000
     atom   14 type  1   force =    -0.00000000   -0.00000000   -0.00000000
     atom   15 type  1   force =    -0.00000000    0.00000000   -0.00000000
     atom   16 type  1   force =     0.00000000   -0.00000000   -0.00000000
     atom   17 type  1   force =    -0.00000000    0.00000000    0.00000000
     atom   18 type  1   force =    -0.00000000    0.00000000    0.00000000
     atom   19 type  1   force =     0.00000000   -0.00000000    0.00000000
     atom   20 type  1   force =     0.00000000   -0.00000000    0.00000000
     atom   21 type  1   force =    -0.00000000    0.00000000    0.00000000
     atom   22 type  1   force =    -0.00000000    0.00000000    0.00000000
     atom   23 type  1   force =     0.00000000   -0.00000000    0.00000000
     atom   24 type  1   force =     0.00000000   -0.00000000   -0.00000000
     atom   25 type  1   force =    -0.00000000   -0.00000000   -0.00000000
     atom   26 type  1   force =    -0.00000000   -0.00000000   -0.00000000
     atom   27 type  1   force =    -0.00000000   -0.00000000    0.00000000
     atom   28 type  1   force =    -0.00000000   -0.00000000    0.00000000
     atom   29 type  1   force =    -0.00000000   -0.00000000   -0.00000000
     atom   30 type  1   force =     0.00000000    0.00000000   -0.00000000
     atom   31 type  1   force =    -0.00000000   -0.00000000   -0.00000000
     atom   32 type  1   force =    -0.00000000    0.00000000   -0.00000000
     atom   33 type  1   force =    -0.00000000    0.00000000    0.00000000
     atom   34 type  1   force =     0.00000000    0.00000000   -0.00000000
     atom   35 type  1   force =     0.00000000    0.00000000    0.00000000
     atom   36 type  1   force =    -0.00000000   -0.00000000    0.00000000
     atom   37 type  1   force =     0.00000000    0.00000000   -0.00000000
     atom   38 type  1   force =     0.00000000    0.00000000   -0.00000000
     atom   39 type  1   force =     0.00000000    0.00000000    0.00000000
     atom   40 type  1   force =     0.00000000   -0.00000000    0.00000000
     atom   41 type  1   force =    -0.00000000    0.00000000   -0.00000000
     atom   42 type  1   force =    -0.00000000    0.00000000   -0.00000000
     atom   43 type  1   force =     0.00000000   -0.00000000    0.00000000
     atom   44 type  1   force =     0.00000000   -0.00000000    0.00000000
     atom   45 type  1   force =    -0.00000000   -0.00000000    0.00000000
     atom   46 type  1   force =    -0.00000000    0.00000000   -0.00000000
     atom   47 type  1   force =     0.00000000   -0.00000000   -0.00000000
     atom   48 type  1   force =    -0.00000000   -0.00000000    0.00000000
     atom   49 type  1   force =     0.00000000   -0.00000000   -0.00000000
     atom   50 type  1   force =     0.00000000    0.00000000   -0.00000000
     atom   51 type  1   force =    -0.00000000    0.00000000   -0.00000000
     atom   52 type  1   force =     0.00000000   -0.00000000   -0.00000000
     atom   53 type  1   force =     0.00000000    0.00000000   -0.00000000
     atom   54 type  1   force =     0.00000000   -0.00000000   -0.00000000
     atom   55 type  1   force =     0.00000000    0.00000000   -0.00000000
     atom   56 type  1   force =    -0.00000000   -0.00000000   -0.00000000
     atom   57 type  1   force =     0.00000000    0.00000000    0.00000000
     atom   58 type  1   force =     0.00000000    0.00000000   -0.00000000
     atom   59 type  1   force =     0.00000000   -0.00000000   -0.00000000
     atom   60 type  1   force =     0.00000000    0.00000000    0.00000000
     atom   61 type  1   force =     0.00000000   -0.00000000   -0.00000000
     atom   62 type  1   force =     0.00000000   -0.00000000    0.00000000
     atom   63 type  1   force =    -0.00000000    0.00000000   -0.00000000
     atom   64 type  1   force =     0.00000000   -0.00000000   -0.00000000
     The Hubbard contrib.    to forces
     atom    1 type  1   force =     0.00000000    0.00000000    0.00000000
     atom    2 type  1   force =     0.00000000    0.00000000    0.00000000
     atom    3 type  1   force =     0.00000000    0.00000000    0.00000000
     atom    4 type  1   force =     0.00000000    0.00000000    0.00000000
     atom    5 type  1   force =     0.00000000    0.00000000    0.00000000
     atom    6 type  1   force =     0.00000000    0.00000000    0.00000000
     atom    7 type  1   force =     0.00000000    0.00000000    0.00000000
     atom    8 type  1   force =     0.00000000    0.00000000    0.00000000
     atom    9 type  1   force =     0.00000000    0.00000000    0.00000000
     atom   10 type  1   force =     0.00000000    0.00000000    0.00000000
     atom   11 type  1   force =     0.00000000    0.00000000    0.00000000
     atom   12 type  1   force =     0.00000000    0.00000000    0.00000000
     atom   13 type  1   force =     0.00000000    0.00000000    0.00000000
     atom   14 type  1   force =     0.00000000    0.00000000    0.00000000
     atom   15 type  1   force =     0.00000000    0.00000000    0.00000000
     atom   16 type  1   force =     0.00000000    0.00000000    0.00000000
     atom   17 type  1   force =     0.00000000    0.00000000    0.00000000
     atom   18 type  1   force =     0.00000000    0.00000000    0.00000000
     atom   19 type  1   force =     0.00000000    0.00000000    0.00000000
     atom   20 type  1   force =     0.00000000    0.00000000    0.00000000
     atom   21 type  1   force =     0.00000000    0.00000000    0.00000000
     atom   22 type  1   force =     0.00000000    0.00000000    0.00000000
     atom   23 type  1   force =     0.00000000    0.00000000    0.00000000
     atom   24 type  1   force =     0.00000000    0.00000000    0.00000000
     atom   25 type  1   force =     0.00000000    0.00000000    0.00000000
     atom   26 type  1   force =     0.00000000    0.00000000    0.00000000
     atom   27 type  1   force =     0.00000000    0.00000000    0.00000000
     atom   28 type  1   force =     0.00000000    0.00000000    0.00000000
     atom   29 type  1   force =     0.00000000    0.00000000    0.00000000
     atom   30 type  1   force =     0.00000000    0.00000000    0.00000000
     atom   31 type  1   force =     0.00000000    0.00000000    0.00000000
     atom   32 type  1   force =     0.00000000    0.00000000    0.00000000
     atom   33 type  1   force =     0.00000000    0.00000000    0.00000000
     atom   34 type  1   force =     0.00000000    0.00000000    0.00000000
     atom   35 type  1   force =     0.00000000    0.00000000    0.00000000
     atom   36 type  1   force =     0.00000000    0.00000000    0.00000000
     atom   37 type  1   force =     0.00000000    0.00000000    0.00000000
     atom   38 type  1   force =     0.00000000    0.00000000    0.00000000
     atom   39 type  1   force =     0.00000000    0.00000000    0.00000000
     atom   40 type  1   force =     0.00000000    0.00000000    0.00000000
     atom   41 type  1   force =     0.00000000    0.00000000    0.00000000
     atom   42 type  1   force =     0.00000000    0.00000000    0.00000000
     atom   43 type  1   force =     0.00000000    0.00000000    0.00000000
     atom   44 type  1   force =     0.00000000    0.00000000    0.00000000
     atom   45 type  1   force =     0.00000000    0.00000000    0.00000000
     atom   46 type  1   force =     0.00000000    0.00000000    0.00000000
     atom   47 type  1   force =     0.00000000    0.00000000    0.00000000
     atom   48 type  1   force =     0.00000000    0.00000000    0.00000000
     atom   49 type  1   force =     0.00000000    0.00000000    0.00000000
     atom   50 type  1   force =     0.00000000    0.00000000    0.00000000
     atom   51 type  1   force =     0.00000000    0.00000000    0.00000000
     atom   52 type  1   force =     0.00000000    0.00000000    0.00000000
     atom   53 type  1   force =     0.00000000    0.00000000    0.00000000
     atom   54 type  1   force =     0.00000000    0.00000000    0.00000000
     atom   55 type  1   force =     0.00000000    0.00000000    0.00000000
     atom   56 type  1   force =     0.00000000    0.00000000    0.00000000
     atom   57 type  1   force =     0.00000000    0.00000000    0.00000000
     atom   58 type  1   force =     0.00000000    0.00000000    0.00000000
     atom   59 type  1   force =     0.00000000    0.00000000    0.00000000
     atom   60 type  1   force =     0.00000000    0.00000000    0.00000000
     atom   61 type  1   force =     0.00000000    0.00000000    0.00000000
     atom   62 type  1   force =     0.00000000    0.00000000    0.00000000
     atom   63 type  1   force =     0.00000000    0.00000000    0.00000000
     atom   64 type  1   force =     0.00000000    0.00000000    0.00000000
     The SCF correction term to forces
     atom    1 type  1   force =     0.00000000   -0.00000000    0.00000000
     atom    2 type  1   force =     0.00000000   -0.00000000   -0.00000000
     atom    3 type  1   force =     0.00000000   -0.00000000    0.00000000
     atom    4 type  1   force =    -0.00000000    0.00000000   -0.00000000
     atom    5 type  1   force =     0.00000000   -0.00000000   -0.00000000
     atom    6 type  1   force =    -0.00000000   -0.00000000    0.00000000
     atom    7 type  1   force =    -0.00000000   -0.00000000    0.00000000
     atom    8 type  1   force =    -0.00000000    0.00000000   -0.00000000
     atom    9 type  1   force =     0.00000000   -0.00000000    0.00000000
     atom   10 type  1   force =    -0.00000000   -0.00000000    0.00000000
     atom   11 type  1   force =     0.00000000   -0.00000000    0.00000000
     atom   12 type  1   force =     0.00000000    0.00000000   -0.00000000
     atom   13 type  1   force =     0.00000000    0.00000000    0.00000000
     atom   14 type  1   force =     0.00000000    0.00000000    0.00000000
     atom   15 type  1   force =     0.00000000    0.00000000   -0.00000000
     atom   16 type  1   force =     0.00000000    0.00000000   -0.00000000
     atom   17 type  1   force =     0.00000000   -0.00000000   -0.00000000
     atom   18 type  1   force =     0.00000000    0.00000000    0.00000000
     atom   19 type  1   force =     0.00000000    0.00000000    0.00000000
     atom   20 type  1   force =    -0.00000000    0.00000000   -0.00000000
     atom   21 type  1   force =    -0.00000000    0.00000000   -0.00000000
     atom   22 type  1   force =    -0.00000000    0.00000000   -0.00000000
     atom   23 type  1   force =     0.00000000   -0.00000000   -0.00000000
     atom   24 type  1   force =     0.00000000    0.00000000   -0.00000000
     atom   25 type  1   force =    -0.00000000    0.00000000   -0.00000000
     atom   26 type  1   force =     0.00000000   -0.00000000   -0.00000000
     atom   27 type  1   force =     0.00000000   -0.00000000   -0.00000000
     atom   28 type  1   force =     0.00000000    0.00000000   -0.00000000
     atom   29 type  1   force =     0.00000000    0.00000000    0.00000000
     atom   30 type  1   force =     0.00000000    0.00000000   -0.00000000
     atom   31 type  1   force =     0.00000000    0.00000000    0.00000000
     atom   32 type  1   force =    -0.00000000    0.00000000   -0.00000000
     atom   33 type  1   force =     0.00000000   -0.00000000    0.00000000
     atom   34 type  1   force =     0.00000000    0.00000000    0.00000000
     atom   35 type  1   force =     0.00000000   -0.00000000    0.00000000
     atom   36 type  1   force =    -0.00000000   -0.00000000   -0.00000000
     atom   37 type  1   force =    -0.00000000    0.00000000   -0.00000000
     atom   38 type  1   force =     0.00000000   -0.00000000   -0.00000000
     atom   39 type  1   force =     0.00000000   -0.00000000   -0.00000000
     atom   40 type  1   force =    -0.00000000    0.00000000   -0.00000000
     atom   41 type  1   force =     0.00000000   -0.00000000    0.00000000
     atom   42 type  1   force =     0.00000000   -0.00000000   -0.00000000
     atom   43 type  1   force =     0.00000000   -0.00000000    0.00000000
     atom   44 type  1   force =    -0.00000000    0.00000000   -0.00000000
     atom   45 type  1   force =     0.00000000   -0.00000000    0.00000000
     atom   46 type  1   force =     0.00000000    0.00000000    0.00000000
     atom   47 type  1   force =     0.00000000    0.00000000    0.00000000
     atom   48 type  1   force =    -0.00000000    0.00000000    0.00000000
     atom   49 type  1   force =    -0.00000000   -0.00000000    0.00000000
     atom   50 type  1   force =    -0.00000000   -0.00000000    0.00000000
     atom   51 type  1   force =    -0.00000000   -0.00000000   -0.00000000
     atom   52 type  1   force =    -0.00000000   -0.00000000   -0.00000000
     atom   53 type  1   force =    -0.00000000   -0.00000000    0.00000000
     atom   54 type  1   force =    -0.00000000   -0.00000000   -0.00000000
     atom   55 type  1   force =    -0.00000000   -0.00000000    0.00000000
     atom   56 type  1   force =    -0.00000000    0.00000000   -0.00000000
     atom   57 type  1   force =     0.00000000   -0.00000000    0.00000000
     atom   58 type  1   force =    -0.00000000   -0.00000000    0.00000000
     atom   59 type  1   force =    -0.00000000   -0.00000000    0.00000000
     atom   60 type  1   force =    -0.00000000    0.00000000    0.00000000
     atom   61 type  1   force =     0.00000000   -0.00000000    0.00000000
     atom   62 type  1   force =    -0.00000000    0.00000000    0.00000000
     atom   63 type  1   force =    -0.00000000    0.00000000    0.00000000
     atom   64 type  1   force =     0.00000000    0.00000000   -0.00000000

     Total force =     0.000000     Total SCF correction =     0.000000
     SCF correction compared to forces is large: reduce conv_thr to get better values


     Computing stress (Cartesian axis) and pressure


     negative rho (up, down):  4.432E-02 0.000E+00
          total   stress  (Ry/bohr**3)                   (kbar)     P=       -0.04
  -0.00000027   0.00000000  -0.00000000           -0.04        0.00       -0.00
  -0.00000000  -0.00000027   0.00000000           -0.00       -0.04        0.00
   0.00000000   0.00000000  -0.00000027            0.00        0.00       -0.04

     kinetic stress (kbar)   1464.97      0.00     -0.00
                               -0.00   1464.97      0.00
                               -0.00      0.00   1464.97

     local   stress (kbar)    -46.88     -0.00      0.00
                               -0.00    -46.88     -0.00
                                0.00     -0.00    -46.88

     nonloc. stress (kbar)   1751.54      0.00      0.00
                                0.00   1751.54      0.00
                                0.00      0.00   1751.54

     hartree stress (kbar)      3.63      0.00     -0.00
                                0.00      3.63      0.00
                               -0.00      0.00      3.63

     exc-cor stress (kbar)    -86.34      0.00     -0.00
                                0.00    -86.34      0.00
                               -0.00      0.00    -86.34

     corecor stress (kbar)   -699.36     -0.00      0.00
                               -0.00   -699.36     -0.00
                                0.00     -0.00   -699.36

     ewald   stress (kbar)  -2387.59      0.00      0.00
                                0.00  -2387.59     -0.00
                                0.00     -0.00  -2387.59

     hubbard stress (kbar)      0.00      0.00      0.00
                                0.00      0.00      0.00
                                0.00      0.00      0.00

     DFT-D   stress (kbar)      0.00      0.00      0.00
                                0.00      0.00      0.00
                                0.00      0.00      0.00

     XDM     stress (kbar)      0.00      0.00      0.00
                                0.00      0.00      0.00
                                0.00      0.00      0.00

     dft-nl  stress (kbar)      0.00      0.00      0.00
                                0.00      0.00      0.00
                                0.00      0.00      0.00

     TS-vdW  stress (kbar)      0.00      0.00      0.00
                                0.00      0.00      0.00
                                0.00      0.00      0.00

     MDB     stress (kbar)      0.00      0.00      0.00
                                0.00      0.00      0.00
                                0.00      0.00      0.00

     3D-RISM stress (kbar)      0.00      0.00      0.00
                                0.00      0.00      0.00
                                0.00      0.00      0.00


     Writing all to output data dir ./tmp/al.save/ :
     XML data file, charge density, pseudopotentials, collected wavefunctions
 
     init_run     :     25.70s CPU     28.40s WALL (       1 calls)
     electrons    :    518.59s CPU    525.58s WALL (       1 calls)
     forces       :      3.55s CPU      3.60s WALL (       1 calls)
     stress       :     11.84s CPU     11.85s WALL (       1 calls)

     Called by init_run:
     wfcinit      :     24.72s CPU     27.23s WALL (       1 calls)
     wfcinit:atom :      0.12s CPU      0.31s WALL (      16 calls)
     wfcinit:wfcr :     23.56s CPU     25.77s WALL (      16 calls)
     potinit      :      0.76s CPU      0.90s WALL (       1 calls)
     hinit0       :      0.05s CPU      0.06s WALL (       1 calls)

     Called by electrons:
     c_bands      :    430.59s CPU    436.45s WALL (      26 calls)
     sum_band     :     67.27s CPU     68.36s WALL (      26 calls)
     v_of_rho     :      1.17s CPU      1.19s WALL (      26 calls)
     v_h          :      0.07s CPU      0.08s WALL (      26 calls)
     v_xc         :      1.17s CPU      1.19s WALL (      28 calls)
     newd         :      1.07s CPU      1.10s WALL (      26 calls)
     PAW_pot      :     18.93s CPU     19.06s WALL (      26 calls)
     mix_rho      :      0.30s CPU      0.30s WALL (      26 calls)

     Called by c_bands:
     init_us_2    :     15.06s CPU     15.08s WALL (     880 calls)
     cegterg      :    404.92s CPU    410.76s WALL (     416 calls)

     Called by sum_band:
     sum_band:wei :      0.07s CPU      0.07s WALL (      26 calls)
     sum_band:loo :     65.83s CPU     66.90s WALL (      26 calls)
     sum_band:buf :      1.02s CPU      1.03s WALL (     416 calls)
     sum_band:ini :      7.06s CPU      7.06s WALL (     416 calls)
     sum_band:cal :     17.92s CPU     17.94s WALL (     416 calls)
     sum_band:bec :      0.19s CPU      0.19s WALL (     416 calls)
     addusdens    :      1.12s CPU      1.12s WALL (      26 calls)
                                        0.00s GPU  (      26 calls)
     addusd:skk   :      0.26s CPU      0.26s WALL (      26 calls)
                                        0.00s GPU  (      26 calls)

     Called by *egterg:
     cdiaghg      :     20.77s CPU     20.79s WALL (    1501 calls)
     cegterg:over :     27.78s CPU     27.83s WALL (    1101 calls)
     cegterg:upda :     15.72s CPU     15.74s WALL (    1101 calls)
     cegterg:last :     27.20s CPU     27.20s WALL (     751 calls)
     h_psi        :    265.21s CPU    273.03s WALL (    1533 calls)
     s_psi        :     46.29s CPU     46.30s WALL (    1533 calls)
     g_psi        :      0.95s CPU      0.95s WALL (    1101 calls)

     Called by h_psi:
     h_psi:calbec :     47.83s CPU     47.93s WALL (    1533 calls)
     vloc_psi     :    168.22s CPU    175.72s WALL (    1533 calls)
     add_vuspsi   :     46.99s CPU     47.03s WALL (    1533 calls)

     General routines
     calbec       :     76.42s CPU     76.56s WALL (    2221 calls)
     fft          :      0.43s CPU      0.47s WALL (     312 calls)
     ffts         :      0.04s CPU      0.04s WALL (      26 calls)
     fftw         :    163.38s CPU    170.85s WALL (  295178 calls)
 
     Parallel routines

     PAW routines
     PAW_pot      :     18.93s CPU     19.06s WALL (      26 calls)
     PAW_symme    :      0.02s CPU      0.02s WALL (      52 calls)
 
     PWSCF        :   9m20.38s CPU   9m30.94s WALL

 
   This run was terminated on:   0: 8:49  16Jun2026            

=------------------------------------------------------------------------------=
   JOB DONE.
=------------------------------------------------------------------------------=
