
     Program PWSCF v.7.4 starts on 16Jun2026 at 10:17:53 

     This program is part of the open-source Quantum ESPRESSO suite
     for quantum simulation of materials; please cite
         "P. Giannozzi et al., J. Phys.:Condens. Matter 21 395502 (2009);
         "P. Giannozzi et al., J. Phys.:Condens. Matter 29 465901 (2017);
         "P. Giannozzi et al., J. Chem. Phys. 152 154105 (2020);
          URL http://www.quantum-espresso.org", 
     in publications or presentations arising from this work. More details at
     http://www.quantum-espresso.org/quote

     Parallel version (MPI), running on    12 processors

     MPI processes distributed on     1 nodes
     100835 MiB available memory on the printing compute node when the environment starts
 
     Reading input from al_sup.scf.in

     Current dimensions of program PWSCF are:
     Max number of different atomic species (ntypx) = 10
     Max number of k-points (npk) =  40000
     Max angular momentum in pseudopotentials (lmaxx) =  4
read_pp_mesh; mismatch in mesh size, discarding the one in header
     Found identity + (  0.0000  0.0000  0.3333) symmetry
     This is a supercell, fractional translations are disabled
     Message from routine setup:
     using ibrav=0 with symmetry is DISCOURAGED, use correct ibrav instead
 
     R & G space division:  proc/nbgrp/npool/nimage =      12
     Subspace diagonalization in iterative solution of the eigenvalue problem:
     a serial algorithm will be used

 
     Parallelization info
     --------------------
     sticks:   dense  smooth     PW     G-vecs:    dense   smooth      PW
     Min         301     301     83                11944    11944    1711
     Max         302     302     84                11947    11947    1712
     Sum        3619    3619   1003               143351   143351   20539
 
     Using Slab Decomposition
 


     bravais-lattice index     =            0
     lattice parameter (alat)  =      16.1864  a.u.
     unit-cell volume          =    2998.7122 (a.u.)^3
     number of atoms/cell      =           27
     number of atomic types    =            1
     number of electrons       =        81.00
     number of Kohn-Sham states=           49
     kinetic-energy cutoff     =      50.0000  Ry
     charge density cutoff     =     200.0000  Ry
     scf convergence threshold =      1.0E-15
     mixing beta               =       0.7000
     number of iterations used =            8  plain     mixing
     Exchange-correlation= SLA PW PBX PBC
                           (   1   4   3   4   0   0   0)

     celldm(1)=  16.186387  celldm(2)=   0.000000  celldm(3)=   0.000000
     celldm(4)=   0.000000  celldm(5)=   0.000000  celldm(6)=   0.000000

     crystal axes: (cart. coord. in units of alat)
               a(1) = (  -0.707107   0.000000   0.707107 )  
               a(2) = (   0.000000   0.707107   0.707107 )  
               a(3) = (  -0.707107   0.707107   0.000000 )  

     reciprocal axes: (cart. coord. in units 2 pi/alat)
               b(1) = ( -0.707107 -0.707107  0.707107 )  
               b(2) = (  0.707107  0.707107  0.707107 )  
               b(3) = ( -0.707107  0.707107 -0.707107 )  


     PseudoPot. # 1 for Al read from file:
     ../../../pseudopotentzialak/Al.upf
     MD5 check sum: fd3ab6bbf4b2322b308692f0f9c61a66
     Pseudo is Projector augmented-wave + core cor, Zval =  3.0
     Generated using ATOMPAW code
     Shape of augmentation charge: SINC**2
     Using radial grid of 2342 points,  4 beta functions with: 
                l(1) =   0
                l(2) =   0
                l(3) =   1
                l(4) =   1
     Q(r) pseudized with 0 coefficients 


     atomic species   valence    mass     pseudopotential
     Al                3.00    26.98150     Al( 1.00)

     48 Sym. Ops., with inversion, found


                                    s                        frac. trans.

      isym =  1     identity                                     

 cryst.   s( 1) = (     1          0          0      )
                  (     0          1          0      )
                  (     0          0          1      )

 cart.    s( 1) = (  1.0000000  0.0000000  0.0000000 )
                  (  0.0000000  1.0000000  0.0000000 )
                  (  0.0000000  0.0000000  1.0000000 )


      isym =  2     180 deg rotation - cart. axis [0,0,1]        

 cryst.   s( 2) = (     0          1         -1      )
                  (     1          0         -1      )
                  (     0          0         -1      )

 cart.    s( 2) = ( -1.0000000  0.0000000  0.0000000 )
                  (  0.0000000 -1.0000000  0.0000000 )
                  (  0.0000000  0.0000000  1.0000000 )


      isym =  3     180 deg rotation - cart. axis [0,1,0]        

 cryst.   s( 3) = (    -1          0          0      )
                  (    -1          0          1      )
                  (    -1          1          0      )

 cart.    s( 3) = ( -1.0000000  0.0000000  0.0000000 )
                  (  0.0000000  1.0000000  0.0000000 )
                  (  0.0000000  0.0000000 -1.0000000 )


      isym =  4     180 deg rotation - cart. axis [1,0,0]        

 cryst.   s( 4) = (     0         -1          1      )
                  (     0         -1          0      )
                  (     1         -1          0      )

 cart.    s( 4) = (  1.0000000  0.0000000  0.0000000 )
                  (  0.0000000 -1.0000000  0.0000000 )
                  (  0.0000000  0.0000000 -1.0000000 )


      isym =  5     180 deg rotation - cart. axis [1,1,0]        

 cryst.   s( 5) = (     0         -1          0      )
                  (    -1          0          0      )
                  (     0          0         -1      )

 cart.    s( 5) = (  0.0000000  1.0000000  0.0000000 )
                  (  1.0000000  0.0000000  0.0000000 )
                  (  0.0000000  0.0000000 -1.0000000 )


      isym =  6     180 deg rotation - cart. axis [1,-1,0]       

 cryst.   s( 6) = (    -1          0          1      )
                  (     0         -1          1      )
                  (     0          0          1      )

 cart.    s( 6) = (  0.0000000 -1.0000000  0.0000000 )
                  ( -1.0000000  0.0000000  0.0000000 )
                  (  0.0000000  0.0000000 -1.0000000 )


      isym =  7      90 deg rotation - cart. axis [0,0,-1]       

 cryst.   s( 7) = (     0          1          0      )
                  (     0          1         -1      )
                  (    -1          1          0      )

 cart.    s( 7) = (  0.0000000  1.0000000  0.0000000 )
                  ( -1.0000000  0.0000000  0.0000000 )
                  (  0.0000000  0.0000000  1.0000000 )


      isym =  8      90 deg rotation - cart. axis [0,0,1]        

 cryst.   s( 8) = (     1          0         -1      )
                  (     1          0          0      )
                  (     1         -1          0      )

 cart.    s( 8) = (  0.0000000 -1.0000000  0.0000000 )
                  (  1.0000000  0.0000000  0.0000000 )
                  (  0.0000000  0.0000000  1.0000000 )


      isym =  9     180 deg rotation - cart. axis [1,0,1]        

 cryst.   s( 9) = (    -1          0          0      )
                  (     0          0         -1      )
                  (     0         -1          0      )

 cart.    s( 9) = (  0.0000000  0.0000000  1.0000000 )
                  (  0.0000000 -1.0000000  0.0000000 )
                  (  1.0000000  0.0000000  0.0000000 )


      isym = 10     180 deg rotation - cart. axis [-1,0,1]       

 cryst.   s(10) = (     1          0          0      )
                  (     1         -1          0      )
                  (     1          0         -1      )

 cart.    s(10) = (  0.0000000  0.0000000 -1.0000000 )
                  (  0.0000000 -1.0000000  0.0000000 )
                  ( -1.0000000  0.0000000  0.0000000 )


      isym = 11      90 deg rotation - cart. axis [0,1,0]        

 cryst.   s(11) = (     0          1         -1      )
                  (    -1          1          0      )
                  (     0          1          0      )

 cart.    s(11) = (  0.0000000  0.0000000  1.0000000 )
                  (  0.0000000  1.0000000  0.0000000 )
                  ( -1.0000000  0.0000000  0.0000000 )


      isym = 12      90 deg rotation - cart. axis [0,-1,0]       

 cryst.   s(12) = (     0         -1          1      )
                  (     0          0          1      )
                  (    -1          0          1      )

 cart.    s(12) = (  0.0000000  0.0000000 -1.0000000 )
                  (  0.0000000  1.0000000  0.0000000 )
                  (  1.0000000  0.0000000  0.0000000 )


      isym = 13     180 deg rotation - cart. axis [0,1,1]        

 cryst.   s(13) = (    -1          1          0      )
                  (     0          1          0      )
                  (     0          1         -1      )

 cart.    s(13) = ( -1.0000000  0.0000000  0.0000000 )
                  (  0.0000000  0.0000000  1.0000000 )
                  (  0.0000000  1.0000000  0.0000000 )


      isym = 14     180 deg rotation - cart. axis [0,1,-1]       

 cryst.   s(14) = (     0          0         -1      )
                  (     0         -1          0      )
                  (    -1          0          0      )

 cart.    s(14) = ( -1.0000000  0.0000000  0.0000000 )
                  (  0.0000000  0.0000000 -1.0000000 )
                  (  0.0000000 -1.0000000  0.0000000 )


      isym = 15      90 deg rotation - cart. axis [-1,0,0]       

 cryst.   s(15) = (     0          0          1      )
                  (    -1          0          1      )
                  (     0         -1          1      )

 cart.    s(15) = (  1.0000000  0.0000000  0.0000000 )
                  (  0.0000000  0.0000000  1.0000000 )
                  (  0.0000000 -1.0000000  0.0000000 )


      isym = 16      90 deg rotation - cart. axis [1,0,0]        

 cryst.   s(16) = (     1         -1          0      )
                  (     1          0         -1      )
                  (     1          0          0      )

 cart.    s(16) = (  1.0000000  0.0000000  0.0000000 )
                  (  0.0000000  0.0000000 -1.0000000 )
                  (  0.0000000  1.0000000  0.0000000 )


      isym = 17     120 deg rotation - cart. axis [-1,-1,-1]     

 cryst.   s(17) = (    -1          0          1      )
                  (    -1          1          0      )
                  (    -1          0          0      )

 cart.    s(17) = (  0.0000000  1.0000000  0.0000000 )
                  (  0.0000000  0.0000000  1.0000000 )
                  (  1.0000000  0.0000000  0.0000000 )


      isym = 18     120 deg rotation - cart. axis [-1,1,1]       

 cryst.   s(18) = (     0          1          0      )
                  (     0          0          1      )
                  (     1          0          0      )

 cart.    s(18) = (  0.0000000 -1.0000000  0.0000000 )
                  (  0.0000000  0.0000000  1.0000000 )
                  ( -1.0000000  0.0000000  0.0000000 )


      isym = 19     120 deg rotation - cart. axis [1,1,-1]       

 cryst.   s(19) = (     1          0         -1      )
                  (     0          0         -1      )
                  (     0          1         -1      )

 cart.    s(19) = (  0.0000000  1.0000000  0.0000000 )
                  (  0.0000000  0.0000000 -1.0000000 )
                  ( -1.0000000  0.0000000  0.0000000 )


      isym = 20     120 deg rotation - cart. axis [1,-1,1]       

 cryst.   s(20) = (     0         -1          0      )
                  (     1         -1          0      )
                  (     0         -1          1      )

 cart.    s(20) = (  0.0000000 -1.0000000  0.0000000 )
                  (  0.0000000  0.0000000 -1.0000000 )
                  (  1.0000000  0.0000000  0.0000000 )


      isym = 21     120 deg rotation - cart. axis [1,1,1]        

 cryst.   s(21) = (     0          0         -1      )
                  (     0          1         -1      )
                  (     1          0         -1      )

 cart.    s(21) = (  0.0000000  0.0000000  1.0000000 )
                  (  1.0000000  0.0000000  0.0000000 )
                  (  0.0000000  1.0000000  0.0000000 )


      isym = 22     120 deg rotation - cart. axis [-1,1,-1]      

 cryst.   s(22) = (    -1          1          0      )
                  (    -1          0          0      )
                  (    -1          0          1      )

 cart.    s(22) = (  0.0000000  0.0000000  1.0000000 )
                  ( -1.0000000  0.0000000  0.0000000 )
                  (  0.0000000 -1.0000000  0.0000000 )


      isym = 23     120 deg rotation - cart. axis [1,-1,-1]      

 cryst.   s(23) = (     0          0          1      )
                  (     1          0          0      )
                  (     0          1          0      )

 cart.    s(23) = (  0.0000000  0.0000000 -1.0000000 )
                  ( -1.0000000  0.0000000  0.0000000 )
                  (  0.0000000  1.0000000  0.0000000 )


      isym = 24     120 deg rotation - cart. axis [-1,-1,1]      

 cryst.   s(24) = (     1         -1          0      )
                  (     0         -1          1      )
                  (     0         -1          0      )

 cart.    s(24) = (  0.0000000  0.0000000 -1.0000000 )
                  (  1.0000000  0.0000000  0.0000000 )
                  (  0.0000000 -1.0000000  0.0000000 )


      isym = 25     inversion                                    

 cryst.   s(25) = (    -1          0          0      )
                  (     0         -1          0      )
                  (     0          0         -1      )

 cart.    s(25) = ( -1.0000000  0.0000000  0.0000000 )
                  (  0.0000000 -1.0000000  0.0000000 )
                  (  0.0000000  0.0000000 -1.0000000 )


      isym = 26     inv. 180 deg rotation - cart. axis [0,0,1]   

 cryst.   s(26) = (     0         -1          1      )
                  (    -1          0          1      )
                  (     0          0          1      )

 cart.    s(26) = (  1.0000000  0.0000000  0.0000000 )
                  (  0.0000000  1.0000000  0.0000000 )
                  (  0.0000000  0.0000000 -1.0000000 )


      isym = 27     inv. 180 deg rotation - cart. axis [0,1,0]   

 cryst.   s(27) = (     1          0          0      )
                  (     1          0         -1      )
                  (     1         -1          0      )

 cart.    s(27) = (  1.0000000  0.0000000  0.0000000 )
                  (  0.0000000 -1.0000000  0.0000000 )
                  (  0.0000000  0.0000000  1.0000000 )


      isym = 28     inv. 180 deg rotation - cart. axis [1,0,0]   

 cryst.   s(28) = (     0          1         -1      )
                  (     0          1          0      )
                  (    -1          1          0      )

 cart.    s(28) = ( -1.0000000  0.0000000  0.0000000 )
                  (  0.0000000  1.0000000  0.0000000 )
                  (  0.0000000  0.0000000  1.0000000 )


      isym = 29     inv. 180 deg rotation - cart. axis [1,1,0]   

 cryst.   s(29) = (     0          1          0      )
                  (     1          0          0      )
                  (     0          0          1      )

 cart.    s(29) = (  0.0000000 -1.0000000  0.0000000 )
                  ( -1.0000000  0.0000000  0.0000000 )
                  (  0.0000000  0.0000000  1.0000000 )


      isym = 30     inv. 180 deg rotation - cart. axis [1,-1,0]  

 cryst.   s(30) = (     1          0         -1      )
                  (     0          1         -1      )
                  (     0          0         -1      )

 cart.    s(30) = (  0.0000000  1.0000000  0.0000000 )
                  (  1.0000000  0.0000000  0.0000000 )
                  (  0.0000000  0.0000000  1.0000000 )


      isym = 31     inv.  90 deg rotation - cart. axis [0,0,-1]  

 cryst.   s(31) = (     0         -1          0      )
                  (     0         -1          1      )
                  (     1         -1          0      )

 cart.    s(31) = (  0.0000000 -1.0000000  0.0000000 )
                  (  1.0000000  0.0000000  0.0000000 )
                  (  0.0000000  0.0000000 -1.0000000 )


      isym = 32     inv.  90 deg rotation - cart. axis [0,0,1]   

 cryst.   s(32) = (    -1          0          1      )
                  (    -1          0          0      )
                  (    -1          1          0      )

 cart.    s(32) = (  0.0000000  1.0000000  0.0000000 )
                  ( -1.0000000  0.0000000  0.0000000 )
                  (  0.0000000  0.0000000 -1.0000000 )


      isym = 33     inv. 180 deg rotation - cart. axis [1,0,1]   

 cryst.   s(33) = (     1          0          0      )
                  (     0          0          1      )
                  (     0          1          0      )

 cart.    s(33) = (  0.0000000  0.0000000 -1.0000000 )
                  (  0.0000000  1.0000000  0.0000000 )
                  ( -1.0000000  0.0000000  0.0000000 )


      isym = 34     inv. 180 deg rotation - cart. axis [-1,0,1]  

 cryst.   s(34) = (    -1          0          0      )
                  (    -1          1          0      )
                  (    -1          0          1      )

 cart.    s(34) = (  0.0000000  0.0000000  1.0000000 )
                  (  0.0000000  1.0000000  0.0000000 )
                  (  1.0000000  0.0000000  0.0000000 )


      isym = 35     inv.  90 deg rotation - cart. axis [0,1,0]   

 cryst.   s(35) = (     0         -1          1      )
                  (     1         -1          0      )
                  (     0         -1          0      )

 cart.    s(35) = (  0.0000000  0.0000000 -1.0000000 )
                  (  0.0000000 -1.0000000  0.0000000 )
                  (  1.0000000  0.0000000  0.0000000 )


      isym = 36     inv.  90 deg rotation - cart. axis [0,-1,0]  

 cryst.   s(36) = (     0          1         -1      )
                  (     0          0         -1      )
                  (     1          0         -1      )

 cart.    s(36) = (  0.0000000  0.0000000  1.0000000 )
                  (  0.0000000 -1.0000000  0.0000000 )
                  ( -1.0000000  0.0000000  0.0000000 )


      isym = 37     inv. 180 deg rotation - cart. axis [0,1,1]   

 cryst.   s(37) = (     1         -1          0      )
                  (     0         -1          0      )
                  (     0         -1          1      )

 cart.    s(37) = (  1.0000000  0.0000000  0.0000000 )
                  (  0.0000000  0.0000000 -1.0000000 )
                  (  0.0000000 -1.0000000  0.0000000 )


      isym = 38     inv. 180 deg rotation - cart. axis [0,1,-1]  

 cryst.   s(38) = (     0          0          1      )
                  (     0          1          0      )
                  (     1          0          0      )

 cart.    s(38) = (  1.0000000  0.0000000  0.0000000 )
                  (  0.0000000  0.0000000  1.0000000 )
                  (  0.0000000  1.0000000  0.0000000 )


      isym = 39     inv.  90 deg rotation - cart. axis [-1,0,0]  

 cryst.   s(39) = (     0          0         -1      )
                  (     1          0         -1      )
                  (     0          1         -1      )

 cart.    s(39) = ( -1.0000000  0.0000000  0.0000000 )
                  (  0.0000000  0.0000000 -1.0000000 )
                  (  0.0000000  1.0000000  0.0000000 )


      isym = 40     inv.  90 deg rotation - cart. axis [1,0,0]   

 cryst.   s(40) = (    -1          1          0      )
                  (    -1          0          1      )
                  (    -1          0          0      )

 cart.    s(40) = ( -1.0000000  0.0000000  0.0000000 )
                  (  0.0000000  0.0000000  1.0000000 )
                  (  0.0000000 -1.0000000  0.0000000 )


      isym = 41     inv. 120 deg rotation - cart. axis [-1,-1,-1]

 cryst.   s(41) = (     1          0         -1      )
                  (     1         -1          0      )
                  (     1          0          0      )

 cart.    s(41) = (  0.0000000 -1.0000000  0.0000000 )
                  (  0.0000000  0.0000000 -1.0000000 )
                  ( -1.0000000  0.0000000  0.0000000 )


      isym = 42     inv. 120 deg rotation - cart. axis [-1,1,1]  

 cryst.   s(42) = (     0         -1          0      )
                  (     0          0         -1      )
                  (    -1          0          0      )

 cart.    s(42) = (  0.0000000  1.0000000  0.0000000 )
                  (  0.0000000  0.0000000 -1.0000000 )
                  (  1.0000000  0.0000000  0.0000000 )


      isym = 43     inv. 120 deg rotation - cart. axis [1,1,-1]  

 cryst.   s(43) = (    -1          0          1      )
                  (     0          0          1      )
                  (     0         -1          1      )

 cart.    s(43) = (  0.0000000 -1.0000000  0.0000000 )
                  (  0.0000000  0.0000000  1.0000000 )
                  (  1.0000000  0.0000000  0.0000000 )


      isym = 44     inv. 120 deg rotation - cart. axis [1,-1,1]  

 cryst.   s(44) = (     0          1          0      )
                  (    -1          1          0      )
                  (     0          1         -1      )

 cart.    s(44) = (  0.0000000  1.0000000  0.0000000 )
                  (  0.0000000  0.0000000  1.0000000 )
                  ( -1.0000000  0.0000000  0.0000000 )


      isym = 45     inv. 120 deg rotation - cart. axis [1,1,1]   

 cryst.   s(45) = (     0          0          1      )
                  (     0         -1          1      )
                  (    -1          0          1      )

 cart.    s(45) = (  0.0000000  0.0000000 -1.0000000 )
                  ( -1.0000000  0.0000000  0.0000000 )
                  (  0.0000000 -1.0000000  0.0000000 )


      isym = 46     inv. 120 deg rotation - cart. axis [-1,1,-1] 

 cryst.   s(46) = (     1         -1          0      )
                  (     1          0          0      )
                  (     1          0         -1      )

 cart.    s(46) = (  0.0000000  0.0000000 -1.0000000 )
                  (  1.0000000  0.0000000  0.0000000 )
                  (  0.0000000  1.0000000  0.0000000 )


      isym = 47     inv. 120 deg rotation - cart. axis [1,-1,-1] 

 cryst.   s(47) = (     0          0         -1      )
                  (    -1          0          0      )
                  (     0         -1          0      )

 cart.    s(47) = (  0.0000000  0.0000000  1.0000000 )
                  (  1.0000000  0.0000000  0.0000000 )
                  (  0.0000000 -1.0000000  0.0000000 )


      isym = 48     inv. 120 deg rotation - cart. axis [-1,-1,1] 

 cryst.   s(48) = (    -1          1          0      )
                  (     0          1         -1      )
                  (     0          1          0      )

 cart.    s(48) = (  0.0000000  0.0000000  1.0000000 )
                  ( -1.0000000  0.0000000  0.0000000 )
                  (  0.0000000  1.0000000  0.0000000 )


   Cartesian axes

     site n.     atom                  positions (alat units)
         1        Al     tau(   1) = (   0.0000000   0.0000000   0.0000000  )
         2        Al     tau(   2) = (  -0.2357020   0.2357020   0.0000000  )
         3        Al     tau(   3) = (  -0.4714048   0.4714048   0.0000000  )
         4        Al     tau(   4) = (   0.0000000   0.2357020   0.2357020  )
         5        Al     tau(   5) = (  -0.2357020   0.4714040   0.2357020  )
         6        Al     tau(   6) = (  -0.4714048   0.7071068   0.2357020  )
         7        Al     tau(   7) = (   0.0000000   0.4714048   0.4714048  )
         8        Al     tau(   8) = (  -0.2357020   0.7071068   0.4714048  )
         9        Al     tau(   9) = (  -0.4714048   0.9428095   0.4714048  )
        10        Al     tau(  10) = (  -0.2357020   0.0000000   0.2357020  )
        11        Al     tau(  11) = (  -0.4714040   0.2357020   0.2357020  )
        12        Al     tau(  12) = (  -0.7071068   0.4714048   0.2357020  )
        13        Al     tau(  13) = (  -0.2357020   0.2357020   0.4714040  )
        14        Al     tau(  14) = (  -0.4714040   0.4714040   0.4714040  )
        15        Al     tau(  15) = (  -0.7071068   0.7071068   0.4714040  )
        16        Al     tau(  16) = (  -0.2357020   0.4714048   0.7071068  )
        17        Al     tau(  17) = (  -0.4714040   0.7071068   0.7071068  )
        18        Al     tau(  18) = (  -0.7071068   0.9428095   0.7071068  )
        19        Al     tau(  19) = (  -0.4714048   0.0000000   0.4714048  )
        20        Al     tau(  20) = (  -0.7071068   0.2357020   0.4714048  )
        21        Al     tau(  21) = (  -0.9428095   0.4714048   0.4714048  )
        22        Al     tau(  22) = (  -0.4714048   0.2357020   0.7071068  )
        23        Al     tau(  23) = (  -0.7071068   0.4714040   0.7071068  )
        24        Al     tau(  24) = (  -0.9428095   0.7071068   0.7071068  )
        25        Al     tau(  25) = (  -0.4714048   0.4714048   0.9428095  )
        26        Al     tau(  26) = (  -0.7071068   0.7071068   0.9428095  )
        27        Al     tau(  27) = (  -0.9428095   0.9428095   0.9428095  )

   Crystallographic axes

     site n.     atom                  positions (cryst. coord.)
         1        Al     tau(   1) = (  0.0000000  0.0000000  0.0000000  )
         2        Al     tau(   2) = (  0.0000000  0.0000000  0.3333330  )
         3        Al     tau(   3) = (  0.0000000  0.0000000  0.6666670  )
         4        Al     tau(   4) = (  0.0000000  0.3333330  0.0000000  )
         5        Al     tau(   5) = (  0.0000000  0.3333330  0.3333330  )
         6        Al     tau(   6) = (  0.0000000  0.3333330  0.6666670  )
         7        Al     tau(   7) = (  0.0000000  0.6666670  0.0000000  )
         8        Al     tau(   8) = (  0.0000000  0.6666670  0.3333330  )
         9        Al     tau(   9) = (  0.0000000  0.6666670  0.6666670  )
        10        Al     tau(  10) = (  0.3333330  0.0000000  0.0000000  )
        11        Al     tau(  11) = (  0.3333330  0.0000000  0.3333330  )
        12        Al     tau(  12) = (  0.3333330  0.0000000  0.6666670  )
        13        Al     tau(  13) = (  0.3333330  0.3333330  0.0000000  )
        14        Al     tau(  14) = (  0.3333330  0.3333330  0.3333330  )
        15        Al     tau(  15) = (  0.3333330  0.3333330  0.6666670  )
        16        Al     tau(  16) = (  0.3333330  0.6666670  0.0000000  )
        17        Al     tau(  17) = (  0.3333330  0.6666670  0.3333330  )
        18        Al     tau(  18) = (  0.3333330  0.6666670  0.6666670  )
        19        Al     tau(  19) = (  0.6666670  0.0000000  0.0000000  )
        20        Al     tau(  20) = (  0.6666670  0.0000000  0.3333330  )
        21        Al     tau(  21) = (  0.6666670  0.0000000  0.6666670  )
        22        Al     tau(  22) = (  0.6666670  0.3333330  0.0000000  )
        23        Al     tau(  23) = (  0.6666670  0.3333330  0.3333330  )
        24        Al     tau(  24) = (  0.6666670  0.3333330  0.6666670  )
        25        Al     tau(  25) = (  0.6666670  0.6666670  0.0000000  )
        26        Al     tau(  26) = (  0.6666670  0.6666670  0.3333330  )
        27        Al     tau(  27) = (  0.6666670  0.6666670  0.6666670  )

     number of k points=    29  Methfessel-Paxton smearing, width (Ry)=  0.0200
                       cart. coord. in units 2pi/alat
        k(    1) = (   0.0000000   0.0000000   0.0000000), wk =   0.0039062
        k(    2) = (  -0.0883883   0.0883883  -0.0883883), wk =   0.0312500
        k(    3) = (  -0.1767767   0.1767767  -0.1767767), wk =   0.0312500
        k(    4) = (  -0.2651650   0.2651650  -0.2651650), wk =   0.0312500
        k(    5) = (   0.3535534  -0.3535534   0.3535534), wk =   0.0156250
        k(    6) = (   0.0000000   0.1767767   0.0000000), wk =   0.0234375
        k(    7) = (  -0.0883883   0.2651650  -0.0883883), wk =   0.0937500
        k(    8) = (  -0.1767767   0.3535534  -0.1767767), wk =   0.0937500
        k(    9) = (   0.4419417  -0.2651650   0.4419417), wk =   0.0937500
        k(   10) = (   0.3535534  -0.1767767   0.3535534), wk =   0.0937500
        k(   11) = (   0.2651650  -0.0883883   0.2651650), wk =   0.0937500
        k(   12) = (   0.1767767   0.0000000   0.1767767), wk =   0.0468750
        k(   13) = (   0.0000000   0.3535534   0.0000000), wk =   0.0234375
        k(   14) = (  -0.0883883   0.4419417  -0.0883883), wk =   0.0937500
        k(   15) = (   0.5303301  -0.1767767   0.5303301), wk =   0.0937500
        k(   16) = (   0.4419417  -0.0883883   0.4419417), wk =   0.0937500
        k(   17) = (   0.3535534   0.0000000   0.3535534), wk =   0.0468750
        k(   18) = (   0.0000000   0.5303301   0.0000000), wk =   0.0234375
        k(   19) = (   0.6187184  -0.0883883   0.6187184), wk =   0.0937500
        k(   20) = (   0.5303301   0.0000000   0.5303301), wk =   0.0468750
        k(   21) = (   0.0000000  -0.7071068   0.0000000), wk =   0.0117188
        k(   22) = (  -0.1767767   0.3535534   0.0000000), wk =   0.0937500
        k(   23) = (   0.4419417  -0.2651650   0.6187184), wk =   0.1875000
        k(   24) = (   0.3535534  -0.1767767   0.5303301), wk =   0.0937500
        k(   25) = (   0.5303301  -0.1767767   0.7071068), wk =   0.0937500
        k(   26) = (   0.4419417  -0.0883883   0.6187184), wk =   0.1875000
        k(   27) = (   0.3535534   0.0000000   0.5303301), wk =   0.0937500
        k(   28) = (  -0.1767767  -0.7071068   0.0000000), wk =   0.0468750
        k(   29) = (  -0.3535534  -0.7071068   0.0000000), wk =   0.0234375

                       cryst. coord.
        k(    1) = (   0.0000000   0.0000000   0.0000000), wk =   0.0039062
        k(    2) = (   0.0000000   0.0000000   0.1250000), wk =   0.0312500
        k(    3) = (   0.0000000   0.0000000   0.2500000), wk =   0.0312500
        k(    4) = (   0.0000000   0.0000000   0.3750000), wk =   0.0312500
        k(    5) = (   0.0000000   0.0000000  -0.5000000), wk =   0.0156250
        k(    6) = (   0.0000000   0.1250000   0.1250000), wk =   0.0234375
        k(    7) = (   0.0000000   0.1250000   0.2500000), wk =   0.0937500
        k(    8) = (   0.0000000   0.1250000   0.3750000), wk =   0.0937500
        k(    9) = (   0.0000000   0.1250000  -0.5000000), wk =   0.0937500
        k(   10) = (   0.0000000   0.1250000  -0.3750000), wk =   0.0937500
        k(   11) = (   0.0000000   0.1250000  -0.2500000), wk =   0.0937500
        k(   12) = (   0.0000000   0.1250000  -0.1250000), wk =   0.0468750
        k(   13) = (   0.0000000   0.2500000   0.2500000), wk =   0.0234375
        k(   14) = (   0.0000000   0.2500000   0.3750000), wk =   0.0937500
        k(   15) = (   0.0000000   0.2500000  -0.5000000), wk =   0.0937500
        k(   16) = (   0.0000000   0.2500000  -0.3750000), wk =   0.0937500
        k(   17) = (   0.0000000   0.2500000  -0.2500000), wk =   0.0468750
        k(   18) = (   0.0000000   0.3750000   0.3750000), wk =   0.0234375
        k(   19) = (   0.0000000   0.3750000  -0.5000000), wk =   0.0937500
        k(   20) = (   0.0000000   0.3750000  -0.3750000), wk =   0.0468750
        k(   21) = (   0.0000000  -0.5000000  -0.5000000), wk =   0.0117188
        k(   22) = (   0.1250000   0.2500000   0.3750000), wk =   0.0937500
        k(   23) = (   0.1250000   0.2500000  -0.5000000), wk =   0.1875000
        k(   24) = (   0.1250000   0.2500000  -0.3750000), wk =   0.0937500
        k(   25) = (   0.1250000   0.3750000  -0.5000000), wk =   0.0937500
        k(   26) = (   0.1250000   0.3750000  -0.3750000), wk =   0.1875000
        k(   27) = (   0.1250000   0.3750000  -0.2500000), wk =   0.0937500
        k(   28) = (   0.1250000  -0.5000000  -0.3750000), wk =   0.0468750
        k(   29) = (   0.2500000  -0.5000000  -0.2500000), wk =   0.0234375

     Dense  grid:   143351 G-vectors     FFT dimensions: (  75,  75,  75)

     Dynamical RAM for                 wfc:       1.12 MB

     Dynamical RAM for     wfc (w. buffer):      33.47 MB

     Dynamical RAM for           str. fact:       0.18 MB

     Dynamical RAM for           local pot:       0.00 MB

     Dynamical RAM for          nlocal pot:       4.92 MB

     Dynamical RAM for                qrad:       0.32 MB

     Dynamical RAM for          rho,v,vnew:       1.45 MB

     Dynamical RAM for               rhoin:       0.48 MB

     Dynamical RAM for            rho*nmix:       2.92 MB

     Dynamical RAM for           G-vectors:       0.77 MB

     Dynamical RAM for          h,s,v(r/c):       0.44 MB

     Dynamical RAM for          <psi|beta>:       0.16 MB

     Dynamical RAM for                 psi:       2.23 MB

     Dynamical RAM for                hpsi:       2.23 MB

     Dynamical RAM for                spsi:       2.23 MB

     Dynamical RAM for      wfcinit/wfcrot:       2.29 MB

     Dynamical RAM for           addusdens:      12.76 MB

     Dynamical RAM for          addusforce:      22.35 MB

     Dynamical RAM for         addusstress:       9.11 MB

     Estimated static dynamical RAM per process >      43.46 MB

     Estimated max dynamical RAM per process >      68.73 MB

     Estimated total dynamical RAM >     824.74 MB

     Initial potential from superposition of free atoms

     starting charge      80.9324, renormalised to      81.0000

     negative rho (up, down):  1.835E-02 0.000E+00
     Starting wfcs are  216 randomized atomic wfcs
     Checking if some PAW data can be deallocated... 

     total cpu time spent up to now is        4.3 secs

     per-process dynamical memory:   117.7 Mb

     Self-consistent Calculation

     iteration #  1     ecut=    50.00 Ry     beta= 0.70
     Davidson diagonalization with overlap

---- Real-time Memory Report at c_bands before calling an iterative solver
           174 MiB given to the printing process from OS
           114 MiB allocation reported by mallinfo(arena+hblkhd)
         99922 MiB available memory on the node where the printing process lives
------------------
     ethr =  1.00E-02,  avg # of iterations =  2.2

     Threshold (ethr) on eigenvalues was too large:
     Diagonalizing with lowered threshold

     Davidson diagonalization with overlap

---- Real-time Memory Report at c_bands before calling an iterative solver
           177 MiB given to the printing process from OS
           114 MiB allocation reported by mallinfo(arena+hblkhd)
         99913 MiB available memory on the node where the printing process lives
------------------
     ethr =  1.66E-04,  avg # of iterations =  4.0

     negative rho (up, down):  2.108E-02 0.000E+00

     total cpu time spent up to now is        9.9 secs

     total energy              =   -1066.63980157 Ry
     estimated scf accuracy    <       0.13775534 Ry

     iteration #  2     ecut=    50.00 Ry     beta= 0.70
     Davidson diagonalization with overlap

---- Real-time Memory Report at c_bands before calling an iterative solver
           183 MiB given to the printing process from OS
           119 MiB allocation reported by mallinfo(arena+hblkhd)
         99756 MiB available memory on the node where the printing process lives
------------------
     ethr =  1.70E-04,  avg # of iterations =  1.0

     negative rho (up, down):  2.243E-02 0.000E+00

     total cpu time spent up to now is       12.0 secs

     total energy              =   -1066.54206802 Ry
     estimated scf accuracy    <       0.01379555 Ry

     iteration #  3     ecut=    50.00 Ry     beta= 0.70
     Davidson diagonalization with overlap

---- Real-time Memory Report at c_bands before calling an iterative solver
           186 MiB given to the printing process from OS
           120 MiB allocation reported by mallinfo(arena+hblkhd)
         99777 MiB available memory on the node where the printing process lives
------------------
     c_bands:  2 eigenvalues not converged
     ethr =  1.70E-05,  avg # of iterations =  4.1

     negative rho (up, down):  2.147E-02 0.000E+00

     total cpu time spent up to now is       15.2 secs

     total energy              =   -1066.54668925 Ry
     estimated scf accuracy    <       0.01627997 Ry

     iteration #  4     ecut=    50.00 Ry     beta= 0.70
     Davidson diagonalization with overlap

---- Real-time Memory Report at c_bands before calling an iterative solver
           186 MiB given to the printing process from OS
           120 MiB allocation reported by mallinfo(arena+hblkhd)
         99048 MiB available memory on the node where the printing process lives
------------------
     ethr =  1.70E-05,  avg # of iterations =  2.5

     negative rho (up, down):  2.042E-02 0.000E+00

     total cpu time spent up to now is       17.9 secs

     total energy              =   -1066.54990622 Ry
     estimated scf accuracy    <       0.00107392 Ry

     iteration #  5     ecut=    50.00 Ry     beta= 0.70
     Davidson diagonalization with overlap

---- Real-time Memory Report at c_bands before calling an iterative solver
           188 MiB given to the printing process from OS
           121 MiB allocation reported by mallinfo(arena+hblkhd)
         99045 MiB available memory on the node where the printing process lives
------------------
     ethr =  1.33E-06,  avg # of iterations =  4.6

     negative rho (up, down):  1.970E-02 0.000E+00

     total cpu time spent up to now is       20.7 secs

     total energy              =   -1066.55006945 Ry
     estimated scf accuracy    <       0.00033765 Ry

     iteration #  6     ecut=    50.00 Ry     beta= 0.70
     Davidson diagonalization with overlap

---- Real-time Memory Report at c_bands before calling an iterative solver
           188 MiB given to the printing process from OS
           121 MiB allocation reported by mallinfo(arena+hblkhd)
         99018 MiB available memory on the node where the printing process lives
------------------
     ethr =  4.17E-07,  avg # of iterations =  2.0

     negative rho (up, down):  1.876E-02 0.000E+00

     total cpu time spent up to now is       23.1 secs

     total energy              =   -1066.55010779 Ry
     estimated scf accuracy    <       0.00001589 Ry

     iteration #  7     ecut=    50.00 Ry     beta= 0.70
     Davidson diagonalization with overlap

---- Real-time Memory Report at c_bands before calling an iterative solver
           189 MiB given to the printing process from OS
           121 MiB allocation reported by mallinfo(arena+hblkhd)
         99036 MiB available memory on the node where the printing process lives
------------------
     c_bands:  1 eigenvalues not converged
     ethr =  1.96E-08,  avg # of iterations =  5.1

     negative rho (up, down):  1.876E-02 0.000E+00

     total cpu time spent up to now is       26.3 secs

     total energy              =   -1066.55011331 Ry
     estimated scf accuracy    <       0.00000962 Ry

     iteration #  8     ecut=    50.00 Ry     beta= 0.70
     Davidson diagonalization with overlap

---- Real-time Memory Report at c_bands before calling an iterative solver
           189 MiB given to the printing process from OS
           122 MiB allocation reported by mallinfo(arena+hblkhd)
         99667 MiB available memory on the node where the printing process lives
------------------
     ethr =  1.19E-08,  avg # of iterations =  2.1

     negative rho (up, down):  1.871E-02 0.000E+00

     total cpu time spent up to now is       28.8 secs

     total energy              =   -1066.55011496 Ry
     estimated scf accuracy    <       0.00000010 Ry

     iteration #  9     ecut=    50.00 Ry     beta= 0.70
     Davidson diagonalization with overlap

---- Real-time Memory Report at c_bands before calling an iterative solver
           190 MiB given to the printing process from OS
           122 MiB allocation reported by mallinfo(arena+hblkhd)
         99738 MiB available memory on the node where the printing process lives
------------------
     ethr =  1.20E-10,  avg # of iterations =  4.9

     negative rho (up, down):  1.870E-02 0.000E+00

     total cpu time spent up to now is       32.1 secs

     total energy              =   -1066.55011498 Ry
     estimated scf accuracy    <       0.00000005 Ry

     iteration # 10     ecut=    50.00 Ry     beta= 0.70
     Davidson diagonalization with overlap

---- Real-time Memory Report at c_bands before calling an iterative solver
           191 MiB given to the printing process from OS
           122 MiB allocation reported by mallinfo(arena+hblkhd)
         99793 MiB available memory on the node where the printing process lives
------------------
     ethr =  6.17E-11,  avg # of iterations =  2.0

     negative rho (up, down):  1.870E-02 0.000E+00

     total cpu time spent up to now is       34.4 secs

     total energy              =   -1066.55011497 Ry
     estimated scf accuracy    <          4.3E-09 Ry

     iteration # 11     ecut=    50.00 Ry     beta= 0.70
     Davidson diagonalization with overlap

---- Real-time Memory Report at c_bands before calling an iterative solver
           191 MiB given to the printing process from OS
           122 MiB allocation reported by mallinfo(arena+hblkhd)
         99821 MiB available memory on the node where the printing process lives
------------------
     ethr =  5.28E-12,  avg # of iterations =  4.6

     negative rho (up, down):  1.870E-02 0.000E+00

     total cpu time spent up to now is       37.4 secs

     total energy              =   -1066.55011497 Ry
     estimated scf accuracy    <          5.3E-10 Ry

     iteration # 12     ecut=    50.00 Ry     beta= 0.70
     Davidson diagonalization with overlap

---- Real-time Memory Report at c_bands before calling an iterative solver
           191 MiB given to the printing process from OS
           122 MiB allocation reported by mallinfo(arena+hblkhd)
         99879 MiB available memory on the node where the printing process lives
------------------
     ethr =  6.55E-13,  avg # of iterations =  2.3

     negative rho (up, down):  1.870E-02 0.000E+00

     total cpu time spent up to now is       39.8 secs

     total energy              =   -1066.55011497 Ry
     estimated scf accuracy    <          3.1E-11 Ry

     iteration # 13     ecut=    50.00 Ry     beta= 0.70
     Davidson diagonalization with overlap

---- Real-time Memory Report at c_bands before calling an iterative solver
           192 MiB given to the printing process from OS
           122 MiB allocation reported by mallinfo(arena+hblkhd)
         99535 MiB available memory on the node where the printing process lives
------------------
     ethr =  1.00E-13,  avg # of iterations =  3.5

     negative rho (up, down):  1.870E-02 0.000E+00

     total cpu time spent up to now is       42.4 secs

     total energy              =   -1066.55011497 Ry
     estimated scf accuracy    <          1.0E-12 Ry

     iteration # 14     ecut=    50.00 Ry     beta= 0.70
     Davidson diagonalization with overlap

---- Real-time Memory Report at c_bands before calling an iterative solver
           192 MiB given to the printing process from OS
           122 MiB allocation reported by mallinfo(arena+hblkhd)
         98793 MiB available memory on the node where the printing process lives
------------------
     ethr =  1.00E-13,  avg # of iterations =  1.0

     negative rho (up, down):  1.870E-02 0.000E+00

     total cpu time spent up to now is       44.6 secs

     total energy              =   -1066.55011497 Ry
     estimated scf accuracy    <          4.9E-15 Ry

     iteration # 15     ecut=    50.00 Ry     beta= 0.70
     Davidson diagonalization with overlap

---- Real-time Memory Report at c_bands before calling an iterative solver
           192 MiB given to the printing process from OS
           122 MiB allocation reported by mallinfo(arena+hblkhd)
         99028 MiB available memory on the node where the printing process lives
------------------
     ethr =  1.00E-13,  avg # of iterations =  1.0

     negative rho (up, down):  1.870E-02 0.000E+00

     total cpu time spent up to now is       46.8 secs

     total energy              =   -1066.55011497 Ry
     estimated scf accuracy    <          1.1E-14 Ry

     iteration # 16     ecut=    50.00 Ry     beta= 0.70
     Davidson diagonalization with overlap

---- Real-time Memory Report at c_bands before calling an iterative solver
           192 MiB given to the printing process from OS
           122 MiB allocation reported by mallinfo(arena+hblkhd)
         99228 MiB available memory on the node where the printing process lives
------------------
     ethr =  1.00E-13,  avg # of iterations =  1.0

     negative rho (up, down):  1.870E-02 0.000E+00

     total cpu time spent up to now is       49.0 secs

     total energy              =   -1066.55011497 Ry
     estimated scf accuracy    <          8.4E-15 Ry

     iteration # 17     ecut=    50.00 Ry     beta= 0.70
     Davidson diagonalization with overlap

---- Real-time Memory Report at c_bands before calling an iterative solver
           192 MiB given to the printing process from OS
           122 MiB allocation reported by mallinfo(arena+hblkhd)
         99369 MiB available memory on the node where the printing process lives
------------------
     ethr =  1.00E-13,  avg # of iterations =  1.0

     negative rho (up, down):  1.870E-02 0.000E+00

     total cpu time spent up to now is       51.1 secs

     total energy              =   -1066.55011497 Ry
     estimated scf accuracy    <          8.0E-15 Ry

     iteration # 18     ecut=    50.00 Ry     beta= 0.70
     Davidson diagonalization with overlap

---- Real-time Memory Report at c_bands before calling an iterative solver
           192 MiB given to the printing process from OS
           122 MiB allocation reported by mallinfo(arena+hblkhd)
         99501 MiB available memory on the node where the printing process lives
------------------
     ethr =  1.00E-13,  avg # of iterations =  1.4

     negative rho (up, down):  1.870E-02 0.000E+00

     total cpu time spent up to now is       53.2 secs

     total energy              =   -1066.55011497 Ry
     estimated scf accuracy    <          9.5E-15 Ry

     iteration # 19     ecut=    50.00 Ry     beta= 0.70
     Davidson diagonalization with overlap

---- Real-time Memory Report at c_bands before calling an iterative solver
           192 MiB given to the printing process from OS
           122 MiB allocation reported by mallinfo(arena+hblkhd)
         99615 MiB available memory on the node where the printing process lives
------------------
     ethr =  1.00E-13,  avg # of iterations =  1.0

     negative rho (up, down):  1.870E-02 0.000E+00

     total cpu time spent up to now is       55.3 secs

     total energy              =   -1066.55011497 Ry
     estimated scf accuracy    <          4.8E-15 Ry

     iteration # 20     ecut=    50.00 Ry     beta= 0.70
     Davidson diagonalization with overlap

---- Real-time Memory Report at c_bands before calling an iterative solver
           192 MiB given to the printing process from OS
           122 MiB allocation reported by mallinfo(arena+hblkhd)
         99625 MiB available memory on the node where the printing process lives
------------------
     ethr =  1.00E-13,  avg # of iterations =  1.0

     negative rho (up, down):  1.870E-02 0.000E+00

     total cpu time spent up to now is       57.4 secs

     total energy              =   -1066.55011497 Ry
     estimated scf accuracy    <          4.8E-14 Ry

     iteration # 21     ecut=    50.00 Ry     beta= 0.70
     Davidson diagonalization with overlap

---- Real-time Memory Report at c_bands before calling an iterative solver
           192 MiB given to the printing process from OS
           122 MiB allocation reported by mallinfo(arena+hblkhd)
         99230 MiB available memory on the node where the printing process lives
------------------
     ethr =  1.00E-13,  avg # of iterations =  1.0

     negative rho (up, down):  1.870E-02 0.000E+00

     total cpu time spent up to now is       59.5 secs

     total energy              =   -1066.55011497 Ry
     estimated scf accuracy    <          4.1E-14 Ry

     iteration # 22     ecut=    50.00 Ry     beta= 0.70
     Davidson diagonalization with overlap

---- Real-time Memory Report at c_bands before calling an iterative solver
           192 MiB given to the printing process from OS
           122 MiB allocation reported by mallinfo(arena+hblkhd)
         99215 MiB available memory on the node where the printing process lives
------------------
     ethr =  1.00E-13,  avg # of iterations =  1.0

     negative rho (up, down):  1.870E-02 0.000E+00

     total cpu time spent up to now is       61.6 secs

     total energy              =   -1066.55011497 Ry
     estimated scf accuracy    <          3.1E-14 Ry

     iteration # 23     ecut=    50.00 Ry     beta= 0.70
     Davidson diagonalization with overlap

---- Real-time Memory Report at c_bands before calling an iterative solver
           192 MiB given to the printing process from OS
           122 MiB allocation reported by mallinfo(arena+hblkhd)
         99213 MiB available memory on the node where the printing process lives
------------------
     ethr =  1.00E-13,  avg # of iterations =  1.0

     negative rho (up, down):  1.870E-02 0.000E+00

     total cpu time spent up to now is       63.7 secs

     total energy              =   -1066.55011497 Ry
     estimated scf accuracy    <          3.3E-14 Ry

     iteration # 24     ecut=    50.00 Ry     beta= 0.70
     Davidson diagonalization with overlap

---- Real-time Memory Report at c_bands before calling an iterative solver
           192 MiB given to the printing process from OS
           122 MiB allocation reported by mallinfo(arena+hblkhd)
         99667 MiB available memory on the node where the printing process lives
------------------
     ethr =  1.00E-13,  avg # of iterations =  1.0

     negative rho (up, down):  1.870E-02 0.000E+00

     total cpu time spent up to now is       65.8 secs

     total energy              =   -1066.55011497 Ry
     estimated scf accuracy    <          2.4E-14 Ry

     iteration # 25     ecut=    50.00 Ry     beta= 0.70
     Davidson diagonalization with overlap

---- Real-time Memory Report at c_bands before calling an iterative solver
           192 MiB given to the printing process from OS
           122 MiB allocation reported by mallinfo(arena+hblkhd)
         99688 MiB available memory on the node where the printing process lives
------------------
     ethr =  1.00E-13,  avg # of iterations =  1.0

     negative rho (up, down):  1.870E-02 0.000E+00

     total cpu time spent up to now is       67.8 secs

     total energy              =   -1066.55011497 Ry
     estimated scf accuracy    <          3.0E-14 Ry

     iteration # 26     ecut=    50.00 Ry     beta= 0.70
     Davidson diagonalization with overlap

---- Real-time Memory Report at c_bands before calling an iterative solver
           192 MiB given to the printing process from OS
           122 MiB allocation reported by mallinfo(arena+hblkhd)
         99717 MiB available memory on the node where the printing process lives
------------------
     ethr =  1.00E-13,  avg # of iterations =  1.0

     negative rho (up, down):  1.870E-02 0.000E+00

     total cpu time spent up to now is       69.9 secs

     total energy              =   -1066.55011497 Ry
     estimated scf accuracy    <          3.3E-14 Ry

     iteration # 27     ecut=    50.00 Ry     beta= 0.70
     Davidson diagonalization with overlap

---- Real-time Memory Report at c_bands before calling an iterative solver
           192 MiB given to the printing process from OS
           122 MiB allocation reported by mallinfo(arena+hblkhd)
         99780 MiB available memory on the node where the printing process lives
------------------
     ethr =  1.00E-13,  avg # of iterations =  1.0

     negative rho (up, down):  1.870E-02 0.000E+00

     total cpu time spent up to now is       72.0 secs

     total energy              =   -1066.55011497 Ry
     estimated scf accuracy    <          3.9E-14 Ry

     iteration # 28     ecut=    50.00 Ry     beta= 0.70
     Davidson diagonalization with overlap

---- Real-time Memory Report at c_bands before calling an iterative solver
           192 MiB given to the printing process from OS
           122 MiB allocation reported by mallinfo(arena+hblkhd)
         99805 MiB available memory on the node where the printing process lives
------------------
     ethr =  1.00E-13,  avg # of iterations =  1.0

     negative rho (up, down):  1.870E-02 0.000E+00

     total cpu time spent up to now is       74.2 secs

     total energy              =   -1066.55011497 Ry
     estimated scf accuracy    <          4.8E-14 Ry

     iteration # 29     ecut=    50.00 Ry     beta= 0.70
     Davidson diagonalization with overlap

---- Real-time Memory Report at c_bands before calling an iterative solver
           192 MiB given to the printing process from OS
           122 MiB allocation reported by mallinfo(arena+hblkhd)
         99861 MiB available memory on the node where the printing process lives
------------------
     ethr =  1.00E-13,  avg # of iterations =  1.0

     negative rho (up, down):  1.870E-02 0.000E+00

     total cpu time spent up to now is       76.3 secs

     total energy              =   -1066.55011497 Ry
     estimated scf accuracy    <          6.8E-14 Ry

     iteration # 30     ecut=    50.00 Ry     beta= 0.70
     Davidson diagonalization with overlap

---- Real-time Memory Report at c_bands before calling an iterative solver
           192 MiB given to the printing process from OS
           122 MiB allocation reported by mallinfo(arena+hblkhd)
         98682 MiB available memory on the node where the printing process lives
------------------
     ethr =  1.00E-13,  avg # of iterations =  1.0

     negative rho (up, down):  1.870E-02 0.000E+00

     total cpu time spent up to now is       78.5 secs

     total energy              =   -1066.55011497 Ry
     estimated scf accuracy    <          5.4E-14 Ry

     iteration # 31     ecut=    50.00 Ry     beta= 0.70
     Davidson diagonalization with overlap

---- Real-time Memory Report at c_bands before calling an iterative solver
           192 MiB given to the printing process from OS
           122 MiB allocation reported by mallinfo(arena+hblkhd)
         98908 MiB available memory on the node where the printing process lives
------------------
     ethr =  1.00E-13,  avg # of iterations =  1.0

     negative rho (up, down):  1.870E-02 0.000E+00

     total cpu time spent up to now is       80.7 secs

     total energy              =   -1066.55011497 Ry
     estimated scf accuracy    <          6.3E-14 Ry

     iteration # 32     ecut=    50.00 Ry     beta= 0.70
     Davidson diagonalization with overlap

---- Real-time Memory Report at c_bands before calling an iterative solver
           192 MiB given to the printing process from OS
           122 MiB allocation reported by mallinfo(arena+hblkhd)
         99099 MiB available memory on the node where the printing process lives
------------------
     ethr =  1.00E-13,  avg # of iterations =  1.0

     negative rho (up, down):  1.870E-02 0.000E+00

     total cpu time spent up to now is       82.8 secs

     total energy              =   -1066.55011496 Ry
     estimated scf accuracy    <          9.0E-15 Ry

     iteration # 33     ecut=    50.00 Ry     beta= 0.70
     Davidson diagonalization with overlap

---- Real-time Memory Report at c_bands before calling an iterative solver
           192 MiB given to the printing process from OS
           122 MiB allocation reported by mallinfo(arena+hblkhd)
         99277 MiB available memory on the node where the printing process lives
------------------
     ethr =  1.00E-13,  avg # of iterations =  1.0

     negative rho (up, down):  1.870E-02 0.000E+00

     total cpu time spent up to now is       84.9 secs

     total energy              =   -1066.55011496 Ry
     estimated scf accuracy    <          3.3E-15 Ry

     iteration # 34     ecut=    50.00 Ry     beta= 0.70
     Davidson diagonalization with overlap

---- Real-time Memory Report at c_bands before calling an iterative solver
           192 MiB given to the printing process from OS
           122 MiB allocation reported by mallinfo(arena+hblkhd)
         99415 MiB available memory on the node where the printing process lives
------------------
     ethr =  1.00E-13,  avg # of iterations =  1.0

     negative rho (up, down):  1.870E-02 0.000E+00

     total cpu time spent up to now is       87.0 secs

     End of self-consistent calculation

          k = 0.0000 0.0000 0.0000 ( 17933 PWs)   bands (ev):

    -3.1912  -0.1966  -0.1966  -0.1966  -0.1966  -0.1966  -0.1966  -0.1966
    -0.1965   0.7855   0.7855   0.7855   0.7855   0.7855   0.7855   4.6497
     4.6497   4.6497   4.6497   4.6497   4.6497   4.6497   4.6497   4.6497
     4.6497   4.6497   4.6497   6.8811   6.8811   6.8811   6.8811   6.8811
     6.8811   6.8811   6.8811   6.8811   6.8811   6.8811   6.8811   8.3605
     8.3605   8.3605   8.3605   8.3605   8.3605   8.3605   8.3605   8.3606
     8.3606

     occupation numbers 
     1.0000   1.0000   1.0000   1.0000   1.0000   1.0000   1.0000   1.0000
     1.0000   1.0000   1.0000   1.0000   1.0000   1.0000   1.0000   1.0000
     1.0000   1.0000   1.0000   1.0000   1.0000   1.0000   1.0000   1.0000
     1.0000   1.0000   1.0000   1.0000   1.0000   1.0000   1.0000   1.0000
     1.0000   1.0000   1.0000   1.0000   1.0000   1.0000   1.0000  -0.0315
    -0.0315  -0.0315  -0.0315  -0.0315  -0.0315  -0.0315  -0.0315  -0.0315
    -0.0315

          k =-0.0884 0.0884-0.0884 ( 17906 PWs)   bands (ev):

    -3.1440  -0.8929  -0.3974  -0.3974  -0.3974   0.0965   0.0965   0.0965
     0.3412   0.3412   0.3412   0.5887   1.3193   1.3193   1.3193   3.7420
     3.7420   3.7420   4.6927   4.6927   4.6927   4.6927   4.6927   4.6927
     5.6227   5.6227   5.6227   6.1814   6.1814   6.1814   6.6367   6.6367
     6.6368   6.6368   6.6368   6.6368   7.0945   7.1023   7.1023   7.1023
     8.0334   8.0334   8.0334   8.2195   8.2195   8.2195   8.6904   8.6904
     8.6904

     occupation numbers 
     1.0000   1.0000   1.0000   1.0000   1.0000   1.0000   1.0000   1.0000
     1.0000   1.0000   1.0000   1.0000   1.0000   1.0000   1.0000   1.0000
     1.0000   1.0000   1.0000   1.0000   1.0000   1.0000   1.0000   1.0000
     1.0000   1.0000   1.0000   1.0000   1.0000   1.0000   1.0000   1.0000
     1.0000   1.0000   1.0000   1.0000   1.0000   1.0000   1.0000   1.0000
     0.3297   0.3297   0.3297  -0.0096  -0.0096  -0.0096  -0.0007  -0.0007
    -0.0007

          k =-0.1768 0.1768-0.1768 ( 17898 PWs)   bands (ev):

    -3.0022  -1.4991  -0.5057  -0.5057  -0.5057  -0.0123  -0.0123  -0.0123
     0.4810   0.4810   0.4810   1.4611   1.9410   1.9410   1.9410   2.9162
     2.9162   2.9162   4.8205   4.8205   4.8205   4.8205   4.8205   4.8205
     5.2216   5.2216   5.2216   5.8073   6.1897   6.1897   6.1897   6.1897
     6.1897   6.1897   6.7179   6.7179   6.7179   7.1246   7.1246   7.1246
     7.6917   7.6917   7.6917   8.4658   8.4658   8.4658   9.3931   9.3931
     9.3931

     occupation numbers 
     1.0000   1.0000   1.0000   1.0000   1.0000   1.0000   1.0000   1.0000
     1.0000   1.0000   1.0000   1.0000   1.0000   1.0000   1.0000   1.0000
     1.0000   1.0000   1.0000   1.0000   1.0000   1.0000   1.0000   1.0000
     1.0000   1.0000   1.0000   1.0000   1.0000   1.0000   1.0000   1.0000
     1.0000   1.0000   1.0000   1.0000   1.0000   1.0000   1.0000   1.0000
     1.0296   1.0296   1.0296  -0.0146  -0.0146  -0.0146  -0.0000  -0.0000
    -0.0000

          k =-0.2652 0.2652-0.2652 ( 17901 PWs)   bands (ev):

    -2.7663  -2.0141  -0.5212  -0.5212  -0.5212  -0.2742  -0.2742  -0.2742
     0.9564   0.9564   0.9564   2.1754   2.1754   2.1754   2.4180   2.6484
     2.6484   2.6484   4.3018   4.3018   4.3018   4.6014   5.0258   5.0258
     5.0258   5.0258   5.0258   5.0258   5.7610   5.7610   5.7610   5.7610
     5.7610   5.7610   7.1597   7.1597   7.1597   7.4338   7.4338   7.4338
     7.8436   7.8436   7.8436   8.8884   8.8884   8.8884   9.8988   9.8988
     9.8988

     occupation numbers 
     1.0000   1.0000   1.0000   1.0000   1.0000   1.0000   1.0000   1.0000
     1.0000   1.0000   1.0000   1.0000   1.0000   1.0000   1.0000   1.0000
     1.0000   1.0000   1.0000   1.0000   1.0000   1.0000   1.0000   1.0000
     1.0000   1.0000   1.0000   1.0000   1.0000   1.0000   1.0000   1.0000
     1.0000   1.0000   1.0001   1.0001   1.0001   1.0081   1.0081   1.0081
     0.8653   0.8653   0.8653  -0.0000  -0.0000  -0.0000  -0.0000  -0.0000
    -0.0000

          k = 0.3536-0.3536 0.3536 ( 17940 PWs)   bands (ev):

    -2.4368  -2.4367  -0.4441  -0.4441  -0.4440  -0.4440  -0.4440  -0.4440
     1.5216   1.5216   1.5216   1.5216   1.5216   1.5216   3.3568   3.4377
     3.4377   3.4377   3.4377   3.4377   3.4377   3.5795   5.2162   5.2162
     5.2162   5.2162   5.2162   5.2162   5.4930   5.4930   5.4930   5.4930
     5.4930   5.4930   7.2581   7.2581   7.2581   7.2581   7.2581   7.2581
     8.9908   8.9908   8.9908   8.9908   8.9908   8.9908   9.4754   9.4754
     9.4754

     occupation numbers 
     1.0000   1.0000   1.0000   1.0000   1.0000   1.0000   1.0000   1.0000
     1.0000   1.0000   1.0000   1.0000   1.0000   1.0000   1.0000   1.0000
     1.0000   1.0000   1.0000   1.0000   1.0000   1.0000   1.0000   1.0000
     1.0000   1.0000   1.0000   1.0000   1.0000   1.0000   1.0000   1.0000
     1.0000   1.0000   1.0006   1.0006   1.0006   1.0006   1.0006   1.0006
    -0.0000  -0.0000  -0.0000  -0.0000  -0.0000  -0.0000  -0.0000  -0.0000
    -0.0000

          k = 0.0000 0.1768 0.0000 ( 17926 PWs)   bands (ev):

    -3.1282  -0.6295  -0.6295  -0.6295  -0.6295  -0.1356   0.3581   0.3581
     0.3581   0.3581   0.8468   0.8468   0.8468   0.8468   1.8194   3.7566
     3.7566   3.7566   3.7566   4.7053   4.7053   4.7053   4.7053   5.6455
     5.6455   5.6455   5.6455   6.0723   6.0723   6.0723   6.0723   6.4758
     6.4758   6.4758   6.4758   7.4026   7.4026   7.4026   7.4026   7.5791
     7.5791   7.5791   7.5791   7.9463   7.9463   7.9464   7.9464   8.8959
     8.8959

     occupation numbers 
     1.0000   1.0000   1.0000   1.0000   1.0000   1.0000   1.0000   1.0000
     1.0000   1.0000   1.0000   1.0000   1.0000   1.0000   1.0000   1.0000
     1.0000   1.0000   1.0000   1.0000   1.0000   1.0000   1.0000   1.0000
     1.0000   1.0000   1.0000   1.0000   1.0000   1.0000   1.0000   1.0000
     1.0000   1.0000   1.0000   1.0055   1.0055   1.0055   1.0055   1.0292
     1.0292   1.0292   1.0292   0.5957   0.5957   0.5956   0.5956  -0.0000
    -0.0000

          k =-0.0884 0.2652-0.0884 ( 17895 PWs)   bands (ev):

    -3.0180  -1.2657  -0.7689  -0.7689  -0.5215  -0.2738   0.2196   0.4642
     0.4642   0.7113   0.7113   1.2015   1.4413   1.4413   2.4065   2.9008
     2.9008   3.8597   3.8597   3.8602   4.7967   4.7967   4.9986   5.5250
     5.5250   5.7348   5.7348   5.7942   5.8027   5.8027   5.9822   6.2665
     6.2976   6.2976   6.6772   6.6772   7.2094   7.2094   7.2186   7.2186
     7.6852   7.6852   7.8842   7.8842   8.1475   8.3334   8.3334   9.0760
     9.2784

     occupation numbers 
     1.0000   1.0000   1.0000   1.0000   1.0000   1.0000   1.0000   1.0000
     1.0000   1.0000   1.0000   1.0000   1.0000   1.0000   1.0000   1.0000
     1.0000   1.0000   1.0000   1.0000   1.0000   1.0000   1.0000   1.0000
     1.0000   1.0000   1.0000   1.0000   1.0000   1.0000   1.0000   1.0000
     1.0000   1.0000   1.0000   1.0000   1.0002   1.0002   1.0003   1.0003
     1.0312   1.0312   0.7716   0.7716   0.0689  -0.0345  -0.0345  -0.0000
    -0.0000

          k =-0.1768 0.3536-0.1768 ( 17909 PWs)   bands (ev):

    -2.8135  -1.8110  -0.8156  -0.8154  -0.8154   0.1726   0.1726   0.1732
     0.1734   1.1554   1.1554   2.1232   2.1232   2.1297   2.1297   2.1304
     3.0772   3.0966   4.0353   4.0506   4.0506   4.8692   4.8692   4.9306
     4.9306   5.0335   5.1451   5.1451   5.7814   5.7814   5.9587   6.0404
     6.0404   6.8308   6.8308   6.9070   6.9248   6.9248   7.7170   7.7170
     7.7696   7.7696   8.2583   8.2583   8.7850   8.7976   8.9846   9.0873
     9.0873

     occupation numbers 
     1.0000   1.0000   1.0000   1.0000   1.0000   1.0000   1.0000   1.0000
     1.0000   1.0000   1.0000   1.0000   1.0000   1.0000   1.0000   1.0000
     1.0000   1.0000   1.0000   1.0000   1.0000   1.0000   1.0000   1.0000
     1.0000   1.0000   1.0000   1.0000   1.0000   1.0000   1.0000   1.0000
     1.0000   1.0000   1.0000   1.0000   1.0000   1.0000   1.0200   1.0200
     0.9801   0.9801  -0.0282  -0.0282  -0.0001  -0.0001  -0.0000  -0.0000
    -0.0000

          k = 0.4419-0.2652 0.4419 ( 17901 PWs)   bands (ev):

    -2.5151  -2.2644  -1.0172  -0.7690  -0.7690  -0.0273  -0.0273   0.2191
     0.7111   1.4452   1.4452   1.6892   1.6892   2.4179   2.8898   2.8898
     3.1308   3.1337   3.8255   3.8918   4.0640   4.0640   4.3274   4.3274
     4.5515   4.5515   5.3186   5.3186   5.4714   5.4714   6.0149   6.2276
     6.2276   6.4525   6.4525   6.7252   6.7252   7.8652   7.8652   8.1079
     8.3362   8.5108   8.5108   8.5691   9.1114   9.1114   9.2187   9.2187
     9.5258

     occupation numbers 
     1.0000   1.0000   1.0000   1.0000   1.0000   1.0000   1.0000   1.0000
     1.0000   1.0000   1.0000   1.0000   1.0000   1.0000   1.0000   1.0000
     1.0000   1.0000   1.0000   1.0000   1.0000   1.0000   1.0000   1.0000
     1.0000   1.0000   1.0000   1.0000   1.0000   1.0000   1.0000   1.0000
     1.0000   1.0000   1.0000   1.0000   1.0000   0.8181   0.8181   0.1413
    -0.0343  -0.0091  -0.0091  -0.0044  -0.0000  -0.0000  -0.0000  -0.0000
    -0.0000

          k = 0.3536-0.1768 0.3536 ( 17925 PWs)   bands (ev):

    -2.6250  -2.1235  -1.1258  -0.6297  -0.6297  -0.1351  -0.1351   0.3572
     0.8491   0.8491   1.3384   1.8264   2.3052   2.3117   2.3117   2.7941
     3.2576   3.2576   3.7372   3.7372   4.2254   4.2254   4.2591   4.6360
     4.6863   4.6863   5.1611   5.1611   5.6669   5.6669   6.1377   6.1377
     6.1555   6.5402   6.5402   6.6087   6.6087   7.7873   7.9913   7.9913
     8.0227   8.0227   8.4139   8.9792   9.1431   9.1431   9.3780   9.6944
     9.6945

     occupation numbers 
     1.0000   1.0000   1.0000   1.0000   1.0000   1.0000   1.0000   1.0000
     1.0000   1.0000   1.0000   1.0000   1.0000   1.0000   1.0000   1.0000
     1.0000   1.0000   1.0000   1.0000   1.0000   1.0000   1.0000   1.0000
     1.0000   1.0000   1.0000   1.0000   1.0000   1.0000   1.0000   1.0000
     1.0000   1.0000   1.0000   1.0000   1.0000   0.9593   0.4567   0.4567
     0.3611   0.3611  -0.0229  -0.0000  -0.0000  -0.0000  -0.0000  -0.0000
    -0.0000

          k = 0.2652-0.0884 0.2652 ( 17904 PWs)   bands (ev):

    -2.8921  -1.6394  -1.1413  -0.3978  -0.3978  -0.1504  -0.1504   0.3426
     0.3426   0.5870   1.3236   1.5633   1.8115   2.0539   2.5275   2.5275
     3.0213   3.0213   3.9778   3.9778   4.6565   4.6565   4.9223   4.9223
     5.1169   5.1169   5.4353   5.4580   5.9058   5.9058   6.1001   6.1001
     6.3821   6.5706   6.5706   6.8265   6.8265   6.8695   6.8695   7.3276
     7.9133   8.2564   8.2564   8.2682   8.9137   8.9137   9.1894   9.1895
     9.2155

     occupation numbers 
     1.0000   1.0000   1.0000   1.0000   1.0000   1.0000   1.0000   1.0000
     1.0000   1.0000   1.0000   1.0000   1.0000   1.0000   1.0000   1.0000
     1.0000   1.0000   1.0000   1.0000   1.0000   1.0000   1.0000   1.0000
     1.0000   1.0000   1.0000   1.0000   1.0000   1.0000   1.0000   1.0000
     1.0000   1.0000   1.0000   1.0000   1.0000   1.0000   1.0000   1.0019
     0.6930  -0.0276  -0.0276  -0.0309  -0.0000  -0.0000  -0.0000  -0.0000
    -0.0000

          k = 0.1768 0.0000 0.1768 ( 17906 PWs)   bands (ev):

    -3.0652  -1.0637  -1.0637  -0.0740  -0.0740  -0.0732  -0.0732  -0.0732
    -0.0732   0.9080   0.9080   0.9107   0.9107   1.8802   1.8802   2.8559
     3.8159   3.8159   3.8159   3.8159   4.7651   4.7651   5.5502   5.5502
     5.5502   5.5502   5.8161   5.8161   5.8161   5.8161   6.0708   6.5967
     6.5967   6.5967   6.5967   6.5972   6.6952   6.6952   6.9970   6.9970
     7.5698   7.9243   8.4750   8.4750   8.5709   8.5709   8.5709   8.5709
     8.8687

     occupation numbers 
     1.0000   1.0000   1.0000   1.0000   1.0000   1.0000   1.0000   1.0000
     1.0000   1.0000   1.0000   1.0000   1.0000   1.0000   1.0000   1.0000
     1.0000   1.0000   1.0000   1.0000   1.0000   1.0000   1.0000   1.0000
     1.0000   1.0000   1.0000   1.0000   1.0000   1.0000   1.0000   1.0000
     1.0000   1.0000   1.0000   1.0000   1.0000   1.0000   1.0000   1.0000
     1.0278   0.6614  -0.0133  -0.0133  -0.0043  -0.0043  -0.0043  -0.0043
    -0.0000

          k = 0.0000 0.3536 0.0000 ( 17870 PWs)   bands (ev):

    -2.9393  -0.9397  -0.9395  -0.9395  -0.9395  -0.9395   1.0305   1.0305
     1.0305   1.0305   1.0330   1.0330   1.0330   1.0330   2.9569   2.9753
     2.9753   2.9753   2.9753   4.7531   4.7531   4.7531   4.7531   5.0273
     5.0273   5.0273   5.0273   6.1865   6.1865   6.1865   6.1865   6.7057
     6.7057   6.7057   6.7057   6.8115   6.8115   6.8115   6.8115   7.6816
     7.6816   7.6816   7.6816   8.0404   8.0404   8.0404   8.0404   8.8718
     9.5441

     occupation numbers 
     1.0000   1.0000   1.0000   1.0000   1.0000   1.0000   1.0000   1.0000
     1.0000   1.0000   1.0000   1.0000   1.0000   1.0000   1.0000   1.0000
     1.0000   1.0000   1.0000   1.0000   1.0000   1.0000   1.0000   1.0000
     1.0000   1.0000   1.0000   1.0000   1.0000   1.0000   1.0000   1.0000
     1.0000   1.0000   1.0000   1.0000   1.0000   1.0000   1.0000   1.0319
     1.0319   1.0319   1.0319   0.3096   0.3096   0.3096   0.3096  -0.0000
    -0.0000

          k =-0.0884 0.4419-0.0884 ( 17885 PWs)   bands (ev):

    -2.7663  -1.5147  -1.2658  -1.0171  -1.0171  -0.5212   0.7098   0.7098
     0.9562   1.4454   1.4454   1.6852   1.6852   1.9328   2.1746   2.1746
     3.1393   3.1393   3.5864   3.8492   4.0866   4.3139   4.3139   4.8417
     5.0888   5.0888   5.5534   5.5749   5.5749   6.0206   6.0363   6.0363
     6.4994   6.4994   6.8859   6.8859   7.4406   7.4466   7.4466   7.9176
     7.9176   7.9997   7.9997   8.1028   8.1028   8.1105   8.3844   8.3844
     9.9744

     occupation numbers 
     1.0000   1.0000   1.0000   1.0000   1.0000   1.0000   1.0000   1.0000
     1.0000   1.0000   1.0000   1.0000   1.0000   1.0000   1.0000   1.0000
     1.0000   1.0000   1.0000   1.0000   1.0000   1.0000   1.0000   1.0000
     1.0000   1.0000   1.0000   1.0000   1.0000   1.0000   1.0000   1.0000
     1.0000   1.0000   1.0000   1.0000   1.0087   1.0094   1.0094   0.6810
     0.6810   0.4306   0.4306   0.1520   0.1520   0.1359  -0.0278  -0.0278
    -0.0000

          k = 0.5303-0.1768 0.5303 ( 17894 PWs)   bands (ev):

    -2.4995  -1.9984  -1.4992  -1.0016  -1.0016  -0.0116   0.4802   0.4802
     0.9710   1.4601   1.4601   1.9475   1.9475   2.4263   2.4263   2.9098
     2.9141   3.3918   3.3918   3.3943   3.8670   3.8670   4.2811   4.3788
     4.7543   4.7543   4.8512   5.3278   5.3278   5.6929   5.6929   6.2733
     6.2733   7.1112   7.1112   7.2056   7.4566   7.5907   7.5907   7.9061
     7.9061   8.1512   8.5299   8.5299   8.8701   8.8701   9.0313   9.0313
     9.4425

     occupation numbers 
     1.0000   1.0000   1.0000   1.0000   1.0000   1.0000   1.0000   1.0000
     1.0000   1.0000   1.0000   1.0000   1.0000   1.0000   1.0000   1.0000
     1.0000   1.0000   1.0000   1.0000   1.0000   1.0000   1.0000   1.0000
     1.0000   1.0000   1.0000   1.0000   1.0000   1.0000   1.0000   1.0000
     1.0000   1.0000   1.0000   1.0002   1.0105   1.0310   1.0310   0.7132
     0.7132   0.0633  -0.0072  -0.0072  -0.0000  -0.0000  -0.0000  -0.0000
    -0.0000

          k = 0.4419-0.0884 0.4419 ( 17931 PWs)   bands (ev):

    -2.3897  -2.1392  -1.6394  -0.8930  -0.8930   0.3422   0.3422   0.5883
     0.8335   0.8335   1.0775   2.0502   2.5382   2.5382   2.7800   3.2512
     3.2512   3.2532   3.4984   3.4984   3.7313   3.7313   3.9449   3.9449
     4.0120   4.9562   4.9916   5.3672   5.3672   5.6601   5.6601   6.1331
     6.1331   6.9586   7.2712   7.2712   7.3320   7.3320   8.2001   8.2001
     8.4528   8.4528   8.4673   8.6846   8.6846   8.9393   9.2329   9.2329
     9.6151

     occupation numbers 
     1.0000   1.0000   1.0000   1.0000   1.0000   1.0000   1.0000   1.0000
     1.0000   1.0000   1.0000   1.0000   1.0000   1.0000   1.0000   1.0000
     1.0000   1.0000   1.0000   1.0000   1.0000   1.0000   1.0000   1.0000
     1.0000   1.0000   1.0000   1.0000   1.0000   1.0000   1.0000   1.0000
     1.0000   1.0000   1.0008   1.0008   1.0020   1.0020   0.0054   0.0054
    -0.0165  -0.0165  -0.0144  -0.0007  -0.0007  -0.0000  -0.0000  -0.0000
    -0.0000

          k = 0.3536 0.0000 0.3536 ( 17930 PWs)   bands (ev):

    -2.6878  -1.6862  -1.6862  -0.6916  -0.6916   0.2963   0.2963   0.2963
     0.2963   1.2751   1.2751   1.2773   2.2516   2.2516   3.1975   3.1975
     3.2157   3.2157   3.2157   3.2157   4.1548   4.1548   4.1548   4.1548
     5.1059   5.1059   5.1513   5.1513   5.4927   6.0768   6.0768   6.0768
     6.0769   6.8360   7.0118   7.0118   7.0118   7.0118   7.3447   7.3447
     8.7979   8.7979   8.8998   8.8998   8.8998   8.8998   8.9065   9.0984
     9.2009

     occupation numbers 
     1.0000   1.0000   1.0000   1.0000   1.0000   1.0000   1.0000   1.0000
     1.0000   1.0000   1.0000   1.0000   1.0000   1.0000   1.0000   1.0000
     1.0000   1.0000   1.0000   1.0000   1.0000   1.0000   1.0000   1.0000
     1.0000   1.0000   1.0000   1.0000   1.0000   1.0000   1.0000   1.0000
     1.0000   1.0000   1.0000   1.0000   1.0000   1.0000   1.0024   1.0024
    -0.0001  -0.0001  -0.0000  -0.0000  -0.0000  -0.0000  -0.0000  -0.0000
    -0.0000

          k = 0.0000 0.5303 0.0000 ( 17886 PWs)   bands (ev):

    -2.6250  -1.6238  -1.1258  -1.1258  -1.1258  -1.1258   1.3362   1.3362
     1.3362   1.3362   1.8259   1.8259   1.8259   1.8259   2.3100   2.3100
     2.3100   2.3100   3.7473   3.7473   3.7473   3.7473   4.1625   5.2127
     5.2127   5.2127   5.2127   6.0130   6.0130   6.0130   6.0130   6.1594
     6.1594   6.1594   6.1594   7.3191   7.3191   7.3191   7.3191   7.3391
     8.0299   8.0299   8.0299   8.0299   8.7948   8.7948   8.7948   8.7948
    10.2962

     occupation numbers 
     1.0000   1.0000   1.0000   1.0000   1.0000   1.0000   1.0000   1.0000
     1.0000   1.0000   1.0000   1.0000   1.0000   1.0000   1.0000   1.0000
     1.0000   1.0000   1.0000   1.0000   1.0000   1.0000   1.0000   1.0000
     1.0000   1.0000   1.0000   1.0000   1.0000   1.0000   1.0000   1.0000
     1.0000   1.0000   1.0000   1.0016   1.0016   1.0016   1.0016   1.0022
     0.3397   0.3397   0.3397   0.3397  -0.0001  -0.0001  -0.0001  -0.0001
    -0.0000

          k = 0.6187-0.0884 0.6187 ( 17913 PWs)   bands (ev):

    -2.3897  -1.8891  -1.6394  -1.1413  -1.1413  -0.6450   1.0774   1.0774
     1.5662   1.5662   1.8100   2.0502   2.0502   2.2959   2.2959   2.5353
     2.5353   2.7770   2.7793   3.2581   3.2581   3.7272   4.4932   4.7577
     4.9584   5.4318   5.4318   5.4590   5.4590   5.9059   5.9059   5.9251
     5.9251   6.3753   6.7213   6.8493   7.4254   7.4254   7.7990   7.7990
     8.1356   8.1356   8.7319   8.7319   8.9825   8.9825   9.1989   9.1989
     9.6595

     occupation numbers 
     1.0000   1.0000   1.0000   1.0000   1.0000   1.0000   1.0000   1.0000
     1.0000   1.0000   1.0000   1.0000   1.0000   1.0000   1.0000   1.0000
     1.0000   1.0000   1.0000   1.0000   1.0000   1.0000   1.0000   1.0000
     1.0000   1.0000   1.0000   1.0000   1.0000   1.0000   1.0000   1.0000
     1.0000   1.0000   1.0000   1.0000   1.0073   1.0073   0.9433   0.9433
     0.0885   0.0885  -0.0003  -0.0003  -0.0000  -0.0000  -0.0000  -0.0000
    -0.0000

          k = 0.5303 0.0000 0.5303 ( 17942 PWs)   bands (ev):

    -2.0610  -2.0610  -2.0609  -1.0637  -1.0637  -0.0733   0.9097   0.9097
     0.9097   0.9097   1.8848   1.8848   2.8496   2.8496   2.8496   2.8496
     2.8541   2.8541   2.8541   2.8541   3.7069   3.7069   3.9478   3.9478
     4.6954   4.6954   5.1461   5.6373   5.6373   5.7395   5.7395   5.7395
     5.7395   6.4833   7.6202   7.6202   7.8638   7.8638   7.9245   7.9245
     8.4637   8.4637   8.4637   8.4637   8.6603   8.6603   9.4034   9.4034
     9.4034

     occupation numbers 
     1.0000   1.0000   1.0000   1.0000   1.0000   1.0000   1.0000   1.0000
     1.0000   1.0000   1.0000   1.0000   1.0000   1.0000   1.0000   1.0000
     1.0000   1.0000   1.0000   1.0000   1.0000   1.0000   1.0000   1.0000
     1.0000   1.0000   1.0000   1.0000   1.0000   1.0000   1.0000   1.0000
     1.0000   1.0000   1.0344   1.0344   0.8213   0.8213   0.6609   0.6609
    -0.0149  -0.0149  -0.0149  -0.0149  -0.0011  -0.0011  -0.0000  -0.0000
    -0.0000

          k = 0.0000-0.7071 0.0000 ( 17886 PWs)   bands (ev):

    -2.1861  -2.1861  -1.1880  -1.1880  -1.1880  -1.1879   1.7631   1.7631
     1.7631   1.7631   1.7631   1.7631   1.7631   1.7631   2.7333   2.7333
     2.7333   2.7333   2.7333   2.7333   2.7334   2.7334   5.0306   5.6250
     5.6250   5.6250   5.6250   5.6250   5.6250   5.6250   5.6250   5.9551
     5.9551   5.9551   5.9551   6.3619   7.3120   7.3120   7.3120   7.3120
     8.7369   8.7369   8.7369   8.7369   9.6659   9.6659   9.6659   9.6659
     9.6659

     occupation numbers 
     1.0000   1.0000   1.0000   1.0000   1.0000   1.0000   1.0000   1.0000
     1.0000   1.0000   1.0000   1.0000   1.0000   1.0000   1.0000   1.0000
     1.0000   1.0000   1.0000   1.0000   1.0000   1.0000   1.0000   1.0000
     1.0000   1.0000   1.0000   1.0000   1.0000   1.0000   1.0000   1.0000
     1.0000   1.0000   1.0000   1.0000   1.0015   1.0015   1.0015   1.0015
    -0.0003  -0.0003  -0.0003  -0.0003  -0.0000  -0.0000  -0.0000  -0.0000
    -0.0000

          k =-0.1768 0.3536 0.0000 ( 17891 PWs)   bands (ev):

    -2.8764  -1.3746  -1.3746  -0.8776  -0.3820  -0.3820   0.1110   0.6037
     0.6038   1.0917   1.0917   1.5829   1.5830   2.0625   2.0689   3.0171
     3.0355   3.0356   3.9914   3.9914   3.9915   4.4483   4.4483   5.3396
     5.3396   5.4298   5.4298   5.7817   5.8671   5.9176   5.9176   5.9244
     5.9244   6.7074   6.8235   6.8236   7.0771   7.2415   7.2415   7.6345
     7.8072   7.8072   7.8800   8.1718   8.5625   8.5769   8.5769   8.9290
     9.1193

     occupation numbers 
     1.0000   1.0000   1.0000   1.0000   1.0000   1.0000   1.0000   1.0000
     1.0000   1.0000   1.0000   1.0000   1.0000   1.0000   1.0000   1.0000
     1.0000   1.0000   1.0000   1.0000   1.0000   1.0000   1.0000   1.0000
     1.0000   1.0000   1.0000   1.0000   1.0000   1.0000   1.0000   1.0000
     1.0000   1.0000   1.0000   1.0000   1.0000   1.0004   1.0004   1.0353
     0.9310   0.9310   0.7824   0.0351  -0.0048  -0.0039  -0.0039  -0.0000
    -0.0000

          k = 0.4419-0.2652 0.6187 ( 17909 PWs)   bands (ev):

    -2.6407  -1.8891  -1.3902  -1.1414  -0.3975  -0.1507   0.0963   0.5881
     0.8325   1.0786   1.3230   1.8069   2.0543   2.2960   2.5387   2.7692
     3.2594   3.2610   3.4912   3.7060   3.9689   4.2035   4.2099   4.4208
     4.7203   4.8939   4.9614   5.2253   5.4228   5.6697   6.0609   6.1318
     6.6443   6.8053   7.0309   7.0683   7.1871   7.2767   7.5501   7.5670
     7.9395   8.2260   8.4860   8.6508   8.9399   8.9672   8.9924   9.3867
     9.4235

     occupation numbers 
     1.0000   1.0000   1.0000   1.0000   1.0000   1.0000   1.0000   1.0000
     1.0000   1.0000   1.0000   1.0000   1.0000   1.0000   1.0000   1.0000
     1.0000   1.0000   1.0000   1.0000   1.0000   1.0000   1.0000   1.0000
     1.0000   1.0000   1.0000   1.0000   1.0000   1.0000   1.0000   1.0000
     1.0000   1.0000   1.0000   1.0000   1.0002   1.0008   1.0245   1.0273
     0.6164  -0.0137  -0.0119  -0.0013  -0.0000  -0.0000  -0.0000  -0.0000
    -0.0000

          k = 0.3536-0.1768 0.5303 ( 17894 PWs)   bands (ev):

    -2.3114  -2.3114  -1.3124  -1.3124  -0.3204  -0.3204   0.6644   0.6645
     0.6650   0.6650   1.6431   1.6431   2.6079   2.6079   2.6142   2.6142
     3.4735   3.5577   3.5577   3.5712   3.5712   3.7026   4.4057   4.4587
     4.4587   4.5126   4.5126   4.6732   5.5025   5.5025   6.2346   6.4300
     6.4300   6.4601   7.2951   7.2951   7.3749   7.3749   7.6304   7.6304
     8.2974   8.2975   9.0796   9.0796   9.1731   9.1731   9.2415   9.2415
     9.2419

     occupation numbers 
     1.0000   1.0000   1.0000   1.0000   1.0000   1.0000   1.0000   1.0000
     1.0000   1.0000   1.0000   1.0000   1.0000   1.0000   1.0000   1.0000
     1.0000   1.0000   1.0000   1.0000   1.0000   1.0000   1.0000   1.0000
     1.0000   1.0000   1.0000   1.0000   1.0000   1.0000   1.0000   1.0000
     1.0000   1.0000   1.0011   1.0011   1.0038   1.0038   1.0351   1.0351
    -0.0351  -0.0351  -0.0000  -0.0000  -0.0000  -0.0000  -0.0000  -0.0000
    -0.0000

          k = 0.5303-0.1768 0.7071 ( 17893 PWs)   bands (ev):

    -2.5622  -1.5615  -1.5615  -1.5614  -0.5676  -0.5676   0.4187   1.3972
     1.3973   1.3990   1.3991   1.3992   2.3658   2.3706   2.3706   2.3723
     2.3723   3.3309   3.3309   3.3318   4.1730   4.1730   4.2218   4.4332
     4.4332   5.1668   5.1668   5.2701   5.2701   5.6082   6.2107   6.2107
     6.5337   6.9571   7.0085   7.1580   7.1580   7.3981   7.9164   7.9164
     7.9855   8.0022   8.0022   8.3886   8.4412   8.4412   8.9606   9.3172
     9.8611

     occupation numbers 
     1.0000   1.0000   1.0000   1.0000   1.0000   1.0000   1.0000   1.0000
     1.0000   1.0000   1.0000   1.0000   1.0000   1.0000   1.0000   1.0000
     1.0000   1.0000   1.0000   1.0000   1.0000   1.0000   1.0000   1.0000
     1.0000   1.0000   1.0000   1.0000   1.0000   1.0000   1.0000   1.0000
     1.0000   1.0000   1.0000   1.0001   1.0001   1.0052   0.6845   0.6844
     0.4746   0.4230   0.4230  -0.0271  -0.0183  -0.0183  -0.0000  -0.0000
    -0.0000

          k = 0.4419-0.0884 0.6187 ( 17897 PWs)   bands (ev):

    -2.2644  -2.0141  -1.7642  -1.5147  -0.5213  -0.0270   0.2191   0.7108
     1.1998   1.4442   1.6881   1.9316   2.1716   2.4142   2.6563   2.8977
     2.8999   3.1310   3.3720   3.6107   3.6118   3.8464   4.1326   4.3023
     4.3708   4.6112   4.7773   4.8747   5.0754   5.1086   6.4860   6.5031
     6.8410   6.9595   7.0782   7.2054   7.4246   7.6262   7.8973   8.0975
     8.1372   8.3798   8.4067   8.5582   8.7472   9.0294   9.1395   9.2220
     9.3012

     occupation numbers 
     1.0000   1.0000   1.0000   1.0000   1.0000   1.0000   1.0000   1.0000
     1.0000   1.0000   1.0000   1.0000   1.0000   1.0000   1.0000   1.0000
     1.0000   1.0000   1.0000   1.0000   1.0000   1.0000   1.0000   1.0000
     1.0000   1.0000   1.0000   1.0000   1.0000   1.0000   1.0000   1.0000
     1.0000   1.0000   1.0000   1.0002   1.0072   1.0349   0.7373   0.1636
     0.0856  -0.0286  -0.0241  -0.0051  -0.0002  -0.0000  -0.0000  -0.0000
    -0.0000

          k = 0.3536 0.0000 0.5303 ( 17889 PWs)   bands (ev):

    -2.3740  -1.8734  -1.8734  -1.3746  -0.3822   0.1116   0.1116   0.6036
     1.0934   1.0935   1.5803   1.5803   2.5523   2.5523   3.0305   3.0305
     3.0343   3.0343   3.4978   3.5130   3.5130   3.9766   3.9766   4.3996
     4.4538   4.4975   4.4975   4.9707   4.9707   5.3193   6.2780   6.6635
     6.8435   6.8435   7.1708   7.3098   7.3098   7.5743   8.0985   8.1620
     8.1620   8.2541   8.2541   8.5205   8.7124   8.7124   9.3702   9.4702
     9.6920

     occupation numbers 
     1.0000   1.0000   1.0000   1.0000   1.0000   1.0000   1.0000   1.0000
     1.0000   1.0000   1.0000   1.0000   1.0000   1.0000   1.0000   1.0000
     1.0000   1.0000   1.0000   1.0000   1.0000   1.0000   1.0000   1.0000
     1.0000   1.0000   1.0000   1.0000   1.0000   1.0000   1.0000   1.0000
     1.0000   1.0000   1.0001   1.0014   1.0014   1.0285   0.1614   0.0478
     0.0478  -0.0268  -0.0268  -0.0081  -0.0004  -0.0004  -0.0000  -0.0000
    -0.0000

          k =-0.1768-0.7071 0.0000 ( 17918 PWs)   bands (ev):

    -2.1235  -2.1235  -1.6238  -1.6238  -0.6295  -0.6295   0.8484   0.8484
     1.8240   1.8240   1.8240   1.8240   2.3100   2.3100   2.3100   2.3100
     2.7893   2.7893   3.2730   3.2730   3.2730   3.2730   4.7368   4.7368
     4.7368   4.7368   5.0883   5.1085   5.1085   5.5505   6.4228   6.4759
     6.6253   6.6253   6.6253   6.6253   6.9039   7.7965   7.8665   8.2534
     8.2534   8.7949   8.7949   8.8762   8.8762   8.8763   8.8763   9.2595
     9.2595

     occupation numbers 
     1.0000   1.0000   1.0000   1.0000   1.0000   1.0000   1.0000   1.0000
     1.0000   1.0000   1.0000   1.0000   1.0000   1.0000   1.0000   1.0000
     1.0000   1.0000   1.0000   1.0000   1.0000   1.0000   1.0000   1.0000
     1.0000   1.0000   1.0000   1.0000   1.0000   1.0000   1.0000   1.0000
     1.0000   1.0000   1.0000   1.0000   1.0000   0.9469   0.8150  -0.0266
    -0.0266  -0.0001  -0.0001  -0.0000  -0.0000  -0.0000  -0.0000  -0.0000
    -0.0000

          k =-0.3536-0.7071 0.0000 ( 17916 PWs)   bands (ev):

    -1.9360  -1.9359  -1.9359  -1.9359   0.0499   0.0499   0.0499   0.0499
     2.0064   2.0064   2.0064   2.0064   2.0065   2.0065   2.0065   2.0065
     3.8235   3.8235   3.8235   3.8235   3.9170   3.9170   3.9170   3.9170
     4.0698   4.0698   4.0698   4.0698   5.2616   5.2616   6.6045   6.6045
     7.1129   7.1129   7.7238   7.7238   7.7238   7.7238   7.7238   7.7238
     7.7238   7.7238   8.1284   8.9691   8.9691   8.9691   8.9692   9.0822
     9.6781

     occupation numbers 
     1.0000   1.0000   1.0000   1.0000   1.0000   1.0000   1.0000   1.0000
     1.0000   1.0000   1.0000   1.0000   1.0000   1.0000   1.0000   1.0000
     1.0000   1.0000   1.0000   1.0000   1.0000   1.0000   1.0000   1.0000
     1.0000   1.0000   1.0000   1.0000   1.0000   1.0000   1.0000   1.0000
     1.0000   1.0000   1.0165   1.0165   1.0165   1.0165   1.0165   1.0165
     1.0165   1.0165   0.1012  -0.0000  -0.0000  -0.0000  -0.0000  -0.0000
    -0.0000

     the Fermi energy is     7.9773 ev

!    total energy              =   -1066.55011496 Ry
     total all-electron energy =     -1066.550115 Ry
     estimated scf accuracy    <          4.6E-17 Ry
     smearing contrib. (-TS)   =      -0.00216184 Ry
     internal energy E=F+TS    =   -1066.54795312 Ry

     The total energy is F=E-TS. E is the sum of the following terms:
     one-electron contribution =      85.38464221 Ry
     hartree contribution      =       0.22201842 Ry
     xc contribution           =     -56.80715242 Ry
     ewald contribution        =    -146.01211044 Ry
     one-center paw contrib.   =    -949.33535090 Ry
      -> PAW hartree energy AE =       0.92247471 Ry
      -> PAW hartree energy PS =      -0.89451063 Ry
      -> PAW xc energy AE      =    -108.07406662 Ry
      -> PAW xc energy PS      =       2.56439766 Ry
      -> total E_H with PAW    =       0.24998249 Ry
      -> total E_XC with PAW   =    -162.31682138 Ry

     convergence has been achieved in  34 iterations

     negative rho (up, down):  1.870E-02 0.000E+00

     Forces acting on atoms (cartesian axes, Ry/au):

     atom    1 type  1   force =     0.00000000    0.00000000    0.00000000
     atom    2 type  1   force =     0.00000063   -0.00000063    0.00000000
     atom    3 type  1   force =    -0.00000063    0.00000063    0.00000000
     atom    4 type  1   force =     0.00000000   -0.00000063   -0.00000063
     atom    5 type  1   force =     0.00000111    0.00000111   -0.00000111
     atom    6 type  1   force =    -0.00000063   -0.00000000   -0.00000063
     atom    7 type  1   force =     0.00000000    0.00000063    0.00000063
     atom    8 type  1   force =     0.00000063   -0.00000000    0.00000063
     atom    9 type  1   force =    -0.00000111   -0.00000111    0.00000111
     atom   10 type  1   force =     0.00000063   -0.00000000   -0.00000063
     atom   11 type  1   force =    -0.00000111   -0.00000111   -0.00000111
     atom   12 type  1   force =    -0.00000000    0.00000063   -0.00000063
     atom   13 type  1   force =     0.00000111   -0.00000111    0.00000111
     atom   14 type  1   force =    -0.00000111    0.00000111    0.00000111
     atom   15 type  1   force =    -0.00000000    0.00000000    0.00000134
     atom   16 type  1   force =     0.00000063    0.00000063    0.00000000
     atom   17 type  1   force =    -0.00000134    0.00000000    0.00000000
     atom   18 type  1   force =     0.00000000   -0.00000134    0.00000000
     atom   19 type  1   force =    -0.00000063    0.00000000    0.00000063
     atom   20 type  1   force =    -0.00000000   -0.00000063    0.00000063
     atom   21 type  1   force =     0.00000111    0.00000111    0.00000111
     atom   22 type  1   force =    -0.00000063   -0.00000063    0.00000000
     atom   23 type  1   force =     0.00000000    0.00000134    0.00000000
     atom   24 type  1   force =     0.00000134    0.00000000   -0.00000000
     atom   25 type  1   force =    -0.00000111    0.00000111   -0.00000111
     atom   26 type  1   force =     0.00000000    0.00000000   -0.00000134
     atom   27 type  1   force =     0.00000111   -0.00000111   -0.00000111
     The non-local contrib.  to forces
     atom    1 type  1   force =     0.00000000    0.00000000   -0.00000000
     atom    2 type  1   force =    -0.00000316    0.00000316   -0.00000000
     atom    3 type  1   force =     0.00000316   -0.00000316    0.00000000
     atom    4 type  1   force =     0.00000000    0.00000316    0.00000316
     atom    5 type  1   force =     0.00000117    0.00000117   -0.00000117
     atom    6 type  1   force =     0.00000316    0.00000000    0.00000316
     atom    7 type  1   force =    -0.00000000   -0.00000316   -0.00000316
     atom    8 type  1   force =    -0.00000316    0.00000000   -0.00000316
     atom    9 type  1   force =    -0.00000117   -0.00000117    0.00000117
     atom   10 type  1   force =    -0.00000316   -0.00000000    0.00000316
     atom   11 type  1   force =    -0.00000117   -0.00000117   -0.00000117
     atom   12 type  1   force =     0.00000000   -0.00000316    0.00000316
     atom   13 type  1   force =     0.00000117   -0.00000117    0.00000117
     atom   14 type  1   force =    -0.00000117    0.00000117    0.00000117
     atom   15 type  1   force =     0.00000000    0.00000000   -0.00000050
     atom   16 type  1   force =    -0.00000316   -0.00000316    0.00000000
     atom   17 type  1   force =     0.00000050   -0.00000000    0.00000000
     atom   18 type  1   force =     0.00000000    0.00000050    0.00000000
     atom   19 type  1   force =     0.00000316    0.00000000   -0.00000316
     atom   20 type  1   force =     0.00000000    0.00000316   -0.00000316
     atom   21 type  1   force =     0.00000117    0.00000117    0.00000117
     atom   22 type  1   force =     0.00000316    0.00000316    0.00000000
     atom   23 type  1   force =    -0.00000000   -0.00000050   -0.00000000
     atom   24 type  1   force =    -0.00000050   -0.00000000    0.00000000
     atom   25 type  1   force =    -0.00000117    0.00000117   -0.00000117
     atom   26 type  1   force =     0.00000000    0.00000000    0.00000050
     atom   27 type  1   force =     0.00000117   -0.00000117   -0.00000117
     The ionic contribution  to forces
     atom    1 type  1   force =     0.00000000   -0.00000000   -0.00000000
     atom    2 type  1   force =    -0.00000491    0.00000491   -0.00000465
     atom    3 type  1   force =     0.00000491   -0.00000491    0.00000465
     atom    4 type  1   force =     0.00000465    0.00000491    0.00000491
     atom    5 type  1   force =    -0.00000027    0.00000983    0.00000027
     atom    6 type  1   force =     0.00000956    0.00000000    0.00000956
     atom    7 type  1   force =    -0.00000465   -0.00000491   -0.00000491
     atom    8 type  1   force =    -0.00000956   -0.00000000   -0.00000956
     atom    9 type  1   force =     0.00000027   -0.00000983   -0.00000027
     atom   10 type  1   force =    -0.00000491   -0.00000465    0.00000491
     atom   11 type  1   force =    -0.00000983    0.00000027    0.00000027
     atom   12 type  1   force =    -0.00000000   -0.00000956    0.00000956
     atom   13 type  1   force =    -0.00000027    0.00000027    0.00000983
     atom   14 type  1   force =    -0.00000518    0.00000518    0.00000518
     atom   15 type  1   force =     0.00000465   -0.00000465    0.00001447
     atom   16 type  1   force =    -0.00000956   -0.00000956    0.00000000
     atom   17 type  1   force =    -0.00001447   -0.00000465   -0.00000465
     atom   18 type  1   force =    -0.00000465   -0.00001447    0.00000465
     atom   19 type  1   force =     0.00000491    0.00000465   -0.00000491
     atom   20 type  1   force =     0.00000000    0.00000956   -0.00000956
     atom   21 type  1   force =     0.00000983   -0.00000027   -0.00000027
     atom   22 type  1   force =     0.00000956    0.00000956    0.00000000
     atom   23 type  1   force =     0.00000465    0.00001447   -0.00000465
     atom   24 type  1   force =     0.00001447    0.00000465    0.00000465
     atom   25 type  1   force =     0.00000027   -0.00000027   -0.00000983
     atom   26 type  1   force =    -0.00000465    0.00000465   -0.00001447
     atom   27 type  1   force =     0.00000518   -0.00000518   -0.00000518
     The local contribution  to forces
     atom    1 type  1   force =    -0.00000000   -0.00000000    0.00000000
     atom    2 type  1   force =     0.00001084   -0.00001084    0.00000000
     atom    3 type  1   force =    -0.00001084    0.00001084    0.00000000
     atom    4 type  1   force =    -0.00000000   -0.00001084   -0.00001084
     atom    5 type  1   force =     0.00000186   -0.00000908   -0.00000186
     atom    6 type  1   force =    -0.00001084   -0.00000000   -0.00001084
     atom    7 type  1   force =    -0.00000000    0.00001084    0.00001084
     atom    8 type  1   force =     0.00001084   -0.00000000    0.00001084
     atom    9 type  1   force =    -0.00000186    0.00000908    0.00000186
     atom   10 type  1   force =     0.00001084    0.00000000   -0.00001084
     atom   11 type  1   force =     0.00000908   -0.00000186   -0.00000186
     atom   12 type  1   force =     0.00000000    0.00001084   -0.00001084
     atom   13 type  1   force =     0.00000186   -0.00000186   -0.00000908
     atom   14 type  1   force =     0.00000908   -0.00000908   -0.00000908
     atom   15 type  1   force =     0.00000000    0.00000000   -0.00001262
     atom   16 type  1   force =     0.00001084    0.00001084   -0.00000000
     atom   17 type  1   force =     0.00001262   -0.00000000   -0.00000000
     atom   18 type  1   force =     0.00000000    0.00001262   -0.00000000
     atom   19 type  1   force =    -0.00001084    0.00000000    0.00001084
     atom   20 type  1   force =     0.00000000   -0.00001084    0.00001084
     atom   21 type  1   force =    -0.00000908    0.00000186    0.00000186
     atom   22 type  1   force =    -0.00001084   -0.00001084   -0.00000000
     atom   23 type  1   force =     0.00000000   -0.00001262   -0.00000000
     atom   24 type  1   force =    -0.00001262   -0.00000000   -0.00000000
     atom   25 type  1   force =    -0.00000186    0.00000186    0.00000908
     atom   26 type  1   force =     0.00000000   -0.00000000    0.00001262
     atom   27 type  1   force =    -0.00000908    0.00000908    0.00000908
     The core correction contribution to forces
     atom    1 type  1   force =    -0.00000000    0.00000000    0.00000000
     atom    2 type  1   force =     0.00000020   -0.00000020    0.00000000
     atom    3 type  1   force =    -0.00000020    0.00000020   -0.00000000
     atom    4 type  1   force =    -0.00000000   -0.00000020   -0.00000020
     atom    5 type  1   force =     0.00000017   -0.00000032   -0.00000017
     atom    6 type  1   force =    -0.00000020   -0.00000000   -0.00000020
     atom    7 type  1   force =     0.00000000    0.00000020    0.00000020
     atom    8 type  1   force =     0.00000020    0.00000000    0.00000020
     atom    9 type  1   force =    -0.00000017    0.00000032    0.00000017
     atom   10 type  1   force =     0.00000020    0.00000000   -0.00000020
     atom   11 type  1   force =     0.00000032   -0.00000017   -0.00000017
     atom   12 type  1   force =     0.00000000    0.00000020   -0.00000020
     atom   13 type  1   force =     0.00000017   -0.00000017   -0.00000032
     atom   14 type  1   force =     0.00000032   -0.00000032   -0.00000032
     atom   15 type  1   force =    -0.00000000    0.00000000   -0.00000001
     atom   16 type  1   force =     0.00000020    0.00000020   -0.00000000
     atom   17 type  1   force =     0.00000001    0.00000000    0.00000000
     atom   18 type  1   force =     0.00000000    0.00000001   -0.00000000
     atom   19 type  1   force =    -0.00000020   -0.00000000    0.00000020
     atom   20 type  1   force =    -0.00000000   -0.00000020    0.00000020
     atom   21 type  1   force =    -0.00000032    0.00000017    0.00000017
     atom   22 type  1   force =    -0.00000020   -0.00000020   -0.00000000
     atom   23 type  1   force =    -0.00000000   -0.00000001    0.00000000
     atom   24 type  1   force =    -0.00000001   -0.00000000   -0.00000000
     atom   25 type  1   force =    -0.00000017    0.00000017    0.00000032
     atom   26 type  1   force =     0.00000000   -0.00000000    0.00000001
     atom   27 type  1   force =    -0.00000032    0.00000032    0.00000032
     The Hubbard contrib.    to forces
     atom    1 type  1   force =     0.00000000    0.00000000    0.00000000
     atom    2 type  1   force =     0.00000000    0.00000000    0.00000000
     atom    3 type  1   force =     0.00000000    0.00000000    0.00000000
     atom    4 type  1   force =     0.00000000    0.00000000    0.00000000
     atom    5 type  1   force =     0.00000000    0.00000000    0.00000000
     atom    6 type  1   force =     0.00000000    0.00000000    0.00000000
     atom    7 type  1   force =     0.00000000    0.00000000    0.00000000
     atom    8 type  1   force =     0.00000000    0.00000000    0.00000000
     atom    9 type  1   force =     0.00000000    0.00000000    0.00000000
     atom   10 type  1   force =     0.00000000    0.00000000    0.00000000
     atom   11 type  1   force =     0.00000000    0.00000000    0.00000000
     atom   12 type  1   force =     0.00000000    0.00000000    0.00000000
     atom   13 type  1   force =     0.00000000    0.00000000    0.00000000
     atom   14 type  1   force =     0.00000000    0.00000000    0.00000000
     atom   15 type  1   force =     0.00000000    0.00000000    0.00000000
     atom   16 type  1   force =     0.00000000    0.00000000    0.00000000
     atom   17 type  1   force =     0.00000000    0.00000000    0.00000000
     atom   18 type  1   force =     0.00000000    0.00000000    0.00000000
     atom   19 type  1   force =     0.00000000    0.00000000    0.00000000
     atom   20 type  1   force =     0.00000000    0.00000000    0.00000000
     atom   21 type  1   force =     0.00000000    0.00000000    0.00000000
     atom   22 type  1   force =     0.00000000    0.00000000    0.00000000
     atom   23 type  1   force =     0.00000000    0.00000000    0.00000000
     atom   24 type  1   force =     0.00000000    0.00000000    0.00000000
     atom   25 type  1   force =     0.00000000    0.00000000    0.00000000
     atom   26 type  1   force =     0.00000000    0.00000000    0.00000000
     atom   27 type  1   force =     0.00000000    0.00000000    0.00000000
     The SCF correction term to forces
     atom    1 type  1   force =    -0.00000000   -0.00000000    0.00000000
     atom    2 type  1   force =     0.00000000   -0.00000000    0.00000000
     atom    3 type  1   force =    -0.00000000    0.00000000   -0.00000000
     atom    4 type  1   force =    -0.00000000   -0.00000000   -0.00000000
     atom    5 type  1   force =     0.00000000    0.00000000   -0.00000000
     atom    6 type  1   force =    -0.00000000    0.00000000   -0.00000000
     atom    7 type  1   force =     0.00000000    0.00000000    0.00000000
     atom    8 type  1   force =     0.00000000   -0.00000000    0.00000000
     atom    9 type  1   force =    -0.00000000   -0.00000000    0.00000000
     atom   10 type  1   force =     0.00000000    0.00000000   -0.00000000
     atom   11 type  1   force =    -0.00000000   -0.00000000   -0.00000000
     atom   12 type  1   force =    -0.00000000    0.00000000   -0.00000000
     atom   13 type  1   force =     0.00000000   -0.00000000    0.00000000
     atom   14 type  1   force =    -0.00000000    0.00000000    0.00000000
     atom   15 type  1   force =    -0.00000000    0.00000000   -0.00000000
     atom   16 type  1   force =     0.00000000    0.00000000    0.00000000
     atom   17 type  1   force =     0.00000000    0.00000000    0.00000000
     atom   18 type  1   force =     0.00000000    0.00000000   -0.00000000
     atom   19 type  1   force =    -0.00000000   -0.00000000    0.00000000
     atom   20 type  1   force =     0.00000000   -0.00000000    0.00000000
     atom   21 type  1   force =     0.00000000    0.00000000    0.00000000
     atom   22 type  1   force =    -0.00000000   -0.00000000    0.00000000
     atom   23 type  1   force =    -0.00000000   -0.00000000    0.00000000
     atom   24 type  1   force =    -0.00000000   -0.00000000   -0.00000000
     atom   25 type  1   force =    -0.00000000    0.00000000   -0.00000000
     atom   26 type  1   force =     0.00000000   -0.00000000    0.00000000
     atom   27 type  1   force =     0.00000000   -0.00000000   -0.00000000

     Total force =     0.000007     Total SCF correction =     0.000000


     Computing stress (Cartesian axis) and pressure


     negative rho (up, down):  1.870E-02 0.000E+00
          total   stress  (Ry/bohr**3)                   (kbar)     P=       -0.04
  -0.00000025   0.00000000   0.00000000           -0.04        0.00        0.00
  -0.00000000  -0.00000025   0.00000000           -0.00       -0.04        0.00
  -0.00000000  -0.00000000  -0.00000025           -0.00       -0.00       -0.04

     kinetic stress (kbar)   1464.97      0.00      0.00
                                0.00   1464.97     -0.00
                                0.00     -0.00   1464.97

     local   stress (kbar)    -46.88      0.00      0.00
                                0.00    -46.88     -0.00
                                0.00     -0.00    -46.88

     nonloc. stress (kbar)   1751.55      0.00     -0.00
                                0.00   1751.55     -0.00
                               -0.00     -0.00   1751.55

     hartree stress (kbar)      3.63      0.00     -0.00
                                0.00      3.63      0.00
                               -0.00      0.00      3.63

     exc-cor stress (kbar)    -86.34      0.00      0.00
                                0.00    -86.34     -0.00
                                0.00     -0.00    -86.34

     corecor stress (kbar)   -699.36     -0.00     -0.00
                               -0.00   -699.36      0.00
                               -0.00      0.00   -699.36

     ewald   stress (kbar)  -2387.59     -0.00     -0.00
                               -0.00  -2387.59      0.00
                               -0.00      0.00  -2387.59

     hubbard stress (kbar)      0.00      0.00      0.00
                                0.00      0.00      0.00
                                0.00      0.00      0.00

     DFT-D   stress (kbar)      0.00      0.00      0.00
                                0.00      0.00      0.00
                                0.00      0.00      0.00

     XDM     stress (kbar)      0.00      0.00      0.00
                                0.00      0.00      0.00
                                0.00      0.00      0.00

     dft-nl  stress (kbar)      0.00      0.00      0.00
                                0.00      0.00      0.00
                                0.00      0.00      0.00

     TS-vdW  stress (kbar)      0.00      0.00      0.00
                                0.00      0.00      0.00
                                0.00      0.00      0.00

     MDB     stress (kbar)      0.00      0.00      0.00
                                0.00      0.00      0.00
                                0.00      0.00      0.00

     3D-RISM stress (kbar)      0.00      0.00      0.00
                                0.00      0.00      0.00
                                0.00      0.00      0.00


     Writing all to output data dir ./tmp/al.save/ :
     XML data file, charge density, pseudopotentials, collected wavefunctions
 
     init_run     :      4.00s CPU      4.17s WALL (       1 calls)
     electrons    :     82.19s CPU     82.79s WALL (       1 calls)
     forces       :      0.34s CPU      0.35s WALL (       1 calls)
     stress       :      1.17s CPU      1.17s WALL (       1 calls)

     Called by init_run:
     wfcinit      :      3.65s CPU      3.74s WALL (       1 calls)
     wfcinit:atom :      0.05s CPU      0.05s WALL (      29 calls)
     wfcinit:wfcr :      3.32s CPU      3.41s WALL (      29 calls)
     potinit      :      0.24s CPU      0.30s WALL (       1 calls)
     hinit0       :      0.02s CPU      0.02s WALL (       1 calls)

     Called by electrons:
     c_bands      :     62.97s CPU     63.46s WALL (      35 calls)
     sum_band     :     12.10s CPU     12.20s WALL (      35 calls)
     v_of_rho     :      0.30s CPU      0.31s WALL (      35 calls)
     v_h          :      0.01s CPU      0.02s WALL (      35 calls)
     v_xc         :      0.31s CPU      0.31s WALL (      37 calls)
     newd         :      0.29s CPU      0.29s WALL (      35 calls)
     PAW_pot      :      6.67s CPU      6.73s WALL (      35 calls)
     mix_rho      :      0.08s CPU      0.08s WALL (      35 calls)

     Called by c_bands:
     init_us_2    :      2.52s CPU      2.54s WALL (    2117 calls)
     cegterg      :     58.54s CPU     59.01s WALL (    1015 calls)

     Called by sum_band:
     sum_band:wei :      0.03s CPU      0.03s WALL (      35 calls)
     sum_band:loo :     11.81s CPU     11.90s WALL (      35 calls)
     sum_band:buf :      0.18s CPU      0.18s WALL (    1015 calls)
     sum_band:ini :      1.09s CPU      1.09s WALL (    1015 calls)
     sum_band:cal :      1.74s CPU      1.74s WALL (    1015 calls)
     sum_band:bec :      0.03s CPU      0.03s WALL (    1015 calls)
     addusdens    :      0.20s CPU      0.20s WALL (      35 calls)
                                        0.00s GPU  (      35 calls)
     addusd:skk   :      0.03s CPU      0.03s WALL (      35 calls)
                                        0.00s GPU  (      35 calls)

     Called by *egterg:
     cdiaghg      :      4.06s CPU      4.06s WALL (    2911 calls)
     cegterg:over :      2.56s CPU      2.57s WALL (    1925 calls)
     cegterg:upda :      1.19s CPU      1.20s WALL (    1925 calls)
     cegterg:last :      1.76s CPU      1.76s WALL (    1477 calls)
     h_psi        :     45.60s CPU     46.12s WALL (    2969 calls)
     s_psi        :      4.12s CPU      4.12s WALL (    2969 calls)
     g_psi        :      0.13s CPU      0.13s WALL (    1925 calls)

     Called by h_psi:
     h_psi:calbec :      4.36s CPU      4.39s WALL (    2969 calls)
     vloc_psi     :     36.84s CPU     37.32s WALL (    2969 calls)
     add_vuspsi   :      3.99s CPU      4.01s WALL (    2969 calls)

     General routines
     calbec       :      6.94s CPU      6.98s WALL (    4477 calls)
     fft          :      0.12s CPU      0.12s WALL (     411 calls)
     ffts         :      0.01s CPU      0.01s WALL (      35 calls)
     fftw         :     38.64s CPU     39.14s WALL (  285337 calls)
 
     Parallel routines

     PAW routines
     PAW_pot      :      6.67s CPU      6.73s WALL (      35 calls)
     PAW_symme    :      0.01s CPU      0.01s WALL (      70 calls)
 
     PWSCF        :   1m27.89s CPU   1m28.83s WALL

 
   This run was terminated on:  10:19:21  16Jun2026            

=------------------------------------------------------------------------------=
   JOB DONE.
=------------------------------------------------------------------------------=
