
     Program PWSCF v.7.4 starts on 10Jun2026 at 20:41:34 

     This program is part of the open-source Quantum ESPRESSO suite
     for quantum simulation of materials; please cite
         "P. Giannozzi et al., J. Phys.:Condens. Matter 21 395502 (2009);
         "P. Giannozzi et al., J. Phys.:Condens. Matter 29 465901 (2017);
         "P. Giannozzi et al., J. Chem. Phys. 152 154105 (2020);
          URL http://www.quantum-espresso.org", 
     in publications or presentations arising from this work. More details at
     http://www.quantum-espresso.org/quote

     Parallel version (MPI), running on    12 processors

     MPI processes distributed on     1 nodes
     98669 MiB available memory on the printing compute node when the environment starts
 
     Reading input from ./scratch_runs/atom02_y_minus/atom02_y_minus.in

     Current dimensions of program PWSCF are:
     Max number of different atomic species (ntypx) = 10
     Max number of k-points (npk) =  40000
     Max angular momentum in pseudopotentials (lmaxx) =  4
     file Si_NC_PBE.upf: wavefunction(s)  4f renormalized
     Message from routine setup:
     using ibrav=0 with symmetry is DISCOURAGED, use correct ibrav instead
 
     R & G space division:  proc/nbgrp/npool/nimage =      12
     Subspace diagonalization in iterative solution of the eigenvalue problem:
     one sub-group per band group will be used
     custom distributed-memory algorithm (size of sub-group:  3*  3 procs)

 
     Parallelization info
     --------------------
     sticks:   dense  smooth     PW     G-vecs:    dense   smooth      PW
     Min         969     969    253                68876    68876    9161
     Max         970     970    254                68878    68878    9163
     Sum       11629   11629   3037               826517   826517  109939
 
     Using Slab Decomposition
 


     bravais-lattice index     =            0
     lattice parameter (alat)  =      29.0284  a.u.
     unit-cell volume          =   17296.4108 (a.u.)^3
     number of atoms/cell      =          128
     number of atomic types    =            1
     number of electrons       =       512.00
     number of Kohn-Sham states=          256
     kinetic-energy cutoff     =      50.0000  Ry
     charge density cutoff     =     200.0000  Ry
     scf convergence threshold =      1.0E-08
     mixing beta               =       0.7000
     number of iterations used =            8  plain     mixing
     Exchange-correlation= PBE
                           (   1   4   3   4   0   0   0)

     celldm(1)=  29.028438  celldm(2)=   0.000000  celldm(3)=   0.000000
     celldm(4)=   0.000000  celldm(5)=   0.000000  celldm(6)=   0.000000

     crystal axes: (cart. coord. in units of alat)
               a(1) = (  -0.707107   0.000000   0.707107 )  
               a(2) = (   0.000000   0.707107   0.707107 )  
               a(3) = (  -0.707107   0.707107   0.000000 )  

     reciprocal axes: (cart. coord. in units 2 pi/alat)
               b(1) = ( -0.707107 -0.707107  0.707107 )  
               b(2) = (  0.707107  0.707107  0.707107 )  
               b(3) = ( -0.707107  0.707107 -0.707107 )  


     PseudoPot. # 1 for Si read from file:
     ../../../pseudopotentzialak/Si_NC_PBE.upf
     MD5 check sum: 2f548285ada518390005852429903be6
     Pseudo is Norm-conserving, Zval =  4.0
     Generated using FHI98PP, converted with fhi2upf.x v.5.0.2
     Using radial grid of  495 points,  3 beta functions with: 
                l(1) =   0
                l(2) =   1
                l(3) =   3

     atomic species   valence    mass     pseudopotential
     Si                4.00    28.08600     Si( 1.00)

      4 Sym. Ops. (no inversion) found ( 2 have fractional translation)



   Cartesian axes

     site n.     atom                  positions (alat units)
         1        Si     tau(   1) = (   0.0000000   0.0000000   0.0000000  )
         2        Si     tau(   2) = (  -0.0883883   0.0877374   0.0883883  )
         3        Si     tau(   3) = (  -0.1767767   0.1767767   0.0000000  )
         4        Si     tau(   4) = (  -0.2651650   0.2651650   0.0883883  )
         5        Si     tau(   5) = (  -0.3535534   0.3535534   0.0000000  )
         6        Si     tau(   6) = (  -0.4419417   0.4419417   0.0883883  )
         7        Si     tau(   7) = (  -0.5303301   0.5303301   0.0000000  )
         8        Si     tau(   8) = (  -0.6187184   0.6187184   0.0883883  )
         9        Si     tau(   9) = (   0.0000000   0.1767767   0.1767767  )
        10        Si     tau(  10) = (  -0.0883883   0.2651650   0.2651650  )
        11        Si     tau(  11) = (  -0.1767767   0.3535534   0.1767767  )
        12        Si     tau(  12) = (  -0.2651650   0.4419417   0.2651650  )
        13        Si     tau(  13) = (  -0.3535534   0.5303301   0.1767767  )
        14        Si     tau(  14) = (  -0.4419417   0.6187184   0.2651650  )
        15        Si     tau(  15) = (  -0.5303301   0.7071068   0.1767767  )
        16        Si     tau(  16) = (  -0.6187184   0.7954951   0.2651650  )
        17        Si     tau(  17) = (   0.0000000   0.3535534   0.3535534  )
        18        Si     tau(  18) = (  -0.0883883   0.4419417   0.4419417  )
        19        Si     tau(  19) = (  -0.1767767   0.5303301   0.3535534  )
        20        Si     tau(  20) = (  -0.2651650   0.6187184   0.4419417  )
        21        Si     tau(  21) = (  -0.3535534   0.7071068   0.3535534  )
        22        Si     tau(  22) = (  -0.4419417   0.7954951   0.4419417  )
        23        Si     tau(  23) = (  -0.5303301   0.8838835   0.3535534  )
        24        Si     tau(  24) = (  -0.6187184   0.9722718   0.4419417  )
        25        Si     tau(  25) = (   0.0000000   0.5303301   0.5303301  )
        26        Si     tau(  26) = (  -0.0883883   0.6187184   0.6187184  )
        27        Si     tau(  27) = (  -0.1767767   0.7071068   0.5303301  )
        28        Si     tau(  28) = (  -0.2651650   0.7954951   0.6187184  )
        29        Si     tau(  29) = (  -0.3535534   0.8838835   0.5303301  )
        30        Si     tau(  30) = (  -0.4419417   0.9722718   0.6187184  )
        31        Si     tau(  31) = (  -0.5303301   1.0606602   0.5303301  )
        32        Si     tau(  32) = (  -0.6187184   1.1490485   0.6187184  )
        33        Si     tau(  33) = (  -0.1767767   0.0000000   0.1767767  )
        34        Si     tau(  34) = (  -0.2651650   0.0883883   0.2651650  )
        35        Si     tau(  35) = (  -0.3535534   0.1767767   0.1767767  )
        36        Si     tau(  36) = (  -0.4419417   0.2651650   0.2651650  )
        37        Si     tau(  37) = (  -0.5303301   0.3535534   0.1767767  )
        38        Si     tau(  38) = (  -0.6187184   0.4419417   0.2651650  )
        39        Si     tau(  39) = (  -0.7071068   0.5303301   0.1767767  )
        40        Si     tau(  40) = (  -0.7954951   0.6187184   0.2651650  )
        41        Si     tau(  41) = (  -0.1767767   0.1767767   0.3535534  )
        42        Si     tau(  42) = (  -0.2651650   0.2651650   0.4419417  )
        43        Si     tau(  43) = (  -0.3535534   0.3535534   0.3535534  )
        44        Si     tau(  44) = (  -0.4419417   0.4419417   0.4419417  )
        45        Si     tau(  45) = (  -0.5303301   0.5303301   0.3535534  )
        46        Si     tau(  46) = (  -0.6187184   0.6187184   0.4419417  )
        47        Si     tau(  47) = (  -0.7071068   0.7071068   0.3535534  )
        48        Si     tau(  48) = (  -0.7954951   0.7954951   0.4419417  )
        49        Si     tau(  49) = (  -0.1767767   0.3535534   0.5303301  )
        50        Si     tau(  50) = (  -0.2651650   0.4419417   0.6187184  )
        51        Si     tau(  51) = (  -0.3535534   0.5303301   0.5303301  )
        52        Si     tau(  52) = (  -0.4419417   0.6187184   0.6187184  )
        53        Si     tau(  53) = (  -0.5303301   0.7071068   0.5303301  )
        54        Si     tau(  54) = (  -0.6187184   0.7954951   0.6187184  )
        55        Si     tau(  55) = (  -0.7071068   0.8838835   0.5303301  )
        56        Si     tau(  56) = (  -0.7954951   0.9722718   0.6187184  )
        57        Si     tau(  57) = (  -0.1767767   0.5303301   0.7071068  )
        58        Si     tau(  58) = (  -0.2651650   0.6187184   0.7954951  )
        59        Si     tau(  59) = (  -0.3535534   0.7071068   0.7071068  )
        60        Si     tau(  60) = (  -0.4419417   0.7954951   0.7954951  )
        61        Si     tau(  61) = (  -0.5303301   0.8838835   0.7071068  )
        62        Si     tau(  62) = (  -0.6187184   0.9722718   0.7954951  )
        63        Si     tau(  63) = (  -0.7071068   1.0606602   0.7071068  )
        64        Si     tau(  64) = (  -0.7954951   1.1490485   0.7954951  )
        65        Si     tau(  65) = (  -0.3535534   0.0000000   0.3535534  )
        66        Si     tau(  66) = (  -0.4419417   0.0883883   0.4419417  )
        67        Si     tau(  67) = (  -0.5303301   0.1767767   0.3535534  )
        68        Si     tau(  68) = (  -0.6187184   0.2651650   0.4419417  )
        69        Si     tau(  69) = (  -0.7071068   0.3535534   0.3535534  )
        70        Si     tau(  70) = (  -0.7954951   0.4419417   0.4419417  )
        71        Si     tau(  71) = (  -0.8838835   0.5303301   0.3535534  )
        72        Si     tau(  72) = (  -0.9722718   0.6187184   0.4419417  )
        73        Si     tau(  73) = (  -0.3535534   0.1767767   0.5303301  )
        74        Si     tau(  74) = (  -0.4419417   0.2651650   0.6187184  )
        75        Si     tau(  75) = (  -0.5303301   0.3535534   0.5303301  )
        76        Si     tau(  76) = (  -0.6187184   0.4419417   0.6187184  )
        77        Si     tau(  77) = (  -0.7071068   0.5303301   0.5303301  )
        78        Si     tau(  78) = (  -0.7954951   0.6187184   0.6187184  )
        79        Si     tau(  79) = (  -0.8838835   0.7071068   0.5303301  )
        80        Si     tau(  80) = (  -0.9722718   0.7954951   0.6187184  )
        81        Si     tau(  81) = (  -0.3535534   0.3535534   0.7071068  )
        82        Si     tau(  82) = (  -0.4419417   0.4419417   0.7954951  )
        83        Si     tau(  83) = (  -0.5303301   0.5303301   0.7071068  )
        84        Si     tau(  84) = (  -0.6187184   0.6187184   0.7954951  )
        85        Si     tau(  85) = (  -0.7071068   0.7071068   0.7071068  )
        86        Si     tau(  86) = (  -0.7954951   0.7954951   0.7954951  )
        87        Si     tau(  87) = (  -0.8838835   0.8838835   0.7071068  )
        88        Si     tau(  88) = (  -0.9722718   0.9722718   0.7954951  )
        89        Si     tau(  89) = (  -0.3535534   0.5303301   0.8838835  )
        90        Si     tau(  90) = (  -0.4419417   0.6187184   0.9722718  )
        91        Si     tau(  91) = (  -0.5303301   0.7071068   0.8838835  )
        92        Si     tau(  92) = (  -0.6187184   0.7954951   0.9722718  )
        93        Si     tau(  93) = (  -0.7071068   0.8838835   0.8838835  )
        94        Si     tau(  94) = (  -0.7954951   0.9722718   0.9722718  )
        95        Si     tau(  95) = (  -0.8838835   1.0606602   0.8838835  )
        96        Si     tau(  96) = (  -0.9722718   1.1490485   0.9722718  )
        97        Si     tau(  97) = (  -0.5303301   0.0000000   0.5303301  )
        98        Si     tau(  98) = (  -0.6187184   0.0883883   0.6187184  )
        99        Si     tau(  99) = (  -0.7071068   0.1767767   0.5303301  )
       100        Si     tau( 100) = (  -0.7954951   0.2651650   0.6187184  )
       101        Si     tau( 101) = (  -0.8838835   0.3535534   0.5303301  )
       102        Si     tau( 102) = (  -0.9722718   0.4419417   0.6187184  )
       103        Si     tau( 103) = (  -1.0606602   0.5303301   0.5303301  )
       104        Si     tau( 104) = (  -1.1490485   0.6187184   0.6187184  )
       105        Si     tau( 105) = (  -0.5303301   0.1767767   0.7071068  )
       106        Si     tau( 106) = (  -0.6187184   0.2651650   0.7954951  )
       107        Si     tau( 107) = (  -0.7071068   0.3535534   0.7071068  )
       108        Si     tau( 108) = (  -0.7954951   0.4419417   0.7954951  )
       109        Si     tau( 109) = (  -0.8838835   0.5303301   0.7071068  )
       110        Si     tau( 110) = (  -0.9722718   0.6187184   0.7954951  )
       111        Si     tau( 111) = (  -1.0606602   0.7071068   0.7071068  )
       112        Si     tau( 112) = (  -1.1490485   0.7954951   0.7954951  )
       113        Si     tau( 113) = (  -0.5303301   0.3535534   0.8838835  )
       114        Si     tau( 114) = (  -0.6187184   0.4419417   0.9722718  )
       115        Si     tau( 115) = (  -0.7071068   0.5303301   0.8838835  )
       116        Si     tau( 116) = (  -0.7954951   0.6187184   0.9722718  )
       117        Si     tau( 117) = (  -0.8838835   0.7071068   0.8838835  )
       118        Si     tau( 118) = (  -0.9722718   0.7954951   0.9722718  )
       119        Si     tau( 119) = (  -1.0606602   0.8838835   0.8838835  )
       120        Si     tau( 120) = (  -1.1490485   0.9722718   0.9722718  )
       121        Si     tau( 121) = (  -0.5303301   0.5303301   1.0606602  )
       122        Si     tau( 122) = (  -0.6187184   0.6187184   1.1490485  )
       123        Si     tau( 123) = (  -0.7071068   0.7071068   1.0606602  )
       124        Si     tau( 124) = (  -0.7954951   0.7954951   1.1490485  )
       125        Si     tau( 125) = (  -0.8838835   0.8838835   1.0606602  )
       126        Si     tau( 126) = (  -0.9722718   0.9722718   1.1490485  )
       127        Si     tau( 127) = (  -1.0606602   1.0606602   1.0606602  )
       128        Si     tau( 128) = (  -1.1490485   1.1490485   1.1490485  )

     number of k points=     8
                       cart. coord. in units 2pi/alat
        k(    1) = (   0.0000000   0.0000000   0.0000000), wk =   0.0740741
        k(    2) = (  -0.2357023   0.2357023  -0.2357023), wk =   0.2962963
        k(    3) = (   0.0000000   0.4714045   0.0000000), wk =   0.1481481
        k(    4) = (   0.4714045  -0.0000000   0.4714045), wk =   0.1481481
        k(    5) = (  -0.2357023   0.2357023   0.2357023), wk =   0.2962963
        k(    6) = (   0.4714045   0.0000000   0.0000000), wk =   0.2962963
        k(    7) = (   0.0000000   0.4714045  -0.4714045), wk =   0.5925926
        k(    8) = (   0.4714045   0.0000000  -0.4714045), wk =   0.1481481

     Dense  grid:   826517 G-vectors     FFT dimensions: ( 144, 135, 135)

     Estimated max dynamical RAM per process >     673.78 MB

     Estimated total dynamical RAM >       7.90 GB

     Initial potential from superposition of free atoms

     starting charge     511.9097, renormalised to     512.0000
     Starting wfcs are 2048 randomized atomic wfcs

     total cpu time spent up to now is      484.3 secs

     per-process dynamical memory:   591.6 Mb

     Self-consistent Calculation

     iteration #  1     ecut=    50.00 Ry     beta= 0.70
     Davidson diagonalization with overlap
     ethr =  1.00E-02,  avg # of iterations =  2.0

     Threshold (ethr) on eigenvalues was too large:
     Diagonalizing with lowered threshold

     Davidson diagonalization with overlap
     ethr =  6.72E-04,  avg # of iterations =  1.0

     total cpu time spent up to now is      691.8 secs

     total energy              =   -1008.61815407 Ry
     estimated scf accuracy    <       3.59458870 Ry

     iteration #  2     ecut=    50.00 Ry     beta= 0.70
     Davidson diagonalization with overlap
     ethr =  7.02E-04,  avg # of iterations =  1.0

     total cpu time spent up to now is      789.9 secs

     total energy              =   -1008.77137011 Ry
     estimated scf accuracy    <       0.16722526 Ry

     iteration #  3     ecut=    50.00 Ry     beta= 0.70
     Davidson diagonalization with overlap
     ethr =  3.27E-05,  avg # of iterations =  2.0

     total cpu time spent up to now is      916.7 secs

     total energy              =   -1008.79432829 Ry
     estimated scf accuracy    <       0.00319244 Ry

     iteration #  4     ecut=    50.00 Ry     beta= 0.70
     Davidson diagonalization with overlap
     ethr =  6.24E-07,  avg # of iterations =  5.0

     total cpu time spent up to now is     1092.4 secs

     total energy              =   -1008.79590306 Ry
     estimated scf accuracy    <       0.00036395 Ry

     iteration #  5     ecut=    50.00 Ry     beta= 0.70
     Davidson diagonalization with overlap
     ethr =  7.11E-08,  avg # of iterations =  3.6

     total cpu time spent up to now is     1239.8 secs

     total energy              =   -1008.79604333 Ry
     estimated scf accuracy    <       0.00007615 Ry

     iteration #  6     ecut=    50.00 Ry     beta= 0.70
     Davidson diagonalization with overlap
     ethr =  1.49E-08,  avg # of iterations =  2.8

     total cpu time spent up to now is     1369.8 secs

     total energy              =   -1008.79605246 Ry
     estimated scf accuracy    <       0.00001565 Ry

     iteration #  7     ecut=    50.00 Ry     beta= 0.70
     Davidson diagonalization with overlap
     ethr =  3.06E-09,  avg # of iterations =  2.2

     total cpu time spent up to now is     1497.2 secs

     total energy              =   -1008.79605488 Ry
     estimated scf accuracy    <       0.00000084 Ry

     iteration #  8     ecut=    50.00 Ry     beta= 0.70
     Davidson diagonalization with overlap
     ethr =  1.64E-10,  avg # of iterations =  5.1

     total cpu time spent up to now is     1667.9 secs

     total energy              =   -1008.79605534 Ry
     estimated scf accuracy    <       0.00000040 Ry

     iteration #  9     ecut=    50.00 Ry     beta= 0.70
     Davidson diagonalization with overlap
     ethr =  7.89E-11,  avg # of iterations =  2.0

     total cpu time spent up to now is     1790.9 secs

     total energy              =   -1008.79605535 Ry
     estimated scf accuracy    <       0.00000025 Ry

     iteration # 10     ecut=    50.00 Ry     beta= 0.70
     Davidson diagonalization with overlap
     ethr =  4.86E-11,  avg # of iterations =  2.0

     total cpu time spent up to now is     1899.0 secs

     total energy              =   -1008.79605534 Ry
     estimated scf accuracy    <       0.00000008 Ry

     iteration # 11     ecut=    50.00 Ry     beta= 0.70
     Davidson diagonalization with overlap
     ethr =  1.64E-11,  avg # of iterations =  2.8

     total cpu time spent up to now is     2027.3 secs

     End of self-consistent calculation

          k = 0.0000 0.0000 0.0000 (103379 PWs)   bands (ev):

    -5.7481  -4.9486  -4.9477  -4.9475  -4.9475  -4.9474  -4.9473  -4.9471
    -4.9463  -4.6658  -4.6651  -4.6648  -4.6648  -4.6646  -4.6639  -3.7042
    -3.7028  -3.7023  -3.7022  -3.7022  -3.7021  -3.7021  -3.7021  -3.7021
    -3.7020  -3.7015  -3.7001  -3.4151  -3.4147  -3.4143  -3.4139  -3.0314
    -3.0290  -3.0278  -3.0277  -3.0276  -3.0275  -3.0275  -3.0275  -3.0274
    -3.0274  -3.0274  -3.0274  -3.0274  -3.0274  -3.0273  -3.0273  -3.0273
    -3.0273  -3.0273  -3.0272  -3.0271  -3.0270  -3.0258  -3.0233  -1.6010
    -1.6005  -1.6000  -1.6000  -1.5995  -1.5990  -1.4384  -1.4376  -1.4367
    -1.4366  -1.4365  -1.4365  -1.4365  -1.4364  -1.4364  -1.4363  -1.4354
    -1.4345  -0.7504  -0.7498  -0.7496  -0.7490  -0.1683  -0.1671  -0.1650
    -0.1650  -0.1649  -0.1648  -0.1648  -0.1648  -0.1648  -0.1647  -0.1647
    -0.1647  -0.1647  -0.1646  -0.1646  -0.1646  -0.1646  -0.1646  -0.1645
    -0.1645  -0.1644  -0.1643  -0.1623  -0.1610   0.7359   0.7360   0.7373
     0.7373   0.7373   0.7374   0.7374   0.7375   0.7375   0.7375   0.7388
     0.7389   2.2917   2.2920   2.2924   2.2926   2.2928   2.2930   2.2934
     2.2937   2.3721   2.3729   2.3730   2.3731   2.3732   2.3732   2.3732
     2.3733   2.3734   2.3735   2.3736   2.3744   2.4718   2.4719   2.4721
     2.4726   2.4727   2.4727   2.4727   2.4727   2.4728   2.4734   2.4735
     2.4736   2.6877   2.6882   2.6893   2.6898   2.6898   2.6899   2.6900
     2.6900   2.6900   2.6901   2.6901   2.6901   2.6901   2.6902   2.6902
     2.6902   2.6902   2.6903   2.6903   2.6904   2.6904   2.6909   2.6916
     2.6922   2.6974   2.6977   2.6981   2.6981   2.6988   2.6993   3.3703
     3.3707   3.3707   3.3707   3.3708   3.3712   4.0155   4.0169   4.0178
     4.0178   4.0178   4.0180   4.0180   4.0181   4.0181   4.0181   4.0182
     4.0182   4.0182   4.0182   4.0183   4.0183   4.0183   4.0183   4.0183
     4.0185   4.0186   4.0186   4.0195   4.0209   4.3321   4.3334   4.3337
     4.3337   4.3338   4.3338   4.3338   4.3338   4.3339   4.3339   4.3342
     4.3355   4.8929   4.8939   4.8944   4.8945   4.8946   4.8947   4.8947
     4.8947   4.8948   4.8949   4.8955   4.8964   5.0217   5.0226   5.0228
     5.0229   5.0230   5.0231   5.0234   5.0243   5.4592   5.4620   5.4621
     5.4622   5.4622   5.4623   5.4623   5.4624   5.4624   5.4624   5.4624
     5.4625   5.4626   5.4627   5.4628   5.4656   6.2203   6.2210   6.2218

          k =-0.2357 0.2357-0.2357 (103269 PWs)   bands (ev):

    -5.6570  -5.3865  -5.0311  -5.0309  -5.0304  -4.9361  -4.9359  -4.9354
    -4.6890  -4.6889  -4.6883  -4.3698  -4.2653  -4.2651  -4.2646  -4.2281
    -4.2279  -4.2273  -3.7489  -3.6523  -3.6520  -3.6515  -3.6249  -3.6248
    -3.6244  -3.6243  -3.6243  -3.6231  -3.3956  -3.3955  -3.3951  -3.3950
    -3.3950  -3.3939  -3.3772  -3.3772  -3.3764  -3.2551  -3.2551  -3.2543
    -3.0801  -3.0797  -3.0793  -2.7042  -2.7037  -2.7032  -2.6772  -2.6772
    -2.6764  -2.5475  -2.5475  -2.5471  -2.5470  -2.5470  -2.5458  -2.1976
    -2.1976  -2.1967  -1.9971  -1.9971  -1.9966  -1.9966  -1.9965  -1.9954
    -0.9338  -0.9337  -0.9329  -0.9329  -0.9328  -0.9326  -0.9326  -0.9325
    -0.9311  -0.6473  -0.6467  -0.6462  -0.5792  -0.5790  -0.5778  -0.5201
    -0.5201  -0.5195  -0.5194  -0.5194  -0.5183  -0.3869  -0.3864  -0.3859
    -0.3489  -0.3488  -0.3479  -0.2438  -0.0854  -0.0852  -0.0842   0.1919
     0.1920   0.1927   0.1928   0.1928   0.1938   0.5495   0.5497   0.5504
     0.5505   0.5505   0.5514   0.7608   0.7610   0.7619   0.8861   1.3590
     1.3591   1.3598   1.7887   1.7890   1.7898   1.8176   1.8177   1.8183
     2.1413   2.1416   2.1418   2.1419   2.1420   2.1423   2.2079   2.2080
     2.2085   2.2759   2.2762   2.2765   2.2765   2.2768   2.2772   2.3269
     2.3270   2.3275   2.5933   2.5934   2.5938   2.7102   2.7104   2.7108
     2.7109   2.7112   2.7114   2.7890   2.7892   2.7897   2.9209   2.9214
     2.9215   2.9216   2.9217   2.9223   2.9993   2.9995   3.0002   3.0002
     3.0005   3.0005   3.0495   3.0495   3.0500   3.0903   3.0906   3.0912
     3.2363   3.2364   3.2370   3.3211   3.3211   3.3217   3.4455   3.4456
     3.4461   3.4463   3.4466   3.4470   3.6029   3.6032   3.6033   3.6034
     3.6036   3.6043   3.6686   3.6690   3.6691   3.8384   3.8682   3.8683
     3.8689   3.9792   3.9797   3.9799   4.0866   4.0871   4.0873   4.0972
     4.0974   4.0975   4.0976   4.0980   4.0987   4.1976   4.1980   4.1983
     4.4398   4.4400   4.4407   4.4461   4.4465   4.4467   4.5022   4.5027
     4.5030   4.5326   4.5328   4.5334   4.5683   4.5684   4.5686   4.5686
     4.5690   4.5700   4.6823   4.6823   4.6833   4.6957   4.6962   4.6964
     4.8456   4.8462   4.8463   5.0724   5.0732   5.1153   5.1159   5.1161
     5.2210   5.2218   5.2921   5.2928   5.2929   5.2941   5.2942   5.2953
     5.3604   5.5377   5.5385   5.5387   5.7710   5.7719   6.0771   6.0780

          k = 0.0000 0.4714 0.0000 (103250 PWs)   bands (ev):

    -5.6264  -5.2634  -5.1782  -5.1782  -5.1780  -5.1779  -4.5545  -4.5543
    -4.5542  -4.5540  -4.4945  -4.4944  -4.4941  -4.4941  -4.2278  -4.2275
    -4.2275  -4.2273  -3.8420  -3.8389  -3.8389  -3.8386  -3.8383  -3.6405
    -3.6402  -3.6398  -3.6396  -3.4985  -3.4981  -3.4977  -3.4974  -3.1373
    -3.1373  -3.1369  -3.1367  -3.1367  -3.1366  -3.1362  -3.1362  -3.0144
    -3.0140  -3.0140  -3.0137  -2.8987  -2.8986  -2.8980  -2.8979  -2.8979
    -2.8977  -2.8972  -2.8971  -2.8113  -2.2286  -2.2284  -2.2282  -2.2279
    -2.2086  -2.2081  -2.2077  -2.2071  -1.5625  -1.5620  -1.5620  -1.5615
    -1.4810  -1.4804  -1.4804  -1.4799  -0.8400  -0.8397  -0.8393  -0.8389
    -0.7030  -0.7026  -0.7026  -0.7022  -0.5149  -0.5143  -0.5137  -0.5136
    -0.5136  -0.5135  -0.5129  -0.5123  -0.4694  -0.4690  -0.4687  -0.4682
    -0.2450  -0.0003   0.0001   0.0002   0.0006   0.1940   0.1941   0.1951
     0.1951   0.1953   0.1953   0.1962   0.1963   0.2124   0.2126   0.2131
     0.2135   0.5476   0.5477   0.5480   0.5481   1.2056   1.3533   1.3535
     1.3538   1.3539   1.5288   1.5294   1.5294   1.5300   2.0144   2.0149
     2.0149   2.0152   2.0169   2.0170   2.0171   2.0172   2.0747   2.0749
     2.0749   2.0750   2.2955   2.2963   2.2963   2.2971   2.5807   2.5807
     2.5807   2.5807   2.7533   2.7536   2.7541   2.7541   2.7545   2.7545
     2.7550   2.7552   2.7972   2.7972   2.7973   2.7974   2.7975   2.7976
     2.7977   2.7977   3.0653   3.0654   3.0655   3.0656   3.1261   3.1264
     3.1265   3.1268   3.1463   3.1465   3.1466   3.1467   3.1756   3.1757
     3.1759   3.1761   3.2751   3.2755   3.2759   3.2763   3.4801   3.4807
     3.5948   3.5951   3.5954   3.5955   3.5955   3.5957   3.5960   3.5963
     3.7897   3.7899   3.7901   3.7904   3.8055   3.8061   3.8220   3.8226
     3.8228   3.8235   3.8943   3.8948   3.8949   3.8954   4.0788   4.0790
     4.0793   4.0793   4.0794   4.0794   4.0797   4.0799   4.1466   4.1470
     4.1470   4.1473   4.1756   4.3445   4.3447   4.3449   4.3452   4.3922
     4.3930   4.3932   4.3939   4.5960   4.5962   4.5962   4.5964   4.8373
     4.8374   4.8374   4.8375   4.9047   4.9057   4.9059   4.9067   4.9240
     4.9249   4.9252   4.9261   4.9407   4.9408   4.9412   4.9413   4.9497
     4.9500   4.9501   4.9505   4.9880   4.9890   4.9892   4.9902   5.0302
     5.0311   5.5217   5.7919   5.7931   5.8663   5.8676   5.8678   5.8691

          k = 0.4714-0.0000 0.4714 (103149 PWs)   bands (ev):

    -5.5058  -5.4156  -5.4149  -5.1463  -5.1460  -4.7976  -4.7097  -4.7095
    -4.7092  -4.7085  -4.4477  -4.4467  -4.1341  -4.1337  -4.1334  -4.1323
    -4.0806  -4.0799  -4.0216  -4.0214  -4.0210  -4.0204  -3.8687  -3.8676
    -3.7431  -3.7429  -3.5117  -3.5112  -3.5111  -3.5101  -3.4565  -3.4559
    -3.3071  -3.3059  -3.1728  -3.1720  -3.1410  -3.1402  -3.0345  -3.0340
    -3.0337  -3.0330  -2.8324  -2.8319  -2.8318  -2.8303  -2.7341  -2.7335
    -2.5202  -2.5201  -2.4813  -2.4769  -2.4764  -2.4761  -2.4754  -2.4713
    -2.4704  -2.1051  -2.1046  -2.1044  -2.1038  -1.9501  -1.9489  -1.7419
    -1.3367  -1.0389  -1.0383  -0.9254  -0.9248  -0.9247  -0.9246  -0.6400
    -0.6395  -0.6260  -0.6259  -0.5906  -0.5904  -0.5901  -0.5893  -0.5526
    -0.5459  -0.5453  -0.4262  -0.4250  -0.3266  -0.3265  -0.3261  -0.3251
    -0.2819  -0.2817  -0.1972  -0.1969  -0.1967  -0.1961  -0.1422  -0.1417
    -0.1410  -0.1408   0.1232   0.1240   0.4196   0.4203   0.5035   0.5044
     0.5727   0.5728   0.9481   0.9481   0.9489   0.9491   1.0301   1.0313
     1.2463   1.2468   1.2468   1.2481   1.7817   1.7824   1.8132   1.9751
     1.9755   1.9876   1.9877   1.9880   1.9883   2.2153   2.2159   2.2488
     2.2495   2.2499   2.2500   2.3079   2.3082   2.3086   2.3090   2.3801
     2.4568   2.4571   2.4730   2.4732   2.4735   2.4735   2.5008   2.6354
     2.6356   2.6362   2.6364   2.6555   2.6559   3.0754   3.0756   3.1008
     3.1010   3.2320   3.2321   3.2532   3.2533   3.2536   3.2537   3.2972
     3.2978   3.3204   3.3213   3.3563   3.3568   3.3571   3.3574   3.3848
     3.3849   3.4506   3.4514   3.4633   3.4635   3.4889   3.4895   3.5635
     3.5926   3.5926   3.5929   3.5938   3.6237   3.6247   3.6590   3.6591
     3.6596   3.6597   3.6623   3.6632   3.7868   3.7870   3.7873   3.7882
     3.8016   3.8016   3.8020   3.8024   3.8121   3.8122   3.8124   3.9295
     3.9305   4.0572   4.0572   4.0576   4.0591   4.1109   4.2293   4.2299
     4.2517   4.2519   4.2520   4.2526   4.2898   4.2904   4.3079   4.3080
     4.3081   4.3085   4.3726   4.3728   4.4763   4.4776   4.5752   4.5754
     4.5904   4.5906   4.6283   4.6293   4.6304   4.6450   4.6451   4.6669
     4.6671   4.6672   4.6691   4.8145   4.8158   4.9131   4.9131   4.9134
     4.9144   5.2274   5.2287   5.2400   5.2402   5.2404   5.2408   5.3599
     5.4279   5.4293   5.5150   5.5164   5.6175   5.6183   5.6559   6.1022

          k =-0.2357 0.2357 0.2357 (103269 PWs)   bands (ev):

    -5.6569  -5.3864  -5.0313  -5.0307  -5.0305  -4.9363  -4.9357  -4.9355
    -4.6892  -4.6886  -4.6884  -4.3697  -4.2654  -4.2648  -4.2647  -4.2282
    -4.2276  -4.2274  -3.7486  -3.6523  -3.6518  -3.6515  -3.6256  -3.6244
    -3.6244  -3.6243  -3.6239  -3.6238  -3.3963  -3.3951  -3.3951  -3.3950
    -3.3946  -3.3945  -3.3776  -3.3768  -3.3768  -3.2555  -3.2547  -3.2546
    -3.0799  -3.0794  -3.0791  -2.7038  -2.7033  -2.7028  -2.6776  -2.6767
    -2.6767  -2.5482  -2.5471  -2.5471  -2.5470  -2.5465  -2.5465  -2.1979
    -2.1971  -2.1970  -1.9977  -1.9966  -1.9966  -1.9965  -1.9960  -1.9960
    -0.9344  -0.9330  -0.9329  -0.9329  -0.9326  -0.9326  -0.9325  -0.9317
    -0.9317  -0.6470  -0.6465  -0.6459  -0.5803  -0.5791  -0.5788  -0.5205
    -0.5195  -0.5195  -0.5194  -0.5188  -0.5187  -0.3867  -0.3861  -0.3856
    -0.3489  -0.3481  -0.3479  -0.2445  -0.0863  -0.0852  -0.0850   0.1918
     0.1927   0.1927   0.1928   0.1935   0.1937   0.5496   0.5504   0.5505
     0.5506   0.5513   0.5515   0.7601   0.7610   0.7612   0.8855   1.3587
     1.3594   1.3596   1.7882   1.7891   1.7894   1.8175   1.8181   1.8182
     2.1413   2.1416   2.1418   2.1418   2.1420   2.1423   2.2080   2.2084
     2.2085   2.2759   2.2763   2.2766   2.2766   2.2768   2.2772   2.3269
     2.3274   2.3276   2.5928   2.5932   2.5933   2.7103   2.7105   2.7109
     2.7109   2.7114   2.7115   2.7891   2.7897   2.7899   2.9208   2.9214
     2.9215   2.9216   2.9217   2.9222   2.9998   2.9999   3.0001   3.0002
     3.0008   3.0011   3.0491   3.0496   3.0496   3.0906   3.0911   3.0915
     3.2363   3.2370   3.2371   3.3207   3.3213   3.3213   3.4447   3.4455
     3.4456   3.4466   3.4467   3.4470   3.6025   3.6033   3.6034   3.6035
     3.6037   3.6040   3.6689   3.6691   3.6694   3.8378   3.8682   3.8688
     3.8689   3.9795   3.9797   3.9802   4.0869   4.0871   4.0876   4.0963
     4.0970   4.0974   4.0975   4.0976   4.0978   4.1978   4.1981   4.1986
     4.4390   4.4398   4.4400   4.4465   4.4466   4.4471   4.5025   4.5027
     4.5033   4.5320   4.5327   4.5329   4.5673   4.5682   4.5687   4.5687
     4.5688   4.5689   4.6813   4.6822   4.6822   4.6961   4.6962   4.6968
     4.8462   4.8463   4.8468   5.0726   5.0734   5.1158   5.1160   5.1166
     5.2212   5.2220   5.2923   5.2929   5.2934   5.2935   5.2940   5.2943
     5.3597   5.5384   5.5386   5.5394   5.7714   5.7722   6.0775   6.0784

          k = 0.4714 0.0000 0.0000 (103250 PWs)   bands (ev):

    -5.6264  -5.2634  -5.1787  -5.1782  -5.1780  -5.1775  -4.5550  -4.5542
    -4.5542  -4.5535  -4.4948  -4.4943  -4.4942  -4.4937  -4.2283  -4.2276
    -4.2275  -4.2268  -3.8417  -3.8393  -3.8389  -3.8387  -3.8382  -3.6408
    -3.6403  -3.6398  -3.6393  -3.4986  -3.4981  -3.4977  -3.4972  -3.1384
    -3.1371  -3.1368  -3.1368  -3.1367  -3.1367  -3.1364  -3.1351  -3.0147
    -3.0141  -3.0140  -3.0133  -2.8993  -2.8983  -2.8980  -2.8979  -2.8978
    -2.8978  -2.8975  -2.8964  -2.8113  -2.2289  -2.2283  -2.2282  -2.2276
    -2.2084  -2.2081  -2.2077  -2.2074  -1.5628  -1.5620  -1.5620  -1.5612
    -1.4812  -1.4804  -1.4804  -1.4796  -0.8400  -0.8397  -0.8393  -0.8390
    -0.7033  -0.7026  -0.7026  -0.7019  -0.5149  -0.5140  -0.5136  -0.5136
    -0.5136  -0.5136  -0.5132  -0.5123  -0.4696  -0.4689  -0.4688  -0.4681
    -0.2450  -0.0006   0.0001   0.0002   0.0009   0.1940   0.1946   0.1952
     0.1952   0.1952   0.1953   0.1958   0.1964   0.2121   0.2128   0.2129
     0.2136   0.5471   0.5478   0.5479   0.5486   1.2056   1.3529   1.3535
     1.3538   1.3544   1.5287   1.5294   1.5295   1.5302   2.0145   2.0148
     2.0150   2.0151   2.0167   2.0169   2.0171   2.0174   2.0745   2.0747
     2.0750   2.0752   2.2957   2.2963   2.2963   2.2969   2.5803   2.5806
     2.5808   2.5811   2.7536   2.7539   2.7541   2.7543   2.7543   2.7545
     2.7546   2.7550   2.7968   2.7969   2.7974   2.7974   2.7975   2.7975
     2.7980   2.7981   3.0651   3.0653   3.0656   3.0658   3.1261   3.1263
     3.1266   3.1269   3.1460   3.1465   3.1465   3.1471   3.1752   3.1757
     3.1759   3.1765   3.2751   3.2756   3.2758   3.2763   3.4804   3.4804
     3.5947   3.5953   3.5954   3.5955   3.5956   3.5957   3.5958   3.5964
     3.7893   3.7899   3.7901   3.7907   3.8058   3.8058   3.8224   3.8227
     3.8228   3.8231   3.8945   3.8948   3.8949   3.8952   4.0784   4.0789
     4.0792   4.0793   4.0794   4.0795   4.0798   4.0803   4.1464   4.1470
     4.1470   4.1476   4.1756   4.3440   4.3447   4.3449   4.3456   4.3927
     4.3931   4.3931   4.3934   4.5956   4.5961   4.5963   4.5967   4.8368
     4.8372   4.8376   4.8380   4.9055   4.9058   4.9058   4.9061   4.9246
     4.9249   4.9251   4.9255   4.9402   4.9410   4.9410   4.9418   4.9495
     4.9499   4.9502   4.9508   4.9887   4.9890   4.9892   4.9895   5.0306
     5.0307   5.5217   5.7925   5.7925   5.8675   5.8676   5.8678   5.8679

          k = 0.0000 0.4714-0.4714 (103149 PWs)   bands (ev):

    -5.5058  -5.4152  -5.4152  -5.1464  -5.1459  -4.7975  -4.7098  -4.7093
    -4.7092  -4.7087  -4.4472  -4.4471  -4.1338  -4.1335  -4.1333  -4.1330
    -4.0803  -4.0801  -4.0217  -4.0211  -4.0210  -4.0205  -3.8682  -3.8680
    -3.7432  -3.7427  -3.5116  -3.5112  -3.5111  -3.5107  -3.4565  -3.4560
    -3.3065  -3.3064  -3.1728  -3.1724  -3.1406  -3.1403  -3.0343  -3.0337
    -3.0337  -3.0331  -2.8320  -2.8317  -2.8316  -2.8313  -2.7342  -2.7336
    -2.5203  -2.5196  -2.4811  -2.4767  -2.4761  -2.4760  -2.4755  -2.4712
    -2.4708  -2.1051  -2.1045  -2.1045  -2.1040  -1.9500  -1.9499  -1.7415
    -1.3372  -1.0385  -1.0377  -0.9254  -0.9248  -0.9247  -0.9241  -0.6398
    -0.6390  -0.6261  -0.6253  -0.5911  -0.5903  -0.5903  -0.5895  -0.5532
    -0.5464  -0.5456  -0.4260  -0.4258  -0.3272  -0.3264  -0.3264  -0.3256
    -0.2820  -0.2812  -0.1974  -0.1966  -0.1965  -0.1958  -0.1418  -0.1411
    -0.1410  -0.1403   0.1230   0.1237   0.4198   0.4201   0.5033   0.5039
     0.5728   0.5736   0.9481   0.9487   0.9488   0.9494   1.0303   1.0305
     1.2462   1.2468   1.2468   1.2474   1.7816   1.7822   1.8131   1.9754
     1.9756   1.9875   1.9879   1.9880   1.9885   2.2152   2.2153   2.2491
     2.2497   2.2498   2.2504   2.3081   2.3084   2.3085   2.3088   2.3798
     2.4567   2.4572   2.4728   2.4732   2.4732   2.4736   2.5003   2.6358
     2.6361   2.6363   2.6366   2.6556   2.6558   3.0756   3.0758   3.1008
     3.1009   3.2316   3.2321   3.2531   3.2535   3.2535   3.2539   3.2972
     3.2976   3.3204   3.3207   3.3569   3.3571   3.3573   3.3575   3.3847
     3.3851   3.4505   3.4509   3.4633   3.4638   3.4895   3.4899   3.5638
     3.5924   3.5929   3.5929   3.5934   3.6237   3.6238   3.6589   3.6593
     3.6595   3.6600   3.6630   3.6630   3.7868   3.7872   3.7873   3.7877
     3.8015   3.8019   3.8020   3.8024   3.8121   3.8124   3.8129   3.9294
     3.9298   4.0573   4.0575   4.0576   4.0577   4.1113   4.2289   4.2297
     4.2514   4.2518   4.2520   4.2524   4.2896   4.2903   4.3075   4.3079
     4.3082   4.3086   4.3722   4.3727   4.4773   4.4774   4.5752   4.5758
     4.5904   4.5904   4.6277   4.6302   4.6303   4.6445   4.6451   4.6668
     4.6671   4.6672   4.6676   4.8156   4.8157   4.9127   4.9134   4.9134
     4.9141   5.2285   5.2286   5.2396   5.2402   5.2406   5.2413   5.3600
     5.4291   5.4291   5.5151   5.5152   5.6171   5.6180   5.6565   6.1029

          k = 0.4714 0.0000-0.4714 (103149 PWs)   bands (ev):

    -5.5058  -5.4156  -5.4148  -5.1463  -5.1460  -4.7975  -4.7100  -4.7093
    -4.7090  -4.7088  -4.4477  -4.4466  -4.1346  -4.1334  -4.1331  -4.1327
    -4.0804  -4.0798  -4.0218  -4.0211  -4.0208  -4.0206  -3.8685  -3.8675
    -3.7430  -3.7428  -3.5122  -3.5112  -3.5111  -3.5106  -3.4567  -3.4561
    -3.3070  -3.3059  -3.1732  -3.1723  -3.1406  -3.1399  -3.0344  -3.0337
    -3.0334  -3.0329  -2.8330  -2.8316  -2.8314  -2.8309  -2.7343  -2.7337
    -2.5198  -2.5198  -2.4808  -2.4769  -2.4760  -2.4758  -2.4752  -2.4714
    -2.4708  -2.1053  -2.1046  -2.1045  -2.1040  -1.9509  -1.9497  -1.7410
    -1.3377  -1.0379  -1.0373  -0.9250  -0.9248  -0.9247  -0.9241  -0.6392
    -0.6388  -0.6254  -0.6253  -0.5914  -0.5905  -0.5902  -0.5900  -0.5536
    -0.5468  -0.5461  -0.4269  -0.4257  -0.3277  -0.3267  -0.3263  -0.3262
    -0.2816  -0.2813  -0.1970  -0.1964  -0.1963  -0.1960  -0.1413  -0.1411
    -0.1404  -0.1399   0.1227   0.1235   0.4196   0.4203   0.5028   0.5037
     0.5736   0.5737   0.9484   0.9486   0.9494   0.9494   1.0295   1.0307
     1.2454   1.2468   1.2468   1.2473   1.7815   1.7821   1.8130   1.9755
     1.9759   1.9877   1.9880   1.9882   1.9884   2.2147   2.2152   2.2496
     2.2496   2.2500   2.2507   2.3079   2.3083   2.3087   2.3090   2.3795
     2.4568   2.4571   2.4729   2.4729   2.4732   2.4734   2.4997   2.6360
     2.6363   2.6368   2.6370   2.6554   2.6559   3.0759   3.0761   3.1008
     3.1010   3.2317   3.2318   3.2533   3.2534   3.2538   3.2538   3.2969
     3.2976   3.3198   3.3207   3.3571   3.3573   3.3576   3.3581   3.3849
     3.3850   3.4499   3.4508   3.4636   3.4638   3.4900   3.4905   3.5640
     3.5918   3.5928   3.5931   3.5932   3.6228   3.6238   3.6591   3.6593
     3.6597   3.6599   3.6628   3.6638   3.7862   3.7872   3.7875   3.7877
     3.8015   3.8019   3.8023   3.8023   3.8126   3.8127   3.8128   3.9287
     3.9297   4.0560   4.0575   4.0578   4.0578   4.1116   4.2288   4.2293
     4.2513   4.2518   4.2518   4.2521   4.2895   4.2901   4.3075   4.3079
     4.3081   4.3081   4.3722   4.3724   4.4770   4.4784   4.5757   4.5759
     4.5902   4.5904   4.6271   4.6302   4.6312   4.6444   4.6446   4.6653
     4.6671   4.6672   4.6674   4.8154   4.8167   4.9124   4.9134   4.9137
     4.9138   5.2285   5.2297   5.2401   5.2405   5.2406   5.2408   5.3601
     5.4289   5.4303   5.5138   5.5152   5.6169   5.6176   5.6571   6.1036

     highest occupied level (ev):     6.2218

!    total energy              =   -1008.79605535 Ry
     estimated scf accuracy    <          7.9E-09 Ry

     The total energy is the sum of the following terms:
     one-electron contribution =     304.39213674 Ry
     hartree contribution      =      70.05654092 Ry
     xc contribution           =    -308.31047197 Ry
     ewald contribution        =   -1074.93426104 Ry

     convergence has been achieved in  11 iterations

     Forces acting on atoms (cartesian axes, Ry/au):

     atom    1 type  1   force =     0.00089038   -0.00127158   -0.00089038
     atom    2 type  1   force =     0.00000000    0.00519292    0.00000000
     atom    3 type  1   force =     0.00086522   -0.00125605    0.00086522
     atom    4 type  1   force =     0.00007558   -0.00007031    0.00003920
     atom    5 type  1   force =     0.00000463   -0.00000804   -0.00001521
     atom    6 type  1   force =     0.00001117   -0.00000082   -0.00000143
     atom    7 type  1   force =     0.00000688   -0.00001244    0.00001837
     atom    8 type  1   force =     0.00007369   -0.00007153   -0.00004174
     atom    9 type  1   force =    -0.00086522   -0.00125605   -0.00086522
     atom   10 type  1   force =    -0.00003920   -0.00007031   -0.00007558
     atom   11 type  1   force =    -0.00001190    0.00000223    0.00001190
     atom   12 type  1   force =     0.00000911   -0.00000499   -0.00000911
     atom   13 type  1   force =    -0.00000324   -0.00000272    0.00000952
     atom   14 type  1   force =     0.00000291   -0.00001055   -0.00001514
     atom   15 type  1   force =    -0.00000675    0.00001259    0.00001951
     atom   16 type  1   force =     0.00003301    0.00017546    0.00003301
     atom   17 type  1   force =     0.00001521   -0.00000804   -0.00000463
     atom   18 type  1   force =     0.00000143   -0.00000082   -0.00001117
     atom   19 type  1   force =    -0.00000952   -0.00000272    0.00000324
     atom   20 type  1   force =     0.00001514   -0.00001055   -0.00000291
     atom   21 type  1   force =    -0.00000727    0.00000497    0.00000727
     atom   22 type  1   force =     0.00000000    0.00008000    0.00000000
     atom   23 type  1   force =     0.00001819   -0.00008735    0.00001819
     atom   24 type  1   force =     0.00001008   -0.00000191   -0.00000962
     atom   25 type  1   force =    -0.00001837   -0.00001244   -0.00000688
     atom   26 type  1   force =     0.00004174   -0.00007153   -0.00007369
     atom   27 type  1   force =    -0.00001951    0.00001259    0.00000675
     atom   28 type  1   force =    -0.00003301    0.00017546   -0.00003301
     atom   29 type  1   force =    -0.00001819   -0.00008735   -0.00001819
     atom   30 type  1   force =     0.00000962   -0.00000191   -0.00001008
     atom   31 type  1   force =    -0.00001041    0.00000161    0.00001041
     atom   32 type  1   force =     0.00000600    0.00000168   -0.00000600
     atom   33 type  1   force =    -0.00089038   -0.00127158    0.00089038
     atom   34 type  1   force =     0.00003728    0.00017401   -0.00003728
     atom   35 type  1   force =    -0.00001279    0.00001755   -0.00001740
     atom   36 type  1   force =     0.00000700   -0.00000743    0.00001299
     atom   37 type  1   force =    -0.00000420   -0.00000119   -0.00000736
     atom   38 type  1   force =     0.00000801   -0.00000238    0.00000801
     atom   39 type  1   force =    -0.00000885   -0.00000508   -0.00000885
     atom   40 type  1   force =    -0.00004174   -0.00007153    0.00007369
     atom   41 type  1   force =     0.00001740    0.00001755    0.00001279
     atom   42 type  1   force =    -0.00001299   -0.00000743   -0.00000700
     atom   43 type  1   force =    -0.00000023    0.00000501    0.00000023
     atom   44 type  1   force =     0.00000000   -0.00000856    0.00000000
     atom   45 type  1   force =     0.00000166    0.00000148    0.00000166
     atom   46 type  1   force =    -0.00001514   -0.00001055    0.00000291
     atom   47 type  1   force =     0.00001951    0.00001259   -0.00000675
     atom   48 type  1   force =    -0.00000549   -0.00000634   -0.00000387
     atom   49 type  1   force =     0.00000736   -0.00000119    0.00000420
     atom   50 type  1   force =    -0.00000801   -0.00000238   -0.00000801
     atom   51 type  1   force =    -0.00000166    0.00000148   -0.00000166
     atom   52 type  1   force =    -0.00000291   -0.00001055    0.00001514
     atom   53 type  1   force =     0.00000727    0.00000497   -0.00000727
     atom   54 type  1   force =    -0.00000013   -0.00000187    0.00000013
     atom   55 type  1   force =     0.00000087    0.00000713    0.00000188
     atom   56 type  1   force =    -0.00000181   -0.00000056   -0.00000141
     atom   57 type  1   force =     0.00000885   -0.00000508    0.00000885
     atom   58 type  1   force =    -0.00007369   -0.00007153    0.00004174
     atom   59 type  1   force =     0.00000675    0.00001259   -0.00001951
     atom   60 type  1   force =     0.00000387   -0.00000634    0.00000549
     atom   61 type  1   force =    -0.00000188    0.00000713   -0.00000087
     atom   62 type  1   force =     0.00000141   -0.00000056    0.00000181
     atom   63 type  1   force =     0.00000042   -0.00000106   -0.00000042
     atom   64 type  1   force =     0.00000000   -0.00000444    0.00000000
     atom   65 type  1   force =     0.00001694   -0.00008793   -0.00001694
     atom   66 type  1   force =     0.00000000    0.00007682    0.00000000
     atom   67 type  1   force =    -0.00000905    0.00001041   -0.00000905
     atom   68 type  1   force =     0.00001299   -0.00000743    0.00000700
     atom   69 type  1   force =    -0.00000736   -0.00000119   -0.00000420
     atom   70 type  1   force =    -0.00000143   -0.00000082    0.00001117
     atom   71 type  1   force =     0.00001837   -0.00001244    0.00000688
     atom   72 type  1   force =     0.00000888   -0.00000647    0.00000543
     atom   73 type  1   force =     0.00000905    0.00001041    0.00000905
     atom   74 type  1   force =    -0.00000700   -0.00000743   -0.00001299
     atom   75 type  1   force =     0.00000023    0.00000501   -0.00000023
     atom   76 type  1   force =    -0.00000911   -0.00000499    0.00000911
     atom   77 type  1   force =     0.00000952   -0.00000272   -0.00000324
     atom   78 type  1   force =    -0.00000379   -0.00000774   -0.00000323
     atom   79 type  1   force =     0.00000358    0.00000614    0.00000359
     atom   80 type  1   force =    -0.00000435   -0.00000355   -0.00000435
     atom   81 type  1   force =     0.00000420   -0.00000119    0.00000736
     atom   82 type  1   force =    -0.00001117   -0.00000082    0.00000143
     atom   83 type  1   force =     0.00000324   -0.00000272   -0.00000952
     atom   84 type  1   force =     0.00000323   -0.00000774    0.00000379
     atom   85 type  1   force =     0.00000017    0.00000528   -0.00000017
     atom   86 type  1   force =     0.00000000   -0.00000031    0.00000000
     atom   87 type  1   force =     0.00000141    0.00000686    0.00000141
     atom   88 type  1   force =    -0.00000141   -0.00000056   -0.00000181
     atom   89 type  1   force =    -0.00000688   -0.00001244   -0.00001837
     atom   90 type  1   force =    -0.00000543   -0.00000647   -0.00000888
     atom   91 type  1   force =    -0.00000359    0.00000614   -0.00000358
     atom   92 type  1   force =     0.00000435   -0.00000355    0.00000435
     atom   93 type  1   force =    -0.00000141    0.00000686   -0.00000141
     atom   94 type  1   force =     0.00000181   -0.00000056    0.00000141
     atom   95 type  1   force =    -0.00000042   -0.00000106    0.00000042
     atom   96 type  1   force =    -0.00000600    0.00000168    0.00000600
     atom   97 type  1   force =    -0.00001694   -0.00008793    0.00001694
     atom   98 type  1   force =    -0.00003728    0.00017401    0.00003728
     atom   99 type  1   force =    -0.00001740    0.00001755   -0.00001279
     atom  100 type  1   force =     0.00003920   -0.00007031    0.00007558
     atom  101 type  1   force =    -0.00001521   -0.00000804    0.00000463
     atom  102 type  1   force =     0.00000468   -0.00000124    0.00000468
     atom  103 type  1   force =    -0.00000804    0.00000012   -0.00000804
     atom  104 type  1   force =     0.00000543   -0.00000647    0.00000888
     atom  105 type  1   force =     0.00001279    0.00001755    0.00001740
     atom  106 type  1   force =    -0.00007558   -0.00007031   -0.00003920
     atom  107 type  1   force =     0.00001190    0.00000223   -0.00001190
     atom  108 type  1   force =     0.00000000   -0.00000905    0.00000000
     atom  109 type  1   force =     0.00000194    0.00000030    0.00000194
     atom  110 type  1   force =    -0.00000323   -0.00000774   -0.00000379
     atom  111 type  1   force =     0.00000359    0.00000614    0.00000358
     atom  112 type  1   force =    -0.00000387   -0.00000634   -0.00000549
     atom  113 type  1   force =    -0.00000463   -0.00000804    0.00001521
     atom  114 type  1   force =    -0.00000468   -0.00000124   -0.00000468
     atom  115 type  1   force =    -0.00000194    0.00000030   -0.00000194
     atom  116 type  1   force =     0.00000379   -0.00000774    0.00000323
     atom  117 type  1   force =    -0.00000017    0.00000528    0.00000017
     atom  118 type  1   force =     0.00000013   -0.00000187   -0.00000013
     atom  119 type  1   force =     0.00000188    0.00000713    0.00000087
     atom  120 type  1   force =    -0.00000962   -0.00000191    0.00001008
     atom  121 type  1   force =     0.00000804    0.00000012    0.00000804
     atom  122 type  1   force =    -0.00000888   -0.00000647   -0.00000543
     atom  123 type  1   force =    -0.00000358    0.00000614   -0.00000359
     atom  124 type  1   force =     0.00000549   -0.00000634    0.00000387
     atom  125 type  1   force =    -0.00000087    0.00000713   -0.00000188
     atom  126 type  1   force =    -0.00001008   -0.00000191    0.00000962
     atom  127 type  1   force =     0.00001041    0.00000161   -0.00001041
     atom  128 type  1   force =     0.00000000   -0.00000141    0.00000000

     Total force =     0.006310     Total SCF correction =     0.000187

     Writing all to output data dir ./scratch_runs/atom02_y_minus/si_sup.save/ :
     XML data file, charge density, pseudopotentials, collected wavefunctions
 
     init_run     :    470.72s CPU    484.14s WALL (       1 calls)
     electrons    :   1499.51s CPU   1543.20s WALL (       1 calls)
     forces       :     24.29s CPU     24.52s WALL (       1 calls)

     Called by init_run:
     wfcinit      :    469.78s CPU    483.05s WALL (       1 calls)
     potinit      :      0.21s CPU      0.26s WALL (       1 calls)
     hinit0       :      0.10s CPU      0.18s WALL (       1 calls)

     Called by electrons:
     c_bands      :   1316.52s CPU   1354.27s WALL (      12 calls)
     sum_band     :    180.03s CPU    185.83s WALL (      12 calls)
     v_of_rho     :      2.46s CPU      2.58s WALL (      12 calls)
     mix_rho      :      0.52s CPU      0.53s WALL (      12 calls)

     Called by c_bands:
     init_us_2    :     29.43s CPU     29.59s WALL (     208 calls)
     cegterg      :   1261.19s CPU   1298.90s WALL (      96 calls)

     Called by *egterg:
     cdiaghg      :    186.46s CPU    190.62s WALL (     340 calls)
     h_psi        :   1198.45s CPU   1230.75s WALL (     356 calls)
     g_psi        :      2.32s CPU      2.33s WALL (     252 calls)

     Called by h_psi:
     h_psi:calbec :    195.95s CPU    196.04s WALL (     356 calls)
     vloc_psi     :    798.62s CPU    825.45s WALL (     356 calls)
     add_vuspsi   :    199.64s CPU    199.98s WALL (     356 calls)

     General routines
     calbec       :    215.68s CPU    215.78s WALL (     388 calls)
     fft          :      1.24s CPU      1.41s WALL (     122 calls)
     ffts         :      0.10s CPU      0.11s WALL (      12 calls)
     fftw         :    689.14s CPU    721.02s WALL (  185228 calls)
 
     Parallel routines
 
     PWSCF        :  33m18.36s CPU  34m19.66s WALL

 
   This run was terminated on:  21:15:53  10Jun2026            

=------------------------------------------------------------------------------=
   JOB DONE.
=------------------------------------------------------------------------------=

===== TIMING =====
Job:           atom02_y_minus
Start:         2026-06-10T20:41:30+02:00
End:           2026-06-10T21:15:53+02:00
Duration (s):  2063
Duration (H:M:S): 00:34:23
==================
