
     Program PWSCF v.7.4 starts on 26Apr2026 at 23:52:26 

     This program is part of the open-source Quantum ESPRESSO suite
     for quantum simulation of materials; please cite
         "P. Giannozzi et al., J. Phys.:Condens. Matter 21 395502 (2009);
         "P. Giannozzi et al., J. Phys.:Condens. Matter 29 465901 (2017);
         "P. Giannozzi et al., J. Chem. Phys. 152 154105 (2020);
          URL http://www.quantum-espresso.org", 
     in publications or presentations arising from this work. More details at
     http://www.quantum-espresso.org/quote

     Parallel version (MPI), running on    12 processors

     MPI processes distributed on     1 nodes
     110196 MiB available memory on the printing compute node when the environment starts
 
     Reading input from ./scratch_runs/atom02_y_plus/atom02_y_plus.in

     Current dimensions of program PWSCF are:
     Max number of different atomic species (ntypx) = 10
     Max number of k-points (npk) =  40000
     Max angular momentum in pseudopotentials (lmaxx) =  4
     Message from routine setup:
     using ibrav=0 with symmetry is DISCOURAGED, use correct ibrav instead
 
     R & G space division:  proc/nbgrp/npool/nimage =      12
     Subspace diagonalization in iterative solution of the eigenvalue problem:
     one sub-group per band group will be used
     custom distributed-memory algorithm (size of sub-group:  3*  3 procs)

 
     Parallelization info
     --------------------
     sticks:   dense  smooth     PW     G-vecs:    dense   smooth      PW
     Min         668     668    175                39492    39492    5301
     Max         669     669    177                39495    39495    5302
     Sum        8017    8017   2107               473921   473921   63615
 
     Using Slab Decomposition
 


     bravais-lattice index     =            0
     lattice parameter (alat)  =      28.8295  a.u.
     unit-cell volume          =   16943.2702 (a.u.)^3
     number of atoms/cell      =          128
     number of atomic types    =            1
     number of electrons       =       512.00
     number of Kohn-Sham states=          256
     kinetic-energy cutoff     =      35.0000  Ry
     charge density cutoff     =     140.0000  Ry
     scf convergence threshold =      1.0E-16
     mixing beta               =       0.7000
     number of iterations used =            8  plain     mixing
     Exchange-correlation= SLA  PW   NOGX NOGC
                           (   1   4   0   0   0   0   0)

     celldm(1)=  28.829520  celldm(2)=   0.000000  celldm(3)=   0.000000
     celldm(4)=   0.000000  celldm(5)=   0.000000  celldm(6)=   0.000000

     crystal axes: (cart. coord. in units of alat)
               a(1) = (  -0.707107   0.000000   0.707107 )  
               a(2) = (   0.000000   0.707107   0.707107 )  
               a(3) = (  -0.707107   0.707107   0.000000 )  

     reciprocal axes: (cart. coord. in units 2 pi/alat)
               b(1) = ( -0.707107 -0.707107  0.707107 )  
               b(2) = (  0.707107  0.707107  0.707107 )  
               b(3) = ( -0.707107  0.707107 -0.707107 )  


     PseudoPot. # 1 for Si read from file:
     ./Si.upf
     MD5 check sum: 9e2d726316af3d4752eea8ab0afbb951
     Pseudo is Norm-conserving + core correction, Zval =  4.0
     Generated using ONCVPSP code by D. R. Hamann
     Using radial grid of 1510 points,  6 beta functions with: 
                l(1) =   0
                l(2) =   0
                l(3) =   1
                l(4) =   1
                l(5) =   2
                l(6) =   2

     atomic species   valence    mass     pseudopotential
     Si                4.00    28.08600     Si( 1.00)

      4 Sym. Ops. (no inversion) found ( 2 have fractional translation)



   Cartesian axes

     site n.     atom                  positions (alat units)
         1        Si     tau(   1) = (   0.0000000   0.0000000   0.0000000  )
         2        Si     tau(   2) = (  -0.0883883   0.0890438   0.0883883  )
         3        Si     tau(   3) = (  -0.1767767   0.1767767   0.0000000  )
         4        Si     tau(   4) = (  -0.2651650   0.2651650   0.0883883  )
         5        Si     tau(   5) = (  -0.3535534   0.3535534   0.0000000  )
         6        Si     tau(   6) = (  -0.4419417   0.4419417   0.0883883  )
         7        Si     tau(   7) = (  -0.5303301   0.5303301   0.0000000  )
         8        Si     tau(   8) = (  -0.6187184   0.6187184   0.0883883  )
         9        Si     tau(   9) = (   0.0000000   0.1767767   0.1767767  )
        10        Si     tau(  10) = (  -0.0883883   0.2651650   0.2651650  )
        11        Si     tau(  11) = (  -0.1767767   0.3535534   0.1767767  )
        12        Si     tau(  12) = (  -0.2651650   0.4419417   0.2651650  )
        13        Si     tau(  13) = (  -0.3535534   0.5303301   0.1767767  )
        14        Si     tau(  14) = (  -0.4419417   0.6187184   0.2651650  )
        15        Si     tau(  15) = (  -0.5303301   0.7071068   0.1767767  )
        16        Si     tau(  16) = (  -0.6187184   0.7954951   0.2651650  )
        17        Si     tau(  17) = (   0.0000000   0.3535534   0.3535534  )
        18        Si     tau(  18) = (  -0.0883883   0.4419417   0.4419417  )
        19        Si     tau(  19) = (  -0.1767767   0.5303301   0.3535534  )
        20        Si     tau(  20) = (  -0.2651650   0.6187184   0.4419417  )
        21        Si     tau(  21) = (  -0.3535534   0.7071068   0.3535534  )
        22        Si     tau(  22) = (  -0.4419417   0.7954951   0.4419417  )
        23        Si     tau(  23) = (  -0.5303301   0.8838835   0.3535534  )
        24        Si     tau(  24) = (  -0.6187184   0.9722718   0.4419417  )
        25        Si     tau(  25) = (   0.0000000   0.5303301   0.5303301  )
        26        Si     tau(  26) = (  -0.0883883   0.6187184   0.6187184  )
        27        Si     tau(  27) = (  -0.1767767   0.7071068   0.5303301  )
        28        Si     tau(  28) = (  -0.2651650   0.7954951   0.6187184  )
        29        Si     tau(  29) = (  -0.3535534   0.8838835   0.5303301  )
        30        Si     tau(  30) = (  -0.4419417   0.9722718   0.6187184  )
        31        Si     tau(  31) = (  -0.5303301   1.0606602   0.5303301  )
        32        Si     tau(  32) = (  -0.6187184   1.1490485   0.6187184  )
        33        Si     tau(  33) = (  -0.1767767   0.0000000   0.1767767  )
        34        Si     tau(  34) = (  -0.2651650   0.0883883   0.2651650  )
        35        Si     tau(  35) = (  -0.3535534   0.1767767   0.1767767  )
        36        Si     tau(  36) = (  -0.4419417   0.2651650   0.2651650  )
        37        Si     tau(  37) = (  -0.5303301   0.3535534   0.1767767  )
        38        Si     tau(  38) = (  -0.6187184   0.4419417   0.2651650  )
        39        Si     tau(  39) = (  -0.7071068   0.5303301   0.1767767  )
        40        Si     tau(  40) = (  -0.7954951   0.6187184   0.2651650  )
        41        Si     tau(  41) = (  -0.1767767   0.1767767   0.3535534  )
        42        Si     tau(  42) = (  -0.2651650   0.2651650   0.4419417  )
        43        Si     tau(  43) = (  -0.3535534   0.3535534   0.3535534  )
        44        Si     tau(  44) = (  -0.4419417   0.4419417   0.4419417  )
        45        Si     tau(  45) = (  -0.5303301   0.5303301   0.3535534  )
        46        Si     tau(  46) = (  -0.6187184   0.6187184   0.4419417  )
        47        Si     tau(  47) = (  -0.7071068   0.7071068   0.3535534  )
        48        Si     tau(  48) = (  -0.7954951   0.7954951   0.4419417  )
        49        Si     tau(  49) = (  -0.1767767   0.3535534   0.5303301  )
        50        Si     tau(  50) = (  -0.2651650   0.4419417   0.6187184  )
        51        Si     tau(  51) = (  -0.3535534   0.5303301   0.5303301  )
        52        Si     tau(  52) = (  -0.4419417   0.6187184   0.6187184  )
        53        Si     tau(  53) = (  -0.5303301   0.7071068   0.5303301  )
        54        Si     tau(  54) = (  -0.6187184   0.7954951   0.6187184  )
        55        Si     tau(  55) = (  -0.7071068   0.8838835   0.5303301  )
        56        Si     tau(  56) = (  -0.7954951   0.9722718   0.6187184  )
        57        Si     tau(  57) = (  -0.1767767   0.5303301   0.7071068  )
        58        Si     tau(  58) = (  -0.2651650   0.6187184   0.7954951  )
        59        Si     tau(  59) = (  -0.3535534   0.7071068   0.7071068  )
        60        Si     tau(  60) = (  -0.4419417   0.7954951   0.7954951  )
        61        Si     tau(  61) = (  -0.5303301   0.8838835   0.7071068  )
        62        Si     tau(  62) = (  -0.6187184   0.9722718   0.7954951  )
        63        Si     tau(  63) = (  -0.7071068   1.0606602   0.7071068  )
        64        Si     tau(  64) = (  -0.7954951   1.1490485   0.7954951  )
        65        Si     tau(  65) = (  -0.3535534   0.0000000   0.3535534  )
        66        Si     tau(  66) = (  -0.4419417   0.0883883   0.4419417  )
        67        Si     tau(  67) = (  -0.5303301   0.1767767   0.3535534  )
        68        Si     tau(  68) = (  -0.6187184   0.2651650   0.4419417  )
        69        Si     tau(  69) = (  -0.7071068   0.3535534   0.3535534  )
        70        Si     tau(  70) = (  -0.7954951   0.4419417   0.4419417  )
        71        Si     tau(  71) = (  -0.8838835   0.5303301   0.3535534  )
        72        Si     tau(  72) = (  -0.9722718   0.6187184   0.4419417  )
        73        Si     tau(  73) = (  -0.3535534   0.1767767   0.5303301  )
        74        Si     tau(  74) = (  -0.4419417   0.2651650   0.6187184  )
        75        Si     tau(  75) = (  -0.5303301   0.3535534   0.5303301  )
        76        Si     tau(  76) = (  -0.6187184   0.4419417   0.6187184  )
        77        Si     tau(  77) = (  -0.7071068   0.5303301   0.5303301  )
        78        Si     tau(  78) = (  -0.7954951   0.6187184   0.6187184  )
        79        Si     tau(  79) = (  -0.8838835   0.7071068   0.5303301  )
        80        Si     tau(  80) = (  -0.9722718   0.7954951   0.6187184  )
        81        Si     tau(  81) = (  -0.3535534   0.3535534   0.7071068  )
        82        Si     tau(  82) = (  -0.4419417   0.4419417   0.7954951  )
        83        Si     tau(  83) = (  -0.5303301   0.5303301   0.7071068  )
        84        Si     tau(  84) = (  -0.6187184   0.6187184   0.7954951  )
        85        Si     tau(  85) = (  -0.7071068   0.7071068   0.7071068  )
        86        Si     tau(  86) = (  -0.7954951   0.7954951   0.7954951  )
        87        Si     tau(  87) = (  -0.8838835   0.8838835   0.7071068  )
        88        Si     tau(  88) = (  -0.9722718   0.9722718   0.7954951  )
        89        Si     tau(  89) = (  -0.3535534   0.5303301   0.8838835  )
        90        Si     tau(  90) = (  -0.4419417   0.6187184   0.9722718  )
        91        Si     tau(  91) = (  -0.5303301   0.7071068   0.8838835  )
        92        Si     tau(  92) = (  -0.6187184   0.7954951   0.9722718  )
        93        Si     tau(  93) = (  -0.7071068   0.8838835   0.8838835  )
        94        Si     tau(  94) = (  -0.7954951   0.9722718   0.9722718  )
        95        Si     tau(  95) = (  -0.8838835   1.0606602   0.8838835  )
        96        Si     tau(  96) = (  -0.9722718   1.1490485   0.9722718  )
        97        Si     tau(  97) = (  -0.5303301   0.0000000   0.5303301  )
        98        Si     tau(  98) = (  -0.6187184   0.0883883   0.6187184  )
        99        Si     tau(  99) = (  -0.7071068   0.1767767   0.5303301  )
       100        Si     tau( 100) = (  -0.7954951   0.2651650   0.6187184  )
       101        Si     tau( 101) = (  -0.8838835   0.3535534   0.5303301  )
       102        Si     tau( 102) = (  -0.9722718   0.4419417   0.6187184  )
       103        Si     tau( 103) = (  -1.0606602   0.5303301   0.5303301  )
       104        Si     tau( 104) = (  -1.1490485   0.6187184   0.6187184  )
       105        Si     tau( 105) = (  -0.5303301   0.1767767   0.7071068  )
       106        Si     tau( 106) = (  -0.6187184   0.2651650   0.7954951  )
       107        Si     tau( 107) = (  -0.7071068   0.3535534   0.7071068  )
       108        Si     tau( 108) = (  -0.7954951   0.4419417   0.7954951  )
       109        Si     tau( 109) = (  -0.8838835   0.5303301   0.7071068  )
       110        Si     tau( 110) = (  -0.9722718   0.6187184   0.7954951  )
       111        Si     tau( 111) = (  -1.0606602   0.7071068   0.7071068  )
       112        Si     tau( 112) = (  -1.1490485   0.7954951   0.7954951  )
       113        Si     tau( 113) = (  -0.5303301   0.3535534   0.8838835  )
       114        Si     tau( 114) = (  -0.6187184   0.4419417   0.9722718  )
       115        Si     tau( 115) = (  -0.7071068   0.5303301   0.8838835  )
       116        Si     tau( 116) = (  -0.7954951   0.6187184   0.9722718  )
       117        Si     tau( 117) = (  -0.8838835   0.7071068   0.8838835  )
       118        Si     tau( 118) = (  -0.9722718   0.7954951   0.9722718  )
       119        Si     tau( 119) = (  -1.0606602   0.8838835   0.8838835  )
       120        Si     tau( 120) = (  -1.1490485   0.9722718   0.9722718  )
       121        Si     tau( 121) = (  -0.5303301   0.5303301   1.0606602  )
       122        Si     tau( 122) = (  -0.6187184   0.6187184   1.1490485  )
       123        Si     tau( 123) = (  -0.7071068   0.7071068   1.0606602  )
       124        Si     tau( 124) = (  -0.7954951   0.7954951   1.1490485  )
       125        Si     tau( 125) = (  -0.8838835   0.8838835   1.0606602  )
       126        Si     tau( 126) = (  -0.9722718   0.9722718   1.1490485  )
       127        Si     tau( 127) = (  -1.0606602   1.0606602   1.0606602  )
       128        Si     tau( 128) = (  -1.1490485   1.1490485   1.1490485  )

     number of k points=     8
                       cart. coord. in units 2pi/alat
        k(    1) = (   0.0000000   0.0000000   0.0000000), wk =   0.0740741
        k(    2) = (  -0.2357023   0.2357023  -0.2357023), wk =   0.2962963
        k(    3) = (   0.0000000   0.4714045   0.0000000), wk =   0.1481481
        k(    4) = (   0.4714045  -0.0000000   0.4714045), wk =   0.1481481
        k(    5) = (  -0.2357023   0.2357023   0.2357023), wk =   0.2962963
        k(    6) = (   0.4714045   0.0000000   0.0000000), wk =   0.2962963
        k(    7) = (   0.0000000   0.4714045  -0.4714045), wk =   0.5925926
        k(    8) = (   0.4714045   0.0000000  -0.4714045), wk =   0.1481481

     Dense  grid:   473921 G-vectors     FFT dimensions: ( 120, 120, 120)

     Estimated max dynamical RAM per process >     461.86 MB

     Estimated total dynamical RAM >       5.41 GB

     Initial potential from superposition of free atoms

     starting charge     511.9291, renormalised to     512.0000
     Starting wfcs are  512 randomized atomic wfcs

     total cpu time spent up to now is       14.2 secs

     per-process dynamical memory:   437.7 Mb

     Self-consistent Calculation

     iteration #  1     ecut=    35.00 Ry     beta= 0.70
     Davidson diagonalization with overlap
     ethr =  1.00E-02,  avg # of iterations =  2.0

     Threshold (ethr) on eigenvalues was too large:
     Diagonalizing with lowered threshold

     Davidson diagonalization with overlap
     ethr =  6.13E-04,  avg # of iterations =  2.5

     total cpu time spent up to now is       61.9 secs

     total energy              =   -1091.04386689 Ry
     estimated scf accuracy    <       3.71420654 Ry

     iteration #  2     ecut=    35.00 Ry     beta= 0.70
     Davidson diagonalization with overlap
     ethr =  7.25E-04,  avg # of iterations =  1.0

     total cpu time spent up to now is       79.3 secs

     total energy              =   -1091.19448910 Ry
     estimated scf accuracy    <       0.15797263 Ry

     iteration #  3     ecut=    35.00 Ry     beta= 0.70
     Davidson diagonalization with overlap
     ethr =  3.09E-05,  avg # of iterations =  5.0

     total cpu time spent up to now is      108.9 secs

     total energy              =   -1091.24887032 Ry
     estimated scf accuracy    <       0.00614307 Ry

     iteration #  4     ecut=    35.00 Ry     beta= 0.70
     Davidson diagonalization with overlap
     ethr =  1.20E-06,  avg # of iterations =  5.0

     total cpu time spent up to now is      142.8 secs

     total energy              =   -1091.25324279 Ry
     estimated scf accuracy    <       0.00038296 Ry

     iteration #  5     ecut=    35.00 Ry     beta= 0.70
     Davidson diagonalization with overlap
     ethr =  7.48E-08,  avg # of iterations =  5.5

     total cpu time spent up to now is      174.2 secs

     total energy              =   -1091.25341278 Ry
     estimated scf accuracy    <       0.00022807 Ry

     iteration #  6     ecut=    35.00 Ry     beta= 0.70
     Davidson diagonalization with overlap
     ethr =  4.45E-08,  avg # of iterations =  2.1

     total cpu time spent up to now is      196.3 secs

     total energy              =   -1091.25343685 Ry
     estimated scf accuracy    <       0.00002395 Ry

     iteration #  7     ecut=    35.00 Ry     beta= 0.70
     Davidson diagonalization with overlap
     ethr =  4.68E-09,  avg # of iterations =  5.1

     total cpu time spent up to now is      226.1 secs

     total energy              =   -1091.25344430 Ry
     estimated scf accuracy    <       0.00000274 Ry

     iteration #  8     ecut=    35.00 Ry     beta= 0.70
     Davidson diagonalization with overlap
     ethr =  5.35E-10,  avg # of iterations =  4.9

     total cpu time spent up to now is      253.2 secs

     total energy              =   -1091.25344461 Ry
     estimated scf accuracy    <       0.00000152 Ry

     iteration #  9     ecut=    35.00 Ry     beta= 0.70
     Davidson diagonalization with overlap
     ethr =  2.98E-10,  avg # of iterations =  2.0

     total cpu time spent up to now is      273.3 secs

     total energy              =   -1091.25344463 Ry
     estimated scf accuracy    <       0.00000056 Ry

     iteration # 10     ecut=    35.00 Ry     beta= 0.70
     Davidson diagonalization with overlap
     ethr =  1.09E-10,  avg # of iterations =  4.8

     total cpu time spent up to now is      296.3 secs

     total energy              =   -1091.25344466 Ry
     estimated scf accuracy    <       0.00000013 Ry

     iteration # 11     ecut=    35.00 Ry     beta= 0.70
     Davidson diagonalization with overlap
     ethr =  2.57E-11,  avg # of iterations =  4.8

     total cpu time spent up to now is      322.8 secs

     total energy              =   -1091.25344469 Ry
     estimated scf accuracy    <          6.2E-09 Ry

     iteration # 12     ecut=    35.00 Ry     beta= 0.70
     Davidson diagonalization with overlap
     ethr =  1.22E-12,  avg # of iterations =  7.5

     total cpu time spent up to now is      358.1 secs

     total energy              =   -1091.25344469 Ry
     estimated scf accuracy    <       0.00000001 Ry

     iteration # 13     ecut=    35.00 Ry     beta= 0.70
     Davidson diagonalization with overlap
     ethr =  1.22E-12,  avg # of iterations =  2.1

     total cpu time spent up to now is      380.1 secs

     total energy              =   -1091.25344469 Ry
     estimated scf accuracy    <          2.3E-09 Ry

     iteration # 14     ecut=    35.00 Ry     beta= 0.70
     Davidson diagonalization with overlap
     ethr =  4.54E-13,  avg # of iterations =  4.1

     total cpu time spent up to now is      404.0 secs

     total energy              =   -1091.25344469 Ry
     estimated scf accuracy    <          2.1E-10 Ry

     iteration # 15     ecut=    35.00 Ry     beta= 0.70
     Davidson diagonalization with overlap
     ethr =  1.00E-13,  avg # of iterations =  4.2

     total cpu time spent up to now is      429.4 secs

     total energy              =   -1091.25344469 Ry
     estimated scf accuracy    <          7.8E-11 Ry

     iteration # 16     ecut=    35.00 Ry     beta= 0.70
     Davidson diagonalization with overlap
     ethr =  1.00E-13,  avg # of iterations =  1.0

     total cpu time spent up to now is      446.9 secs

     total energy              =   -1091.25344469 Ry
     estimated scf accuracy    <          6.7E-11 Ry

     iteration # 17     ecut=    35.00 Ry     beta= 0.70
     Davidson diagonalization with overlap
     ethr =  1.00E-13,  avg # of iterations =  1.0

     total cpu time spent up to now is      464.3 secs

     total energy              =   -1091.25344469 Ry
     estimated scf accuracy    <          4.3E-11 Ry

     iteration # 18     ecut=    35.00 Ry     beta= 0.70
     Davidson diagonalization with overlap
     ethr =  1.00E-13,  avg # of iterations =  1.0

     total cpu time spent up to now is      481.7 secs

     total energy              =   -1091.25344469 Ry
     estimated scf accuracy    <          1.9E-11 Ry

     iteration # 19     ecut=    35.00 Ry     beta= 0.70
     Davidson diagonalization with overlap
     ethr =  1.00E-13,  avg # of iterations =  1.0

     total cpu time spent up to now is      499.2 secs

     total energy              =   -1091.25344469 Ry
     estimated scf accuracy    <          1.6E-12 Ry

     iteration # 20     ecut=    35.00 Ry     beta= 0.70
     Davidson diagonalization with overlap
     ethr =  1.00E-13,  avg # of iterations =  1.0

     total cpu time spent up to now is      516.6 secs

     total energy              =   -1091.25344469 Ry
     estimated scf accuracy    <          4.8E-13 Ry

     iteration # 21     ecut=    35.00 Ry     beta= 0.70
     Davidson diagonalization with overlap
     ethr =  1.00E-13,  avg # of iterations =  1.0

     total cpu time spent up to now is      534.0 secs

     total energy              =   -1091.25344469 Ry
     estimated scf accuracy    <          1.7E-12 Ry

     iteration # 22     ecut=    35.00 Ry     beta= 0.70
     Davidson diagonalization with overlap
     ethr =  1.00E-13,  avg # of iterations =  1.0

     total cpu time spent up to now is      551.4 secs

     total energy              =   -1091.25344469 Ry
     estimated scf accuracy    <          1.3E-12 Ry

     iteration # 23     ecut=    35.00 Ry     beta= 0.70
     Davidson diagonalization with overlap
     ethr =  1.00E-13,  avg # of iterations =  1.0

     total cpu time spent up to now is      568.9 secs

     total energy              =   -1091.25344469 Ry
     estimated scf accuracy    <          8.5E-13 Ry

     iteration # 24     ecut=    35.00 Ry     beta= 0.70
     Davidson diagonalization with overlap
     ethr =  1.00E-13,  avg # of iterations =  1.0

     total cpu time spent up to now is      586.3 secs

     total energy              =   -1091.25344469 Ry
     estimated scf accuracy    <          4.2E-13 Ry

     iteration # 25     ecut=    35.00 Ry     beta= 0.70
     Davidson diagonalization with overlap
     ethr =  1.00E-13,  avg # of iterations =  1.0

     total cpu time spent up to now is      603.7 secs

     total energy              =   -1091.25344469 Ry
     estimated scf accuracy    <          1.7E-13 Ry

     iteration # 26     ecut=    35.00 Ry     beta= 0.70
     Davidson diagonalization with overlap
     ethr =  1.00E-13,  avg # of iterations =  1.0

     total cpu time spent up to now is      621.1 secs

     total energy              =   -1091.25344469 Ry
     estimated scf accuracy    <          3.5E-14 Ry

     iteration # 27     ecut=    35.00 Ry     beta= 0.70
     Davidson diagonalization with overlap
     ethr =  1.00E-13,  avg # of iterations =  1.0

     total cpu time spent up to now is      638.6 secs

     total energy              =   -1091.25344469 Ry
     estimated scf accuracy    <          6.9E-14 Ry

     iteration # 28     ecut=    35.00 Ry     beta= 0.70
     Davidson diagonalization with overlap
     ethr =  1.00E-13,  avg # of iterations =  1.0

     total cpu time spent up to now is      656.0 secs

     total energy              =   -1091.25344469 Ry
     estimated scf accuracy    <          8.9E-14 Ry

     iteration # 29     ecut=    35.00 Ry     beta= 0.70
     Davidson diagonalization with overlap
     ethr =  1.00E-13,  avg # of iterations =  1.0

     total cpu time spent up to now is      673.4 secs

     total energy              =   -1091.25344469 Ry
     estimated scf accuracy    <          6.2E-14 Ry

     iteration # 30     ecut=    35.00 Ry     beta= 0.70
     Davidson diagonalization with overlap
     ethr =  1.00E-13,  avg # of iterations =  1.0

     total cpu time spent up to now is      690.8 secs

     total energy              =   -1091.25344469 Ry
     estimated scf accuracy    <          4.7E-15 Ry

     iteration # 31     ecut=    35.00 Ry     beta= 0.70
     Davidson diagonalization with overlap
     ethr =  1.00E-13,  avg # of iterations =  1.0

     total cpu time spent up to now is      708.2 secs

     total energy              =   -1091.25344469 Ry
     estimated scf accuracy    <          4.8E-15 Ry

     iteration # 32     ecut=    35.00 Ry     beta= 0.70
     Davidson diagonalization with overlap
     ethr =  1.00E-13,  avg # of iterations =  1.0

     total cpu time spent up to now is      725.7 secs

     total energy              =   -1091.25344469 Ry
     estimated scf accuracy    <          6.5E-15 Ry

     iteration # 33     ecut=    35.00 Ry     beta= 0.70
     Davidson diagonalization with overlap
     ethr =  1.00E-13,  avg # of iterations =  1.0

     total cpu time spent up to now is      743.1 secs

     total energy              =   -1091.25344469 Ry
     estimated scf accuracy    <          5.2E-15 Ry

     iteration # 34     ecut=    35.00 Ry     beta= 0.70
     Davidson diagonalization with overlap
     ethr =  1.00E-13,  avg # of iterations =  1.0

     total cpu time spent up to now is      760.5 secs

     total energy              =   -1091.25344469 Ry
     estimated scf accuracy    <          2.7E-15 Ry

     iteration # 35     ecut=    35.00 Ry     beta= 0.70
     Davidson diagonalization with overlap
     ethr =  1.00E-13,  avg # of iterations =  1.0

     total cpu time spent up to now is      777.9 secs

     total energy              =   -1091.25344469 Ry
     estimated scf accuracy    <          3.8E-16 Ry

     iteration # 36     ecut=    35.00 Ry     beta= 0.70
     Davidson diagonalization with overlap
     ethr =  1.00E-13,  avg # of iterations =  1.0

     total cpu time spent up to now is      795.4 secs

     total energy              =   -1091.25344469 Ry
     estimated scf accuracy    <          1.7E-16 Ry

     iteration # 37     ecut=    35.00 Ry     beta= 0.70
     Davidson diagonalization with overlap
     ethr =  1.00E-13,  avg # of iterations =  1.0

     total cpu time spent up to now is      812.8 secs

     total energy              =   -1091.25344469 Ry
     estimated scf accuracy    <          2.6E-16 Ry

     iteration # 38     ecut=    35.00 Ry     beta= 0.70
     Davidson diagonalization with overlap
     ethr =  1.00E-13,  avg # of iterations =  1.0

     total cpu time spent up to now is      830.2 secs

     total energy              =   -1091.25344469 Ry
     estimated scf accuracy    <          2.7E-16 Ry

     iteration # 39     ecut=    35.00 Ry     beta= 0.70
     Davidson diagonalization with overlap
     ethr =  1.00E-13,  avg # of iterations =  1.0

     total cpu time spent up to now is      847.6 secs

     total energy              =   -1091.25344469 Ry
     estimated scf accuracy    <          2.8E-16 Ry

     iteration # 40     ecut=    35.00 Ry     beta= 0.70
     Davidson diagonalization with overlap
     ethr =  1.00E-13,  avg # of iterations =  1.0

     total cpu time spent up to now is      865.0 secs

     End of self-consistent calculation

          k = 0.0000 0.0000 0.0000 ( 58887 PWs)   bands (ev):

    -5.8518  -5.0391  -5.0382  -5.0380  -5.0380  -5.0379  -5.0378  -5.0377
    -5.0368  -4.7526  -4.7520  -4.7517  -4.7517  -4.7515  -4.7508  -3.7717
    -3.7704  -3.7698  -3.7697  -3.7697  -3.7697  -3.7697  -3.7697  -3.7696
    -3.7696  -3.7690  -3.7677  -3.4663  -3.4659  -3.4654  -3.4651  -3.0854
    -3.0830  -3.0818  -3.0817  -3.0816  -3.0815  -3.0815  -3.0814  -3.0814
    -3.0814  -3.0814  -3.0814  -3.0814  -3.0814  -3.0814  -3.0813  -3.0813
    -3.0813  -3.0813  -3.0812  -3.0811  -3.0810  -3.0798  -3.0773  -1.6394
    -1.6389  -1.6384  -1.6384  -1.6379  -1.6374  -1.4647  -1.4639  -1.4629
    -1.4628  -1.4628  -1.4627  -1.4627  -1.4627  -1.4627  -1.4626  -1.4616
    -1.4608  -0.8381  -0.8375  -0.8374  -0.8368  -0.2042  -0.2029  -0.2010
    -0.2009  -0.2008  -0.2007  -0.2007  -0.2007  -0.2007  -0.2007  -0.2006
    -0.2006  -0.2006  -0.2005  -0.2005  -0.2005  -0.2005  -0.2005  -0.2004
    -0.2004  -0.2003  -0.2002  -0.1983  -0.1969   0.7178   0.7179   0.7192
     0.7192   0.7192   0.7193   0.7193   0.7194   0.7194   0.7194   0.7207
     0.7208   2.2648   2.2651   2.2655   2.2658   2.2659   2.2661   2.2665
     2.2668   2.2892   2.2900   2.2901   2.2902   2.2903   2.2904   2.2904
     2.2904   2.2905   2.2906   2.2907   2.2915   2.3961   2.3962   2.3963
     2.3969   2.3970   2.3970   2.3970   2.3970   2.3971   2.3977   2.3978
     2.3979   2.6271   2.6277   2.6286   2.6291   2.6291   2.6293   2.6293
     2.6293   2.6293   2.6294   2.6294   2.6294   2.6295   2.6295   2.6295
     2.6295   2.6296   2.6296   2.6296   2.6297   2.6297   2.6302   2.6312
     2.6318   2.7161   2.7166   2.7170   2.7170   2.7176   2.7180   3.3447
     3.3451   3.3452   3.3452   3.3452   3.3456   4.0017   4.0031   4.0040
     4.0040   4.0040   4.0042   4.0043   4.0043   4.0043   4.0043   4.0044
     4.0044   4.0044   4.0044   4.0045   4.0045   4.0045   4.0045   4.0046
     4.0048   4.0048   4.0048   4.0057   4.0070   4.3198   4.3211   4.3214
     4.3214   4.3215   4.3215   4.3215   4.3215   4.3216   4.3216   4.3219
     4.3232   4.8990   4.8999   4.9005   4.9006   4.9006   4.9007   4.9007
     4.9008   4.9009   4.9010   4.9015   4.9025   5.0347   5.0356   5.0359
     5.0359   5.0361   5.0362   5.0364   5.0373   5.4743   5.4771   5.4772
     5.4773   5.4773   5.4774   5.4774   5.4775   5.4775   5.4775   5.4775
     5.4776   5.4777   5.4778   5.4779   5.4807   6.2481   6.2489   6.2496

          k =-0.2357 0.2357-0.2357 ( 59225 PWs)   bands (ev):

    -5.7592  -5.4844  -5.1234  -5.1228  -5.1227  -5.0272  -5.0267  -5.0265
    -4.7752  -4.7746  -4.7744  -4.4490  -4.3438  -4.3433  -4.3431  -4.3079
    -4.3073  -4.3071  -3.8121  -3.7213  -3.7207  -3.7205  -3.6916  -3.6904
    -3.6904  -3.6903  -3.6899  -3.6898  -3.4577  -3.4565  -3.4565  -3.4564
    -3.4560  -3.4559  -3.4296  -3.4289  -3.4288  -3.3091  -3.3082  -3.3082
    -3.1330  -3.1325  -3.1322  -2.7459  -2.7454  -2.7449  -2.7295  -2.7287
    -2.7286  -2.5926  -2.5914  -2.5914  -2.5913  -2.5909  -2.5909  -2.2448
    -2.2439  -2.2439  -2.0318  -2.0307  -2.0306  -2.0305  -2.0301  -2.0301
    -0.9609  -0.9599  -0.9598  -0.9582  -0.9573  -0.9573  -0.9572  -0.9566
    -0.9566  -0.7290  -0.7285  -0.7279  -0.6305  -0.6292  -0.6290  -0.5505
    -0.5494  -0.5494  -0.5493  -0.5488  -0.5487  -0.4511  -0.4505  -0.4500
    -0.3681  -0.3673  -0.3672  -0.3176  -0.1216  -0.1205  -0.1203   0.1559
     0.1568   0.1568   0.1569   0.1575   0.1577   0.5222   0.5231   0.5232
     0.5233   0.5240   0.5242   0.7464   0.7473   0.7476   0.8355   1.3353
     1.3360   1.3361   1.7874   1.7881   1.7882   1.7941   1.7949   1.7952
     2.0536   2.0539   2.0540   2.0541   2.0543   2.0546   2.1303   2.1308
     2.1309   2.1976   2.1980   2.1982   2.1982   2.1985   2.1988   2.2567
     2.2572   2.2574   2.5223   2.5228   2.5228   2.6483   2.6484   2.6488
     2.6488   2.6493   2.6495   2.7752   2.7757   2.7759   2.8571   2.8578
     2.8578   2.8579   2.8580   2.8585   2.9523   2.9523   2.9526   2.9526
     2.9533   2.9535   3.0025   3.0029   3.0030   3.1005   3.1011   3.1014
     3.1890   3.1897   3.1898   3.2743   3.2748   3.2749   3.4139   3.4146
     3.4147   3.4222   3.4224   3.4227   3.5684   3.5691   3.5693   3.5694
     3.5695   3.5698   3.6485   3.6486   3.6489   3.8343   3.8407   3.8413
     3.8413   3.9636   3.9639   3.9643   4.0714   4.0717   4.0721   4.0754
     4.0761   4.0765   4.0766   4.0766   4.0769   4.1885   4.1887   4.1892
     4.4353   4.4360   4.4362   4.4424   4.4424   4.4429   4.4998   4.5001
     4.5006   4.5214   4.5221   4.5223   4.5596   4.5606   4.5610   4.5610
     4.5612   4.5613   4.6756   4.6765   4.6766   4.6901   4.6902   4.6907
     4.8532   4.8533   4.8539   5.0856   5.0864   5.1195   5.1197   5.1203
     5.2347   5.2355   5.3037   5.3048   5.3049   5.3082   5.3083   5.3091
     5.3775   5.5591   5.5593   5.5601   5.7900   5.7908   6.1017   6.1027

          k = 0.0000 0.4714 0.0000 ( 59278 PWs)   bands (ev):

    -5.7283  -5.3596  -5.2728  -5.2728  -5.2725  -5.2725  -4.6392  -4.6390
    -4.6389  -4.6387  -4.5768  -4.5767  -4.5764  -4.5764  -4.3060  -4.3058
    -4.3058  -4.3055  -3.9158  -3.9090  -3.9089  -3.9086  -3.9084  -3.7050
    -3.7048  -3.7044  -3.7041  -3.5551  -3.5548  -3.5543  -3.5540  -3.1971
    -3.1970  -3.1966  -3.1965  -3.1965  -3.1964  -3.1960  -3.1959  -3.0676
    -3.0673  -3.0673  -3.0669  -2.9446  -2.9445  -2.9440  -2.9439  -2.9438
    -2.9437  -2.9432  -2.9431  -2.8689  -2.2662  -2.2660  -2.2659  -2.2655
    -2.2452  -2.2447  -2.2443  -2.2437  -1.5983  -1.5977  -1.5977  -1.5972
    -1.5108  -1.5102  -1.5102  -1.5096  -0.8719  -0.8716  -0.8711  -0.8708
    -0.7258  -0.7253  -0.7253  -0.7249  -0.5717  -0.5711  -0.5704  -0.5704
    -0.5703  -0.5702  -0.5696  -0.5691  -0.5459  -0.5455  -0.5452  -0.5447
    -0.2627  -0.0224  -0.0220  -0.0220  -0.0215   0.1631   0.1634   0.1639
     0.1642   0.1809   0.1810   0.1819   0.1819   0.1821   0.1821   0.1831
     0.1832   0.5065   0.5066   0.5069   0.5070   1.2079   1.3152   1.3153
     1.3156   1.3157   1.5204   1.5210   1.5210   1.5216   1.9233   1.9238
     1.9239   1.9241   1.9251   1.9252   1.9254   1.9256   1.9871   1.9873
     1.9873   1.9875   2.3022   2.3030   2.3030   2.3037   2.5081   2.5081
     2.5081   2.5081   2.7016   2.7019   2.7024   2.7024   2.7027   2.7028
     2.7032   2.7035   2.7350   2.7350   2.7352   2.7353   2.7354   2.7355
     2.7356   2.7356   3.0191   3.0192   3.0192   3.0193   3.0683   3.0686
     3.0686   3.0689   3.0896   3.0897   3.0898   3.0899   3.1333   3.1335
     3.1337   3.1339   3.2701   3.2704   3.2709   3.2713   3.4560   3.4565
     3.5601   3.5604   3.5607   3.5608   3.5609   3.5610   3.5613   3.5616
     3.7659   3.7661   3.7663   3.7666   3.7857   3.7863   3.8050   3.8056
     3.8058   3.8064   3.8615   3.8620   3.8620   3.8625   4.0576   4.0577
     4.0580   4.0581   4.0581   4.0582   4.0585   4.0586   4.1267   4.1271
     4.1271   4.1274   4.2057   4.3372   4.3374   4.3376   4.3379   4.3850
     4.3858   4.3860   4.3867   4.5910   4.5912   4.5912   4.5914   4.8281
     4.8282   4.8282   4.8283   4.9074   4.9084   4.9086   4.9094   4.9316
     4.9325   4.9328   4.9337   4.9457   4.9458   4.9463   4.9463   4.9529
     4.9533   4.9533   4.9537   4.9991   5.0000   5.0003   5.0013   5.0292
     5.0301   5.5548   5.8067   5.8079   5.8919   5.8932   5.8935   5.8948

          k = 0.4714-0.0000 0.4714 ( 59291 PWs)   bands (ev):

    -5.6057  -5.5141  -5.5134  -5.2405  -5.2402  -4.8857  -4.7968  -4.7961
    -4.7958  -4.7956  -4.5301  -4.5291  -4.2103  -4.2091  -4.2088  -4.2084
    -4.1538  -4.1531  -4.0968  -4.0962  -4.0959  -4.0957  -3.9366  -3.9356
    -3.8145  -3.8143  -3.5724  -3.5714  -3.5713  -3.5708  -3.5211  -3.5205
    -3.3719  -3.3707  -3.2214  -3.2205  -3.1896  -3.1888  -3.0847  -3.0840
    -3.0837  -3.0832  -2.8832  -2.8818  -2.8817  -2.8811  -2.7892  -2.7886
    -2.5673  -2.5673  -2.5210  -2.5166  -2.5157  -2.5155  -2.5149  -2.5106
    -2.5099  -2.1467  -2.1460  -2.1459  -2.1453  -1.9821  -1.9809  -1.7731
    -1.3738  -1.0691  -1.0686  -0.9499  -0.9498  -0.9496  -0.9490  -0.7156
    -0.7151  -0.6636  -0.6635  -0.6254  -0.6245  -0.6242  -0.6240  -0.6167
    -0.6161  -0.5830  -0.4432  -0.4421  -0.3787  -0.3777  -0.3773  -0.3772
    -0.2979  -0.2976  -0.2222  -0.2216  -0.2214  -0.2211  -0.2028  -0.2025
    -0.2018  -0.2013   0.0610   0.0618   0.4118   0.4125   0.4490   0.4498
     0.5628   0.5628   0.9112   0.9114   0.9122   0.9122   1.0286   1.0298
     1.2338   1.2352   1.2353   1.2357   1.7152   1.7655   1.7662   1.8812
     1.8817   1.8994   1.8997   1.8999   1.9001   2.1386   2.1391   2.2319
     2.2323   2.2328   2.2330   2.2381   2.2381   2.2387   2.2393   2.3019
     2.3825   2.3828   2.3981   2.3982   2.3985   2.3986   2.4972   2.5790
     2.5792   2.5797   2.5800   2.5868   2.5872   3.0171   3.0174   3.0545
     3.0548   3.1946   3.1947   3.2111   3.2112   3.2116   3.2116   3.2564
     3.2571   3.2790   3.2799   3.3132   3.3134   3.3137   3.3142   3.3432
     3.3434   3.4124   3.4133   3.4171   3.4174   3.4999   3.5004   3.5420
     3.5497   3.5506   3.5509   3.5510   3.5986   3.5996   3.6340   3.6342
     3.6347   3.6349   3.6414   3.6423   3.7595   3.7606   3.7608   3.7611
     3.7707   3.7726   3.7730   3.7733   3.7734   3.7858   3.7860   3.8983
     3.8993   4.0287   4.0302   4.0306   4.0306   4.1004   4.2135   4.2140
     4.2349   4.2355   4.2355   4.2358   4.2930   4.2934   4.2936   4.2936
     4.3002   4.3008   4.3625   4.3626   4.4691   4.4704   4.5708   4.5710
     4.5716   4.5718   4.6310   4.6321   4.6432   4.6448   4.6450   4.6635
     4.6654   4.6654   4.6657   4.8195   4.8208   4.9166   4.9176   4.9179
     4.9179   5.2442   5.2453   5.2518   5.2523   5.2524   5.2527   5.3596
     5.4364   5.4378   5.5315   5.5330   5.6339   5.6346   5.6800   6.1323

          k =-0.2357 0.2357 0.2357 ( 59225 PWs)   bands (ev):

    -5.7592  -5.4844  -5.1233  -5.1231  -5.1225  -5.0271  -5.0269  -5.0263
    -4.7750  -4.7749  -4.7743  -4.4491  -4.3437  -4.3435  -4.3430  -4.3078
    -4.3076  -4.3070  -3.8123  -3.7213  -3.7210  -3.7205  -3.6909  -3.6908
    -3.6904  -3.6903  -3.6903  -3.6891  -3.4570  -3.4569  -3.4566  -3.4565
    -3.4564  -3.4553  -3.4293  -3.4292  -3.4284  -3.3087  -3.3087  -3.3079
    -3.1332  -3.1328  -3.1324  -2.7463  -2.7457  -2.7453  -2.7292  -2.7291
    -2.7283  -2.5919  -2.5919  -2.5915  -2.5914  -2.5913  -2.5902  -2.2445
    -2.2444  -2.2436  -2.0311  -2.0311  -2.0307  -2.0306  -2.0305  -2.0294
    -0.9606  -0.9605  -0.9598  -0.9579  -0.9578  -0.9574  -0.9573  -0.9572
    -0.9560  -0.7292  -0.7287  -0.7282  -0.6294  -0.6292  -0.6280  -0.5501
    -0.5501  -0.5495  -0.5494  -0.5494  -0.5483  -0.4513  -0.4508  -0.4503
    -0.3681  -0.3680  -0.3672  -0.3170  -0.1207  -0.1205  -0.1195   0.1560
     0.1562   0.1568   0.1569   0.1569   0.1578   0.5222   0.5224   0.5231
     0.5232   0.5232   0.5241   0.7471   0.7473   0.7482   0.8360   1.3355
     1.3357   1.3364   1.7875   1.7877   1.7882   1.7946   1.7948   1.7958
     2.0535   2.0539   2.0541   2.0541   2.0543   2.0546   2.1303   2.1304
     2.1309   2.1976   2.1979   2.1982   2.1982   2.1984   2.1989   2.2566
     2.2568   2.2573   2.5228   2.5229   2.5234   2.6481   2.6483   2.6488
     2.6488   2.6492   2.6493   2.7750   2.7752   2.7757   2.8572   2.8577
     2.8578   2.8579   2.8580   2.8586   2.9517   2.9519   2.9526   2.9526
     2.9529   2.9530   3.0029   3.0029   3.0034   3.1002   3.1006   3.1011
     3.1890   3.1891   3.1897   3.2747   3.2747   3.2753   3.4146   3.4147
     3.4154   3.4220   3.4223   3.4225   3.5688   3.5690   3.5692   3.5693
     3.5694   3.5702   3.6482   3.6485   3.6487   3.8349   3.8407   3.8408
     3.8414   3.9634   3.9638   3.9641   4.0712   4.0717   4.0718   4.0763
     4.0765   4.0766   4.0767   4.0771   4.0778   4.1882   4.1887   4.1889
     4.4360   4.4362   4.4369   4.4419   4.4424   4.4425   4.4995   4.5000
     4.5003   4.5220   4.5222   4.5228   4.5607   4.5607   4.5609   4.5609
     4.5614   4.5624   4.6766   4.6767   4.6776   4.6896   4.6902   4.6904
     4.8526   4.8532   4.8533   5.0854   5.0863   5.1190   5.1196   5.1198
     5.2345   5.2353   5.3048   5.3050   5.3059   5.3076   5.3083   5.3086
     5.3783   5.5584   5.5592   5.5594   5.7896   5.7905   6.1013   6.1022

          k = 0.4714 0.0000 0.0000 ( 59278 PWs)   bands (ev):

    -5.7283  -5.3596  -5.2733  -5.2728  -5.2726  -5.2721  -4.6397  -4.6389
    -4.6389  -4.6382  -4.5771  -4.5766  -4.5765  -4.5760  -4.3065  -4.3058
    -4.3058  -4.3050  -3.9156  -3.9093  -3.9089  -3.9087  -3.9082  -3.7053
    -3.7048  -3.7043  -3.7038  -3.5552  -3.5548  -3.5543  -3.5539  -3.1981
    -3.1969  -3.1965  -3.1965  -3.1965  -3.1964  -3.1961  -3.1949  -3.0680
    -3.0673  -3.0672  -3.0666  -2.9453  -2.9443  -2.9439  -2.9439  -2.9438
    -2.9438  -2.9434  -2.9424  -2.8689  -2.2666  -2.2659  -2.2659  -2.2652
    -2.2450  -2.2447  -2.2443  -2.2440  -1.5985  -1.5977  -1.5977  -1.5970
    -1.5110  -1.5102  -1.5102  -1.5094  -0.8719  -0.8716  -0.8712  -0.8709
    -0.7261  -0.7254  -0.7253  -0.7246  -0.5717  -0.5708  -0.5704  -0.5704
    -0.5703  -0.5703  -0.5699  -0.5690  -0.5461  -0.5454  -0.5453  -0.5446
    -0.2627  -0.0227  -0.0220  -0.0219  -0.0212   0.1629   0.1636   0.1638
     0.1644   0.1808   0.1814   0.1819   0.1820   0.1820   0.1820   0.1826
     0.1832   0.5060   0.5067   0.5068   0.5075   1.2079   1.3147   1.3153
     1.3156   1.3162   1.5203   1.5210   1.5210   1.5217   1.9234   1.9238
     1.9239   1.9241   1.9250   1.9251   1.9253   1.9257   1.9870   1.9871
     1.9875   1.9876   2.3023   2.3029   2.3030   2.3036   2.5077   2.5080
     2.5082   2.5085   2.7019   2.7022   2.7024   2.7025   2.7026   2.7028
     2.7029   2.7032   2.7347   2.7348   2.7353   2.7353   2.7353   2.7354
     2.7359   2.7360   3.0188   3.0191   3.0193   3.0196   3.0682   3.0685
     3.0687   3.0690   3.0892   3.0897   3.0898   3.0903   3.1329   3.1335
     3.1337   3.1343   3.2700   3.2706   3.2708   3.2713   3.4562   3.4562
     3.5600   3.5606   3.5607   3.5608   3.5609   3.5610   3.5611   3.5617
     3.7655   3.7662   3.7663   3.7670   3.7860   3.7860   3.8053   3.8057
     3.8057   3.8061   3.8616   3.8619   3.8621   3.8623   4.0571   4.0576
     4.0580   4.0581   4.0581   4.0582   4.0586   4.0591   4.1264   4.1271
     4.1271   4.1277   4.2057   4.3367   4.3374   4.3377   4.3383   4.3855
     4.3859   4.3859   4.3862   4.5906   4.5911   4.5913   4.5917   4.8276
     4.8280   4.8284   4.8288   4.9082   4.9085   4.9085   4.9088   4.9322
     4.9325   4.9327   4.9331   4.9452   4.9460   4.9460   4.9468   4.9528
     4.9531   4.9535   4.9540   4.9998   5.0001   5.0003   5.0005   5.0296
     5.0296   5.5548   5.8073   5.8073   5.8931   5.8933   5.8935   5.8936

          k = 0.0000 0.4714-0.4714 ( 59291 PWs)   bands (ev):

    -5.6057  -5.5137  -5.5137  -5.2406  -5.2401  -4.8857  -4.7966  -4.7961
    -4.7960  -4.7955  -4.5297  -4.5296  -4.2095  -4.2092  -4.2090  -4.2087
    -4.1536  -4.1535  -4.0968  -4.0962  -4.0961  -4.0956  -3.9363  -3.9361
    -3.8148  -3.8142  -3.5718  -3.5714  -3.5713  -3.5709  -3.5210  -3.5204
    -3.3713  -3.3713  -3.2210  -3.2206  -3.1895  -3.1892  -3.0846  -3.0840
    -3.0839  -3.0834  -2.8823  -2.8819  -2.8818  -2.8815  -2.7891  -2.7885
    -2.5677  -2.5671  -2.5213  -2.5164  -2.5158  -2.5157  -2.5152  -2.5103
    -2.5099  -2.1464  -2.1459  -2.1459  -2.1454  -1.9812  -1.9810  -1.7736
    -1.3733  -1.0697  -1.0690  -0.9503  -0.9497  -0.9497  -0.9490  -0.7161
    -0.7153  -0.6642  -0.6634  -0.6251  -0.6243  -0.6243  -0.6236  -0.6163
    -0.6156  -0.5825  -0.4424  -0.4422  -0.3782  -0.3775  -0.3774  -0.3767
    -0.2983  -0.2976  -0.2225  -0.2218  -0.2217  -0.2210  -0.2032  -0.2026
    -0.2024  -0.2017   0.0613   0.0619   0.4120   0.4123   0.4495   0.4500
     0.5619   0.5628   0.9110   0.9115   0.9116   0.9122   1.0294   1.0296
     1.2346   1.2352   1.2352   1.2358   1.7153   1.7657   1.7663   1.8811
     1.8814   1.8992   1.8996   1.8997   1.9002   2.1391   2.1392   2.2322
     2.2325   2.2326   2.2328   2.2377   2.2382   2.2384   2.2389   2.3021
     2.3824   2.3829   2.3981   2.3984   2.3985   2.3988   2.4977   2.5788
     2.5791   2.5792   2.5795   2.5869   2.5872   3.0169   3.0171   3.0546
     3.0547   3.1946   3.1951   3.2109   3.2113   3.2113   3.2117   3.2567
     3.2571   3.2796   3.2799   3.3130   3.3132   3.3134   3.3136   3.3430
     3.3435   3.4130   3.4134   3.4168   3.4173   3.4994   3.4998   3.5418
     3.5502   3.5507   3.5507   3.5512   3.5995   3.5996   3.6338   3.6343
     3.6345   3.6349   3.6416   3.6416   3.7601   3.7606   3.7606   3.7611
     3.7706   3.7726   3.7729   3.7731   3.7735   3.7855   3.7856   3.8990
     3.8994   4.0301   4.0302   4.0303   4.0305   4.1001   4.2136   4.2144
     4.2351   4.2355   4.2356   4.2360   4.2929   4.2934   4.2937   4.2940
     4.3003   4.3010   4.3625   4.3630   4.4694   4.4694   4.5707   4.5709
     4.5713   4.5718   4.6311   4.6312   4.6437   4.6449   4.6455   4.6650
     4.6653   4.6655   4.6658   4.8196   4.8198   4.9169   4.9175   4.9176
     4.9183   5.2441   5.2443   5.2514   5.2520   5.2524   5.2531   5.3595
     5.4366   5.4366   5.5328   5.5329   5.6341   5.6351   5.6794   6.1315

          k = 0.4714 0.0000-0.4714 ( 59291 PWs)   bands (ev):

    -5.6058  -5.5141  -5.5134  -5.2405  -5.2402  -4.8858  -4.7965  -4.7963
    -4.7960  -4.7953  -4.5302  -4.5291  -4.2098  -4.2094  -4.2091  -4.2080
    -4.1539  -4.1533  -4.0967  -4.0965  -4.0961  -4.0955  -3.9368  -3.9357
    -3.8146  -3.8144  -3.5719  -3.5714  -3.5713  -3.5703  -3.5209  -3.5203
    -3.3719  -3.3707  -3.2210  -3.2202  -3.1900  -3.1892  -3.0848  -3.0843
    -3.0840  -3.0833  -2.8826  -2.8821  -2.8820  -2.8806  -2.7890  -2.7885
    -2.5676  -2.5676  -2.5216  -2.5166  -2.5160  -2.5158  -2.5151  -2.5104
    -2.5095  -2.1465  -2.1459  -2.1458  -2.1451  -1.9813  -1.9801  -1.7741
    -1.3728  -1.0701  -1.0695  -0.9503  -0.9497  -0.9496  -0.9495  -0.7163
    -0.7158  -0.6641  -0.6641  -0.6246  -0.6244  -0.6241  -0.6233  -0.6159
    -0.6152  -0.5820  -0.4425  -0.4413  -0.3777  -0.3775  -0.3772  -0.3761
    -0.2983  -0.2980  -0.2224  -0.2220  -0.2218  -0.2212  -0.2036  -0.2031
    -0.2025  -0.2022   0.0615   0.0623   0.4118   0.4125   0.4496   0.4505
     0.5619   0.5619   0.9109   0.9109   0.9117   0.9119   1.0293   1.0304
     1.2347   1.2352   1.2352   1.2366   1.7154   1.7658   1.7664   1.8808
     1.8813   1.8993   1.8994   1.8996   1.9000   2.1392   2.1398   2.2319
     2.2322   2.2327   2.2330   2.2374   2.2381   2.2385   2.2385   2.3024
     2.3826   2.3829   2.3982   2.3984   2.3987   2.3988   2.4983   2.5783
     2.5785   2.5791   2.5794   2.5869   2.5873   3.0166   3.0169   3.0546
     3.0548   3.1949   3.1951   3.2110   3.2111   3.2114   3.2115   3.2567
     3.2574   3.2796   3.2804   3.3124   3.3129   3.3132   3.3135   3.3431
     3.3433   3.4131   3.4139   3.4168   3.4170   3.4988   3.4994   3.5415
     3.5504   3.5504   3.5507   3.5516   3.5994   3.6005   3.6339   3.6340
     3.6345   3.6347   3.6409   3.6417   3.7601   3.7603   3.7606   3.7615
     3.7705   3.7726   3.7727   3.7730   3.7735   3.7852   3.7854   3.8991
     3.9001   4.0300   4.0300   4.0303   4.0319   4.0998   4.2140   4.2145
     4.2353   4.2356   4.2356   4.2362   4.2934   4.2935   4.2936   4.2940
     4.3005   4.3011   4.3628   4.3630   4.4684   4.4697   4.5708   4.5712
     4.5712   4.5713   4.6302   4.6312   4.6443   4.6453   4.6454   4.6651
     4.6653   4.6654   4.6673   4.8186   4.8199   4.9172   4.9173   4.9175
     4.9186   5.2431   5.2444   5.2518   5.2520   5.2521   5.2526   5.3594
     5.4354   5.4368   5.5328   5.5342   5.6346   5.6353   5.6788   6.1308

     highest occupied level (ev):     6.2496

!    total energy              =   -1091.25344469 Ry
     estimated scf accuracy    <          2.8E-17 Ry

     The total energy is the sum of the following terms:
     one-electron contribution =     320.28114376 Ry
     hartree contribution      =      68.98056314 Ry
     xc contribution           =    -398.16406774 Ry
     ewald contribution        =   -1082.35108386 Ry

     convergence has been achieved in  40 iterations

     Forces acting on atoms (cartesian axes, Ry/au):

     atom    1 type  1   force =    -0.00088358    0.00127557    0.00088358
     atom    2 type  1   force =     0.00000000   -0.00522953    0.00000000
     atom    3 type  1   force =    -0.00090750    0.00128770   -0.00090750
     atom    4 type  1   force =    -0.00007260    0.00007011   -0.00003932
     atom    5 type  1   force =    -0.00000538    0.00000812    0.00001804
     atom    6 type  1   force =    -0.00001204   -0.00000037   -0.00000009
     atom    7 type  1   force =    -0.00000524    0.00000794   -0.00001790
     atom    8 type  1   force =    -0.00007208    0.00006945    0.00003888
     atom    9 type  1   force =     0.00090750    0.00128770    0.00090750
     atom   10 type  1   force =     0.00003932    0.00007011    0.00007260
     atom   11 type  1   force =     0.00001261   -0.00000209   -0.00001261
     atom   12 type  1   force =    -0.00000810   -0.00000062    0.00000810
     atom   13 type  1   force =     0.00000361    0.00000069   -0.00000830
     atom   14 type  1   force =    -0.00000493    0.00000699    0.00001219
     atom   15 type  1   force =     0.00001254   -0.00001419   -0.00001687
     atom   16 type  1   force =    -0.00003933   -0.00017281   -0.00003933
     atom   17 type  1   force =    -0.00001804    0.00000812    0.00000538
     atom   18 type  1   force =     0.00000009   -0.00000037    0.00001204
     atom   19 type  1   force =     0.00000830    0.00000069   -0.00000361
     atom   20 type  1   force =    -0.00001219    0.00000699    0.00000493
     atom   21 type  1   force =     0.00000825   -0.00000762   -0.00000825
     atom   22 type  1   force =     0.00000000   -0.00007806    0.00000000
     atom   23 type  1   force =    -0.00001800    0.00008979   -0.00001800
     atom   24 type  1   force =    -0.00001215    0.00000700    0.00000807
     atom   25 type  1   force =     0.00001790    0.00000794    0.00000524
     atom   26 type  1   force =    -0.00003888    0.00006945    0.00007208
     atom   27 type  1   force =     0.00001687   -0.00001419   -0.00001254
     atom   28 type  1   force =     0.00003933   -0.00017281    0.00003933
     atom   29 type  1   force =     0.00001800    0.00008979    0.00001800
     atom   30 type  1   force =    -0.00000807    0.00000700    0.00001215
     atom   31 type  1   force =     0.00000955   -0.00000225   -0.00000955
     atom   32 type  1   force =    -0.00000492   -0.00000061    0.00000492
     atom   33 type  1   force =     0.00088358    0.00127557   -0.00088358
     atom   34 type  1   force =    -0.00003886   -0.00017242    0.00003886
     atom   35 type  1   force =     0.00001271   -0.00001440    0.00001670
     atom   36 type  1   force =    -0.00000490    0.00000700   -0.00001209
     atom   37 type  1   force =     0.00000364    0.00000072    0.00000821
     atom   38 type  1   force =    -0.00000807   -0.00000067   -0.00000807
     atom   39 type  1   force =     0.00001264   -0.00000208    0.00001264
     atom   40 type  1   force =     0.00003888    0.00006945   -0.00007208
     atom   41 type  1   force =    -0.00001670   -0.00001440   -0.00001271
     atom   42 type  1   force =     0.00001209    0.00000700    0.00000490
     atom   43 type  1   force =    -0.00000031   -0.00000453    0.00000031
     atom   44 type  1   force =     0.00000000    0.00000418    0.00000000
     atom   45 type  1   force =    -0.00000032   -0.00000453   -0.00000032
     atom   46 type  1   force =     0.00001219    0.00000699   -0.00000493
     atom   47 type  1   force =    -0.00001687   -0.00001419    0.00001254
     atom   48 type  1   force =     0.00000000    0.00000902    0.00000002
     atom   49 type  1   force =    -0.00000821    0.00000072   -0.00000364
     atom   50 type  1   force =     0.00000807   -0.00000067    0.00000807
     atom   51 type  1   force =     0.00000032   -0.00000453    0.00000032
     atom   52 type  1   force =     0.00000493    0.00000699   -0.00001219
     atom   53 type  1   force =    -0.00000825   -0.00000762    0.00000825
     atom   54 type  1   force =    -0.00000034    0.00000529    0.00000034
     atom   55 type  1   force =    -0.00000130   -0.00000584    0.00000053
     atom   56 type  1   force =     0.00000032    0.00000425   -0.00000018
     atom   57 type  1   force =    -0.00001264   -0.00000208   -0.00001264
     atom   58 type  1   force =     0.00007208    0.00006945   -0.00003888
     atom   59 type  1   force =    -0.00001254   -0.00001419    0.00001687
     atom   60 type  1   force =    -0.00000002    0.00000902   -0.00000000
     atom   61 type  1   force =    -0.00000053   -0.00000584    0.00000130
     atom   62 type  1   force =     0.00000018    0.00000425   -0.00000032
     atom   63 type  1   force =    -0.00000053   -0.00000188    0.00000053
     atom   64 type  1   force =     0.00000000    0.00000354    0.00000000
     atom   65 type  1   force =    -0.00001794    0.00008941    0.00001794
     atom   66 type  1   force =     0.00000000   -0.00007778    0.00000000
     atom   67 type  1   force =     0.00000826   -0.00000768    0.00000826
     atom   68 type  1   force =    -0.00001209    0.00000700   -0.00000490
     atom   69 type  1   force =     0.00000821    0.00000072    0.00000364
     atom   70 type  1   force =    -0.00000009   -0.00000037   -0.00001204
     atom   71 type  1   force =    -0.00001790    0.00000794   -0.00000524
     atom   72 type  1   force =    -0.00001212    0.00000699   -0.00000810
     atom   73 type  1   force =    -0.00000826   -0.00000768   -0.00000826
     atom   74 type  1   force =     0.00000490    0.00000700    0.00001209
     atom   75 type  1   force =     0.00000031   -0.00000453   -0.00000031
     atom   76 type  1   force =     0.00000810   -0.00000062   -0.00000810
     atom   77 type  1   force =    -0.00000830    0.00000069    0.00000361
     atom   78 type  1   force =     0.00000033    0.00000427    0.00000020
     atom   79 type  1   force =    -0.00000132   -0.00000585   -0.00000055
     atom   80 type  1   force =    -0.00000032    0.00000529   -0.00000032
     atom   81 type  1   force =    -0.00000364    0.00000072   -0.00000821
     atom   82 type  1   force =     0.00001204   -0.00000037    0.00000009
     atom   83 type  1   force =    -0.00000361    0.00000069    0.00000830
     atom   84 type  1   force =    -0.00000020    0.00000427   -0.00000033
     atom   85 type  1   force =    -0.00000038   -0.00000474    0.00000038
     atom   86 type  1   force =     0.00000000    0.00000452    0.00000000
     atom   87 type  1   force =    -0.00000038   -0.00000473   -0.00000038
     atom   88 type  1   force =    -0.00000018    0.00000425    0.00000032
     atom   89 type  1   force =     0.00000524    0.00000794    0.00001790
     atom   90 type  1   force =     0.00000810    0.00000699    0.00001212
     atom   91 type  1   force =     0.00000055   -0.00000585    0.00000132
     atom   92 type  1   force =     0.00000032    0.00000529    0.00000032
     atom   93 type  1   force =     0.00000038   -0.00000473    0.00000038
     atom   94 type  1   force =    -0.00000032    0.00000425    0.00000018
     atom   95 type  1   force =     0.00000053   -0.00000188   -0.00000053
     atom   96 type  1   force =     0.00000492   -0.00000061   -0.00000492
     atom   97 type  1   force =     0.00001794    0.00008941   -0.00001794
     atom   98 type  1   force =     0.00003886   -0.00017242   -0.00003886
     atom   99 type  1   force =     0.00001670   -0.00001440    0.00001271
     atom  100 type  1   force =    -0.00003932    0.00007011   -0.00007260
     atom  101 type  1   force =     0.00001804    0.00000812   -0.00000538
     atom  102 type  1   force =    -0.00000491   -0.00000068   -0.00000491
     atom  103 type  1   force =     0.00000958   -0.00000226    0.00000958
     atom  104 type  1   force =    -0.00000810    0.00000699   -0.00001212
     atom  105 type  1   force =    -0.00001271   -0.00001440   -0.00001670
     atom  106 type  1   force =     0.00007260    0.00007011    0.00003932
     atom  107 type  1   force =    -0.00001261   -0.00000209    0.00001261
     atom  108 type  1   force =     0.00000000    0.00000356    0.00000000
     atom  109 type  1   force =    -0.00000055   -0.00000190   -0.00000055
     atom  110 type  1   force =     0.00000020    0.00000427    0.00000033
     atom  111 type  1   force =    -0.00000055   -0.00000585   -0.00000132
     atom  112 type  1   force =     0.00000002    0.00000902    0.00000000
     atom  113 type  1   force =     0.00000538    0.00000812   -0.00001804
     atom  114 type  1   force =     0.00000491   -0.00000068    0.00000491
     atom  115 type  1   force =     0.00000055   -0.00000190    0.00000055
     atom  116 type  1   force =    -0.00000033    0.00000427   -0.00000020
     atom  117 type  1   force =     0.00000038   -0.00000474   -0.00000038
     atom  118 type  1   force =     0.00000034    0.00000529   -0.00000034
     atom  119 type  1   force =     0.00000053   -0.00000584   -0.00000130
     atom  120 type  1   force =     0.00000807    0.00000700   -0.00001215
     atom  121 type  1   force =    -0.00000958   -0.00000226   -0.00000958
     atom  122 type  1   force =     0.00001212    0.00000699    0.00000810
     atom  123 type  1   force =     0.00000132   -0.00000585    0.00000055
     atom  124 type  1   force =    -0.00000000    0.00000902   -0.00000002
     atom  125 type  1   force =     0.00000130   -0.00000584   -0.00000053
     atom  126 type  1   force =     0.00001215    0.00000700   -0.00000807
     atom  127 type  1   force =    -0.00000955   -0.00000225    0.00000955
     atom  128 type  1   force =     0.00000000    0.00000418    0.00000000

     Total force =     0.006374     Total SCF correction =     0.000000

     Writing all to output data dir ./scratch_runs/atom02_y_plus/si_sup.save/ :
     XML data file, charge density, pseudopotentials, collected wavefunctions
 
     init_run     :     13.60s CPU     14.15s WALL (       1 calls)
     electrons    :    834.02s CPU    850.82s WALL (       1 calls)
     forces       :      7.83s CPU      7.89s WALL (       1 calls)

     Called by init_run:
     wfcinit      :     13.48s CPU     14.01s WALL (       1 calls)
     potinit      :      0.01s CPU      0.01s WALL (       1 calls)
     hinit0       :      0.02s CPU      0.03s WALL (       1 calls)

     Called by electrons:
     c_bands      :    764.06s CPU    778.72s WALL (      41 calls)
     sum_band     :     69.36s CPU     71.49s WALL (      41 calls)
     v_of_rho     :      0.26s CPU      0.27s WALL (      41 calls)
     mix_rho      :      0.28s CPU      0.28s WALL (      41 calls)

     Called by c_bands:
     init_us_2    :     34.86s CPU     34.92s WALL (     672 calls)
     cegterg      :    682.37s CPU    696.95s WALL (     328 calls)

     Called by *egterg:
     cdiaghg      :     46.57s CPU     47.59s WALL (    1021 calls)
     h_psi        :    522.98s CPU    529.76s WALL (    1037 calls)
     g_psi        :      1.16s CPU      1.17s WALL (     701 calls)

     Called by h_psi:
     h_psi:calbec :    159.89s CPU    159.93s WALL (    1037 calls)
     vloc_psi     :    195.23s CPU    198.30s WALL (    1037 calls)
     add_vuspsi   :    166.33s CPU    166.40s WALL (    1037 calls)

     General routines
     calbec       :    166.32s CPU    166.36s WALL (    1069 calls)
     fft          :      0.11s CPU      0.12s WALL (     127 calls)
     ffts         :      0.03s CPU      0.04s WALL (      41 calls)
     fftw         :    195.44s CPU    199.68s WALL (  484966 calls)
 
     Parallel routines
 
     PWSCF        :  14m15.96s CPU  14m34.08s WALL

 
   This run was terminated on:   0: 7: 0  27Apr2026            

=------------------------------------------------------------------------------=
   JOB DONE.
=------------------------------------------------------------------------------=

===== TIMING =====
Job:           atom02_y_plus
Start:         2026-04-26T23:52:24+02:00
End:           2026-04-27T00:07:00+02:00
Duration (s):  876
Duration (H:M:S): 00:14:36
==================
