
     Program PWSCF v.7.4 starts on 14May2026 at  0:39:26 

     This program is part of the open-source Quantum ESPRESSO suite
     for quantum simulation of materials; please cite
         "P. Giannozzi et al., J. Phys.:Condens. Matter 21 395502 (2009);
         "P. Giannozzi et al., J. Phys.:Condens. Matter 29 465901 (2017);
         "P. Giannozzi et al., J. Chem. Phys. 152 154105 (2020);
          URL http://www.quantum-espresso.org", 
     in publications or presentations arising from this work. More details at
     http://www.quantum-espresso.org/quote

     Parallel version (MPI), running on    12 processors

     MPI processes distributed on     1 nodes
     177475 MiB available memory on the printing compute node when the environment starts
 
     Reading input from ./scratch_runs/atom02_y_plus/atom02_y_plus.in

     Current dimensions of program PWSCF are:
     Max number of different atomic species (ntypx) = 10
     Max number of k-points (npk) =  40000
     Max angular momentum in pseudopotentials (lmaxx) =  4
read_pp_mesh; mismatch in mesh size, discarding the one in header
     Message from routine setup:
     using ibrav=0 with symmetry is DISCOURAGED, use correct ibrav instead
 
     R & G space division:  proc/nbgrp/npool/nimage =      12
     Subspace diagonalization in iterative solution of the eigenvalue problem:
     one sub-group per band group will be used
     custom distributed-memory algorithm (size of sub-group:  2*  2 procs)

 
     Parallelization info
     --------------------
     sticks:   dense  smooth     PW     G-vecs:    dense   smooth      PW
     Min        2442    2442    624               348776   348776   45074
     Max        2443    2443    625               348781   348781   45075
     Sum       29305   29305   7495              4185323  4185323  540895
 
     Using Slab Decomposition
 


     bravais-lattice index     =            0
     lattice parameter (alat)  =      32.6115  a.u.
     unit-cell volume          =   30980.7320 (a.u.)^3
     number of atoms/cell      =           98
     number of atomic types    =            1
     number of electrons       =       392.00
     number of Kohn-Sham states=          235
     kinetic-energy cutoff     =     100.0000  Ry
     charge density cutoff     =     400.0000  Ry
     scf convergence threshold =      1.0E-16
     mixing beta               =       0.7000
     number of iterations used =            8  plain     mixing
     Exchange-correlation= SLA PW NOGX NOGC
                           (   1   4   0   0   0   0   0)

     celldm(1)=  32.611523  celldm(2)=   0.000000  celldm(3)=   0.000000
     celldm(4)=   0.000000  celldm(5)=   0.000000  celldm(6)=   0.000000

     crystal axes: (cart. coord. in units of alat)
               a(1) = (   1.000000   0.000000   0.000000 )  
               a(2) = (  -0.500000   0.866025   0.000000 )  
               a(3) = (   0.000000   0.000000   1.031449 )  

     reciprocal axes: (cart. coord. in units 2 pi/alat)
               b(1) = (  1.000000  0.577350  0.000000 )  
               b(2) = (  0.000000  1.154701  0.000000 )  
               b(3) = (  0.000000  0.000000  0.969510 )  


     PseudoPot. # 1 for C  read from file:
     ./C.upf
     MD5 check sum: 1b594deb0bcc8b4bffb8cfaf75c62b92
     Pseudo is Projector augmented-wave + core cor, Zval =  4.0
     Generated using ATOMPAW code
     Shape of augmentation charge: SINC**2
     Using radial grid of 2342 points,  4 beta functions with: 
                l(1) =   0
                l(2) =   0
                l(3) =   1
                l(4) =   1
     Q(r) pseudized with 0 coefficients 


     atomic species   valence    mass     pseudopotential
     C                 4.00    12.01070     C ( 1.00)

      4 Sym. Ops. (no inversion) found



   Cartesian axes

     site n.     atom                  positions (alat units)
         1        C      tau(   1) = (   0.0000000   0.0000000   0.5157245  )
         2        C      tau(   2) = (   0.0000000   0.0830580   0.5157245  )
         3        C      tau(   3) = (   0.1428570   0.0000000   0.5157245  )
         4        C      tau(   4) = (   0.1428570   0.0824785   0.5157245  )
         5        C      tau(   5) = (   0.2857140   0.0000000   0.5157245  )
         6        C      tau(   6) = (   0.2857140   0.0824785   0.5157245  )
         7        C      tau(   7) = (   0.4285710   0.0000000   0.5157245  )
         8        C      tau(   8) = (   0.4285710   0.0824785   0.5157245  )
         9        C      tau(   9) = (   0.5714290   0.0000000   0.5157245  )
        10        C      tau(  10) = (   0.5714290   0.0824785   0.5157245  )
        11        C      tau(  11) = (   0.7142860   0.0000000   0.5157245  )
        12        C      tau(  12) = (   0.7142860   0.0824785   0.5157245  )
        13        C      tau(  13) = (   0.8571430   0.0000000   0.5157245  )
        14        C      tau(  14) = (   0.8571430   0.0824785   0.5157245  )
        15        C      tau(  15) = (  -0.0714285   0.1237178   0.5157245  )
        16        C      tau(  16) = (  -0.0714285   0.2061963   0.5157245  )
        17        C      tau(  17) = (   0.0714285   0.1237178   0.5157245  )
        18        C      tau(  18) = (   0.0714285   0.2061963   0.5157245  )
        19        C      tau(  19) = (   0.2142855   0.1237178   0.5157245  )
        20        C      tau(  20) = (   0.2142855   0.2061963   0.5157245  )
        21        C      tau(  21) = (   0.3571425   0.1237178   0.5157245  )
        22        C      tau(  22) = (   0.3571425   0.2061963   0.5157245  )
        23        C      tau(  23) = (   0.5000005   0.1237178   0.5157245  )
        24        C      tau(  24) = (   0.5000005   0.2061963   0.5157245  )
        25        C      tau(  25) = (   0.6428575   0.1237178   0.5157245  )
        26        C      tau(  26) = (   0.6428575   0.2061963   0.5157245  )
        27        C      tau(  27) = (   0.7857145   0.1237178   0.5157245  )
        28        C      tau(  28) = (   0.7857145   0.2061963   0.5157245  )
        29        C      tau(  29) = (  -0.1428570   0.2474356   0.5157245  )
        30        C      tau(  30) = (  -0.1428570   0.3299141   0.5157245  )
        31        C      tau(  31) = (   0.0000000   0.2474356   0.5157245  )
        32        C      tau(  32) = (   0.0000000   0.3299141   0.5157245  )
        33        C      tau(  33) = (   0.1428570   0.2474356   0.5157245  )
        34        C      tau(  34) = (   0.1428570   0.3299141   0.5157245  )
        35        C      tau(  35) = (   0.2857140   0.2474356   0.5157245  )
        36        C      tau(  36) = (   0.2857140   0.3299141   0.5157245  )
        37        C      tau(  37) = (   0.4285720   0.2474356   0.5157245  )
        38        C      tau(  38) = (   0.4285720   0.3299141   0.5157245  )
        39        C      tau(  39) = (   0.5714290   0.2474356   0.5157245  )
        40        C      tau(  40) = (   0.5714290   0.3299141   0.5157245  )
        41        C      tau(  41) = (   0.7142860   0.2474356   0.5157245  )
        42        C      tau(  42) = (   0.7142860   0.3299141   0.5157245  )
        43        C      tau(  43) = (  -0.2142855   0.3711534   0.5157245  )
        44        C      tau(  44) = (  -0.2142860   0.4536327   0.5157245  )
        45        C      tau(  45) = (  -0.0714285   0.3711534   0.5157245  )
        46        C      tau(  46) = (  -0.0714290   0.4536327   0.5157245  )
        47        C      tau(  47) = (   0.0714285   0.3711534   0.5157245  )
        48        C      tau(  48) = (   0.0714280   0.4536327   0.5157245  )
        49        C      tau(  49) = (   0.2142855   0.3711534   0.5157245  )
        50        C      tau(  50) = (   0.2142850   0.4536327   0.5157245  )
        51        C      tau(  51) = (   0.3571435   0.3711534   0.5157245  )
        52        C      tau(  52) = (   0.3571430   0.4536327   0.5157245  )
        53        C      tau(  53) = (   0.5000005   0.3711534   0.5157245  )
        54        C      tau(  54) = (   0.5000000   0.4536327   0.5157245  )
        55        C      tau(  55) = (   0.6428575   0.3711534   0.5157245  )
        56        C      tau(  56) = (   0.6428570   0.4536327   0.5157245  )
        57        C      tau(  57) = (  -0.2857145   0.4948720   0.5157245  )
        58        C      tau(  58) = (  -0.2857145   0.5773505   0.5157245  )
        59        C      tau(  59) = (  -0.1428575   0.4948720   0.5157245  )
        60        C      tau(  60) = (  -0.1428575   0.5773505   0.5157245  )
        61        C      tau(  61) = (  -0.0000005   0.4948720   0.5157245  )
        62        C      tau(  62) = (  -0.0000005   0.5773505   0.5157245  )
        63        C      tau(  63) = (   0.1428565   0.4948720   0.5157245  )
        64        C      tau(  64) = (   0.1428565   0.5773505   0.5157245  )
        65        C      tau(  65) = (   0.2857145   0.4948720   0.5157245  )
        66        C      tau(  66) = (   0.2857145   0.5773505   0.5157245  )
        67        C      tau(  67) = (   0.4285715   0.4948720   0.5157245  )
        68        C      tau(  68) = (   0.4285715   0.5773505   0.5157245  )
        69        C      tau(  69) = (   0.5714285   0.4948720   0.5157245  )
        70        C      tau(  70) = (   0.5714285   0.5773505   0.5157245  )
        71        C      tau(  71) = (  -0.3571430   0.6185898   0.5157245  )
        72        C      tau(  72) = (  -0.3571430   0.7010683   0.5157245  )
        73        C      tau(  73) = (  -0.2142860   0.6185898   0.5157245  )
        74        C      tau(  74) = (  -0.2142860   0.7010683   0.5157245  )
        75        C      tau(  75) = (  -0.0714290   0.6185898   0.5157245  )
        76        C      tau(  76) = (  -0.0714290   0.7010683   0.5157245  )
        77        C      tau(  77) = (   0.0714280   0.6185898   0.5157245  )
        78        C      tau(  78) = (   0.0714280   0.7010683   0.5157245  )
        79        C      tau(  79) = (   0.2142860   0.6185898   0.5157245  )
        80        C      tau(  80) = (   0.2142860   0.7010683   0.5157245  )
        81        C      tau(  81) = (   0.3571430   0.6185898   0.5157245  )
        82        C      tau(  82) = (   0.3571430   0.7010683   0.5157245  )
        83        C      tau(  83) = (   0.5000000   0.6185898   0.5157245  )
        84        C      tau(  84) = (   0.5000000   0.7010683   0.5157245  )
        85        C      tau(  85) = (  -0.4285715   0.7423076   0.5157245  )
        86        C      tau(  86) = (  -0.4285715   0.8247861   0.5157245  )
        87        C      tau(  87) = (  -0.2857145   0.7423076   0.5157245  )
        88        C      tau(  88) = (  -0.2857145   0.8247861   0.5157245  )
        89        C      tau(  89) = (  -0.1428575   0.7423076   0.5157245  )
        90        C      tau(  90) = (  -0.1428575   0.8247861   0.5157245  )
        91        C      tau(  91) = (  -0.0000005   0.7423076   0.5157245  )
        92        C      tau(  92) = (  -0.0000005   0.8247861   0.5157245  )
        93        C      tau(  93) = (   0.1428575   0.7423076   0.5157245  )
        94        C      tau(  94) = (   0.1428575   0.8247861   0.5157245  )
        95        C      tau(  95) = (   0.2857145   0.7423076   0.5157245  )
        96        C      tau(  96) = (   0.2857145   0.8247861   0.5157245  )
        97        C      tau(  97) = (   0.4285715   0.7423076   0.5157245  )
        98        C      tau(  98) = (   0.4285715   0.8247861   0.5157245  )

     number of k points=     7  Marzari-Vanderbilt smearing, width (Ry)=  0.0200
                       cart. coord. in units 2pi/alat
        k(    1) = (   0.0000000   0.0000000   0.0000000), wk =   0.1250000
        k(    2) = (   0.0000000   0.2886751   0.0000000), wk =   0.2500000
        k(    3) = (   0.0000000  -0.5773503   0.0000000), wk =   0.1250000
        k(    4) = (   0.2500000   0.4330127   0.0000000), wk =   0.5000000
        k(    5) = (  -0.2500000   0.1443376   0.0000000), wk =   0.5000000
        k(    6) = (   0.5000000  -0.2886751   0.0000000), wk =   0.2500000
        k(    7) = (   0.5000000   0.0000000   0.0000000), wk =   0.2500000

     Dense  grid:  4185323 G-vectors     FFT dimensions: ( 216, 216, 216)

     Estimated max dynamical RAM per process >       3.67 GB

     Estimated total dynamical RAM >      44.07 GB
 ----2D----2D----2D----2D----2D----2D----2D----2D----2D----2D----2D----2D
  The code is running with the 2D cutoff
  Please refer to:
  Sohier, T., Calandra, M., & Mauri, F. (2017), 
  Density functional perturbation theory for gated two-dimensional heterostructu
 res:
  Theoretical developments and application to flexural phonons in graphene.
  Physical Review B, 96(7), 75448. https://doi.org/10.1103/PhysRevB.96.075448
 ----2D----2D----2D----2D----2D----2D----2D----2D----2D----2D----2D----2D

     Check: negative core charge=   -0.000011

     Initial potential from superposition of free atoms

     starting charge     391.9962, renormalised to     392.0000

     negative rho (up, down):  2.274E-04 0.000E+00
     Starting wfcs are  784 randomized atomic wfcs
     Checking if some PAW data can be deallocated... 

     total cpu time spent up to now is      145.8 secs

     per-process dynamical memory:  2052.6 Mb

     Self-consistent Calculation

     iteration #  1     ecut=   100.00 Ry     beta= 0.70
     Davidson diagonalization with overlap
     ethr =  1.00E-02,  avg # of iterations =  2.0

     negative rho (up, down):  1.253E-03 0.000E+00

     total cpu time spent up to now is      299.9 secs

     total energy              =   -1744.99100390 Ry
     estimated scf accuracy    <       9.60600381 Ry

     iteration #  2     ecut=   100.00 Ry     beta= 0.70
     Davidson diagonalization with overlap
     ethr =  2.45E-03,  avg # of iterations =  2.0

     negative rho (up, down):  1.772E-03 0.000E+00

     total cpu time spent up to now is      438.3 secs

     total energy              =   -1746.37443329 Ry
     estimated scf accuracy    <       0.12053743 Ry

     iteration #  3     ecut=   100.00 Ry     beta= 0.70
     Davidson diagonalization with overlap
     c_bands:  4 eigenvalues not converged
     c_bands:  4 eigenvalues not converged
     c_bands:  5 eigenvalues not converged
     c_bands:  4 eigenvalues not converged
     ethr =  3.07E-05,  avg # of iterations = 25.3

     negative rho (up, down):  2.145E-03 0.000E+00

     total cpu time spent up to now is      688.0 secs

     total energy              =   -1746.39032661 Ry
     estimated scf accuracy    <       0.00989515 Ry

     iteration #  4     ecut=   100.00 Ry     beta= 0.70
     Davidson diagonalization with overlap
     c_bands:  1 eigenvalues not converged
     ethr =  2.52E-06,  avg # of iterations = 12.9

     negative rho (up, down):  2.195E-03 0.000E+00

     total cpu time spent up to now is      880.0 secs

     total energy              =   -1746.38966673 Ry
     estimated scf accuracy    <       0.02230802 Ry

     iteration #  5     ecut=   100.00 Ry     beta= 0.70
     Davidson diagonalization with overlap
     ethr =  2.52E-06,  avg # of iterations =  8.0

     negative rho (up, down):  2.213E-03 0.000E+00

     total cpu time spent up to now is     1029.0 secs

     total energy              =   -1746.39347153 Ry
     estimated scf accuracy    <       0.00063630 Ry

     iteration #  6     ecut=   100.00 Ry     beta= 0.70
     Davidson diagonalization with overlap
     ethr =  1.62E-07,  avg # of iterations =  2.6

     negative rho (up, down):  2.232E-03 0.000E+00

     total cpu time spent up to now is     1160.2 secs

     total energy              =   -1746.39363817 Ry
     estimated scf accuracy    <       0.00007535 Ry

     iteration #  7     ecut=   100.00 Ry     beta= 0.70
     Davidson diagonalization with overlap
     ethr =  1.92E-08,  avg # of iterations =  2.3

     negative rho (up, down):  2.246E-03 0.000E+00

     total cpu time spent up to now is     1296.9 secs

     total energy              =   -1746.39365530 Ry
     estimated scf accuracy    <       0.00001524 Ry

     iteration #  8     ecut=   100.00 Ry     beta= 0.70
     Davidson diagonalization with overlap
     ethr =  3.89E-09,  avg # of iterations =  2.0

     negative rho (up, down):  2.247E-03 0.000E+00

     total cpu time spent up to now is     1425.3 secs

     total energy              =   -1746.39365755 Ry
     estimated scf accuracy    <       0.00000289 Ry

     iteration #  9     ecut=   100.00 Ry     beta= 0.70
     Davidson diagonalization with overlap
     ethr =  7.38E-10,  avg # of iterations =  2.1

     negative rho (up, down):  2.248E-03 0.000E+00

     total cpu time spent up to now is     1551.2 secs

     total energy              =   -1746.39365791 Ry
     estimated scf accuracy    <       0.00000083 Ry

     iteration # 10     ecut=   100.00 Ry     beta= 0.70
     Davidson diagonalization with overlap
     ethr =  2.13E-10,  avg # of iterations =  2.0

     negative rho (up, down):  2.248E-03 0.000E+00

     total cpu time spent up to now is     1677.8 secs

     total energy              =   -1746.39365805 Ry
     estimated scf accuracy    <       0.00000017 Ry

     iteration # 11     ecut=   100.00 Ry     beta= 0.70
     Davidson diagonalization with overlap
     ethr =  4.44E-11,  avg # of iterations =  2.0

     negative rho (up, down):  2.248E-03 0.000E+00

     total cpu time spent up to now is     1810.0 secs

     total energy              =   -1746.39365809 Ry
     estimated scf accuracy    <       0.00000003 Ry

     iteration # 12     ecut=   100.00 Ry     beta= 0.70
     Davidson diagonalization with overlap
     ethr =  7.30E-12,  avg # of iterations =  3.1

     negative rho (up, down):  2.248E-03 0.000E+00

     total cpu time spent up to now is     1943.9 secs

     total energy              =   -1746.39365810 Ry
     estimated scf accuracy    <          8.3E-09 Ry

     iteration # 13     ecut=   100.00 Ry     beta= 0.70
     Davidson diagonalization with overlap
     ethr =  2.11E-12,  avg # of iterations =  2.0

     negative rho (up, down):  2.248E-03 0.000E+00

     total cpu time spent up to now is     2069.3 secs

     total energy              =   -1746.39365810 Ry
     estimated scf accuracy    <          5.8E-10 Ry

     iteration # 14     ecut=   100.00 Ry     beta= 0.70
     Davidson diagonalization with overlap
     ethr =  1.48E-13,  avg # of iterations =  3.7

     negative rho (up, down):  2.248E-03 0.000E+00

     total cpu time spent up to now is     2213.2 secs

     total energy              =   -1746.39365810 Ry
     estimated scf accuracy    <          1.2E-10 Ry

     iteration # 15     ecut=   100.00 Ry     beta= 0.70
     Davidson diagonalization with overlap
     ethr =  1.00E-13,  avg # of iterations =  1.6

     negative rho (up, down):  2.248E-03 0.000E+00

     total cpu time spent up to now is     2322.8 secs

     total energy              =   -1746.39365810 Ry
     estimated scf accuracy    <          7.0E-11 Ry

     iteration # 16     ecut=   100.00 Ry     beta= 0.70
     Davidson diagonalization with overlap
     ethr =  1.00E-13,  avg # of iterations =  1.0

     negative rho (up, down):  2.248E-03 0.000E+00

     total cpu time spent up to now is     2427.5 secs

     total energy              =   -1746.39365810 Ry
     estimated scf accuracy    <          8.9E-12 Ry

     iteration # 17     ecut=   100.00 Ry     beta= 0.70
     Davidson diagonalization with overlap
     ethr =  1.00E-13,  avg # of iterations =  1.0

     negative rho (up, down):  2.248E-03 0.000E+00

     total cpu time spent up to now is     2532.3 secs

     total energy              =   -1746.39365810 Ry
     estimated scf accuracy    <          3.9E-12 Ry

     iteration # 18     ecut=   100.00 Ry     beta= 0.70
     Davidson diagonalization with overlap
     ethr =  1.00E-13,  avg # of iterations =  1.0

     negative rho (up, down):  2.248E-03 0.000E+00

     total cpu time spent up to now is     2637.1 secs

     total energy              =   -1746.39365810 Ry
     estimated scf accuracy    <          7.0E-13 Ry

     iteration # 19     ecut=   100.00 Ry     beta= 0.70
     Davidson diagonalization with overlap
     ethr =  1.00E-13,  avg # of iterations =  1.0

     negative rho (up, down):  2.248E-03 0.000E+00

     total cpu time spent up to now is     2741.9 secs

     total energy              =   -1746.39365810 Ry
     estimated scf accuracy    <          7.1E-14 Ry

     iteration # 20     ecut=   100.00 Ry     beta= 0.70
     Davidson diagonalization with overlap
     ethr =  1.00E-13,  avg # of iterations =  1.0

     negative rho (up, down):  2.248E-03 0.000E+00

     total cpu time spent up to now is     2846.7 secs

     total energy              =   -1746.39365810 Ry
     estimated scf accuracy    <          2.0E-14 Ry

     iteration # 21     ecut=   100.00 Ry     beta= 0.70
     Davidson diagonalization with overlap
     ethr =  1.00E-13,  avg # of iterations =  1.0

     negative rho (up, down):  2.248E-03 0.000E+00

     total cpu time spent up to now is     2951.3 secs

     total energy              =   -1746.39365810 Ry
     estimated scf accuracy    <          6.4E-15 Ry

     iteration # 22     ecut=   100.00 Ry     beta= 0.70
     Davidson diagonalization with overlap
     ethr =  1.00E-13,  avg # of iterations =  1.0

     negative rho (up, down):  2.248E-03 0.000E+00

     total cpu time spent up to now is     3056.1 secs

     total energy              =   -1746.39365810 Ry
     estimated scf accuracy    <          2.7E-15 Ry

     iteration # 23     ecut=   100.00 Ry     beta= 0.70
     Davidson diagonalization with overlap
     ethr =  1.00E-13,  avg # of iterations =  1.0

     negative rho (up, down):  2.248E-03 0.000E+00

     total cpu time spent up to now is     3160.8 secs

     total energy              =   -1746.39365810 Ry
     estimated scf accuracy    <          2.3E-16 Ry

     iteration # 24     ecut=   100.00 Ry     beta= 0.70
     Davidson diagonalization with overlap
     ethr =  1.00E-13,  avg # of iterations =  1.0

     negative rho (up, down):  2.248E-03 0.000E+00

     total cpu time spent up to now is     3265.3 secs

     End of self-consistent calculation

          k = 0.0000 0.0000 0.0000 (523289 PWs)   bands (ev):

   -23.8598 -23.3833 -23.3816 -23.3813 -23.3811 -23.3810 -23.3789 -22.4356
   -22.4329 -22.4324 -22.4323 -22.4323 -22.4289 -21.9654 -21.9626 -21.9622
   -21.9620 -21.9618 -21.9582 -20.5839 -20.5788 -20.5769 -20.5769 -20.5768
   -20.5767 -20.5766 -20.5766 -20.5766 -20.5765 -20.5760 -20.5681 -19.6824
   -19.6805 -19.6793 -19.6789 -19.6786 -19.6746 -18.4013 -18.4002 -18.3983
   -18.3983 -18.3979 -18.3938 -18.2923 -18.2920 -18.2900 -18.2899 -18.2898
   -18.2852 -17.4023 -17.3996 -17.3989 -17.3988 -17.3983 -17.3951 -16.4465
   -16.4459 -16.4437 -16.4434 -16.4426 -16.4394 -15.8862 -15.8850 -15.8832
   -15.8832 -15.8831 -15.8784 -14.5180 -14.5148 -14.5110 -14.5110 -14.5109
   -14.5109 -14.5108 -14.5108 -14.5107 -14.5106 -14.5092 -14.5020 -14.4317
   -14.4312 -14.4299 -14.4298 -14.4280 -14.4278 -12.8405 -12.8375 -12.8360
   -12.8358 -12.8348 -12.8310 -12.3501 -12.3479 -12.3470 -12.3469 -12.3460
   -12.3436 -12.1913 -11.8440 -11.8388 -11.8364 -11.8363 -11.8363 -11.8362
   -11.8361 -11.8361 -11.8361 -11.8360 -11.8337 -11.8284 -11.6189 -11.6175
   -11.6173 -11.6171 -11.6171 -11.6153 -11.3643 -11.3594 -11.3587 -11.3586
   -11.3580 -11.3527 -10.8520 -10.8482 -10.8479 -10.8479 -10.8476 -10.8438
   -10.4950 -10.4927 -10.4924 -10.4923 -10.4923 -10.4895 -10.2360 -10.2320
   -10.2305 -10.2304 -10.2289 -10.2249  -9.9524  -9.9500  -9.9497  -9.9495
    -9.9494  -9.9487  -9.9464  -9.9438  -9.9432  -9.9431  -9.9423  -9.9373
    -9.3184  -9.3121  -9.3114  -9.3113  -9.3107  -9.3039  -8.4851  -8.4779
    -8.4775  -8.4774  -8.4767  -8.4693  -8.3887  -8.3833  -8.3824  -8.3823
    -8.3822  -8.3821  -8.3821  -8.3820  -8.3820  -8.3820  -8.3819  -8.3746
    -7.6009  -7.5947  -7.5734  -7.5708  -7.5703  -7.5702  -7.5700  -7.5663
    -6.4722  -6.4697  -6.4691  -6.4689  -6.4688  -6.4650  -6.0641  -6.0612
    -6.0606  -6.0605  -6.0605  -6.0562  -3.0721  -3.0674  -3.0665  -3.0665
    -3.0664  -3.0641  -3.0611  -3.0591  -3.0586  -3.0585  -3.0584  -3.0514
    -2.0799  -2.0762  -2.0756  -2.0756  -2.0754  -2.0707  -1.2548  -0.6020
    -0.6020  -0.6019  -0.6018  -0.6016  -0.6012  -0.5992  -0.5932  -0.5916
    -0.5916  -0.5915  -0.5915  -0.5914  -0.5913  -0.5913  -0.5913  -0.5911
    -0.5817  -0.4998   0.1640

          k = 0.0000 0.2887 0.0000 (523216 PWs)   bands (ev):

   -23.8298 -23.5903 -23.4708 -23.4707 -23.2323 -23.2321 -23.1131 -22.7573
   -22.7570 -22.4040 -22.4030 -22.4014 -22.1675 -22.1673 -22.0506 -22.0503
   -21.6994 -21.6991 -21.4663 -21.1208 -21.1205 -21.0052 -21.0048 -20.6631
   -20.6625 -20.4343 -20.4337 -20.3193 -20.0974 -20.0969 -19.9860 -19.9848
   -19.9832 -19.9806 -19.3298 -19.3287 -19.0247 -19.0005 -18.9997 -18.7091
   -18.7091 -18.5621 -18.5598 -18.3779 -18.3760 -18.2548 -18.2522 -17.7913
   -17.7908 -17.3826 -17.3817 -17.2285 -17.0945 -17.0934 -16.9406 -16.9380
   -16.8324 -16.8322 -16.3774 -16.3741 -16.1347 -16.1346 -16.0057 -16.0052
   -15.5859 -15.4918 -15.4892 -15.3580 -15.3556 -15.0218 -15.0210 -14.8504
   -14.8483 -14.7324 -14.7315 -14.1532 -14.1526 -14.1410 -14.1388 -14.0565
   -14.0555 -13.9151 -13.9150 -13.7690 -13.6607 -13.6578 -13.2980 -13.2959
   -12.9646 -12.9633 -12.5453 -12.5443 -12.3682 -12.3658 -12.3171 -12.3156
   -12.2476 -12.2458 -12.1552 -12.0626 -12.0608 -12.0544 -12.0510 -11.9011
   -11.8675 -11.7855 -11.7836 -11.7244 -11.7241 -11.5484 -11.5459 -11.5325
   -11.5307 -11.4394 -11.4392 -11.4197 -11.4175 -11.2978 -11.1794 -11.1773
   -10.9996 -10.9973 -10.9385 -10.8810 -10.8785 -10.8753 -10.8752 -10.7538
   -10.7488 -10.7453 -10.7442 -10.7021 -10.4606 -10.4583 -10.4574 -10.2456
   -10.1957 -10.1929 -10.1860 -10.1856 -10.1265 -10.1240 -10.1116 -10.0460
   -10.0460  -9.8719  -9.8685  -9.7333  -9.7289  -9.6804  -9.6773  -9.6485
    -9.6481  -9.6051  -9.3870  -8.9974  -8.9929  -8.9823  -8.9820  -8.8613
    -8.8609  -8.8556  -8.7436  -8.7393  -8.6131  -8.4652  -8.4641  -8.3699
    -8.3646  -8.2466  -8.2455  -8.1638  -8.1354  -7.8531  -7.8530  -7.8335
    -7.8320  -7.7622  -7.7614  -7.7163  -7.6666  -7.2844  -7.2828  -7.0998
    -6.7125  -6.7106  -6.6778  -6.6773  -6.6740  -6.6724  -6.2803  -6.2781
    -6.0828  -6.0805  -5.4839  -5.4827  -3.6486  -3.6460  -3.1143  -3.1122
    -3.0824  -3.0806  -2.9275  -2.9258  -2.8188  -2.8146  -2.6840  -2.4396
    -2.4385  -2.4231  -2.4219  -1.6931  -1.6918  -1.4468  -1.4439  -1.2548
    -1.2140  -1.1952  -1.1943  -0.9157  -0.9144  -0.8875  -0.7242  -0.7241
    -0.4583  -0.3977  -0.3976  -0.3725  -0.3712  -0.2345  -0.1261  -0.0024
    -0.0021   0.0398   0.0399

          k = 0.0000-0.5774 0.0000 (523138 PWs)   bands (ev):

   -23.7405 -23.7394 -23.5007 -23.5005 -23.0259 -23.0243 -23.0239 -23.0219
   -22.7880 -22.7852 -22.3154 -22.3149 -22.3143 -22.3134 -21.6156 -21.6131
   -21.6126 -21.6096 -21.3820 -21.3804 -21.3795 -21.3772 -20.9191 -20.9160
   -20.6918 -20.6912 -20.2367 -20.2366 -20.2351 -20.2336 -19.5723 -19.5707
   -19.5695 -19.5668 -19.3548 -19.3527 -19.3523 -19.3496 -18.9470 -18.9468
   -18.9449 -18.9419 -18.5944 -18.3211 -18.3189 -18.3188 -18.3168 -17.7028
   -17.3832 -17.3825 -17.1583 -17.1574 -17.1551 -17.1547 -16.7558 -16.7514
   -16.6190 -16.6182 -16.6158 -16.6157 -16.1802 -16.1802 -16.1801 -16.1754
   -15.5292 -15.5286 -15.5254 -15.5246 -15.1682 -15.1664 -15.1654 -15.1627
   -14.8260 -14.8251 -14.6912 -14.6890 -13.8366 -13.8354 -13.7375 -13.7348
   -13.7326 -13.7315 -13.5926 -13.5921 -13.5910 -13.5894 -13.2591 -13.2587
   -13.2573 -13.2567 -12.8318 -12.8313 -12.8311 -12.8255 -12.4550 -12.4531
   -12.2244 -12.2207 -12.2196 -12.2192 -12.0476 -12.0467 -11.9176 -11.9136
   -11.9116 -11.9108 -11.7601 -11.7598 -11.3231 -11.3224 -11.3221 -11.3187
   -11.1931 -11.1918 -11.1915 -11.1899 -11.1893 -11.1846 -11.1830 -11.1820
   -11.0842 -11.0832 -11.0827 -11.0792 -10.9881 -10.9840 -10.9683 -10.9122
   -10.9099 -10.6189 -10.6185 -10.6177 -10.6129 -10.5019 -10.4978 -10.3563
   -10.3562 -10.3557 -10.3546 -10.2181 -10.2134 -10.2124 -10.2091  -9.9569
    -9.9561  -9.9552  -9.9493  -9.5431  -9.5404  -9.5402  -9.5378  -9.2863
    -9.2849  -9.2844  -9.2822  -9.2404  -9.2346  -9.1618  -9.1594  -9.1581
    -9.1531  -8.8662  -8.8618  -8.7857  -8.7827  -8.4930  -8.4919  -8.3566
    -8.3514  -8.0703  -8.0644  -8.0622  -8.0619  -8.0613  -8.0591  -7.8566
    -7.8504  -7.2838  -7.2813  -7.2809  -7.2783  -7.1650  -7.1609  -7.1606
    -7.1593  -6.9920  -6.9919  -6.9913  -6.9878  -6.9084  -6.1534  -6.1526
    -6.1525  -6.1488  -5.1727  -5.1703  -3.9618  -3.9581  -3.1117  -3.1079
    -3.1071  -3.1070  -2.9222  -2.7141  -2.7106  -2.7104  -2.7099  -2.2230
    -2.2225  -2.2222  -2.2146  -1.8138  -1.8122  -1.8117  -1.8081  -1.2976
    -1.2948  -1.2937  -1.2933  -1.0918  -1.0914  -0.7650  -0.7649  -0.3340
    -0.3335  -0.3309  -0.3267  -0.2935  -0.2922  -0.1119  -0.1118  -0.1117
    -0.1114  -0.0017  -0.0016

          k = 0.2500 0.4330 0.0000 (523262 PWs)   bands (ev):

   -23.7699 -23.6504 -23.6498 -23.2923 -23.2913 -23.0537 -22.9352 -22.9346
   -22.6987 -22.6973 -22.5801 -22.5791 -21.9925 -21.9911 -21.8754 -21.8738
   -21.6420 -21.5256 -21.5248 -21.1805 -21.1788 -21.1770 -21.1749 -20.8330
   -20.8314 -20.6039 -20.6024 -20.1546 -20.1529 -19.8179 -19.8163 -19.5990
   -19.5976 -19.5952 -19.4879 -19.4872 -19.1688 -19.1677 -18.9494 -18.9479
   -18.8493 -18.8476 -18.7165 -18.7149 -18.5173 -17.9105 -17.7989 -17.7972
   -17.6273 -17.5338 -17.5314 -17.2355 -17.0543 -16.7368 -16.7344 -16.7045
   -16.6921 -16.6896 -16.4285 -16.4264 -16.3766 -16.3755 -15.9064 -15.9052
   -15.8791 -15.8769 -15.6521 -15.6499 -15.1297 -15.1273 -15.0785 -14.9222
   -14.6419 -14.6408 -14.4604 -14.4583 -14.2630 -14.2612 -14.2227 -14.2201
   -13.6306 -13.5076 -13.4716 -13.4699 -13.3065 -13.3034 -13.2517 -13.2491
   -12.9292 -12.9268 -12.8976 -12.8954 -12.8201 -12.8186 -12.7593 -12.7573
   -12.6345 -12.3748 -12.3715 -12.0831 -11.9395 -11.9390 -11.8528 -11.8494
   -11.7254 -11.7231 -11.6032 -11.6007 -11.5107 -11.5099 -11.4483 -11.4449
   -11.3518 -11.3428 -11.2323 -11.2305 -11.2268 -11.0864 -11.0859 -11.0607
   -11.0581 -11.0369 -11.0348 -10.8837 -10.8812 -10.8775 -10.8749 -10.8063
   -10.8051 -10.7065 -10.7038 -10.6675 -10.6667 -10.5607 -10.5573 -10.5317
   -10.5280 -10.4765 -10.4738 -10.3088 -10.3061 -10.0622  -9.9799  -9.9786
    -9.8470  -9.8456  -9.5725  -9.5688  -9.5660  -9.5149  -9.5109  -9.4807
    -9.4771  -9.4443  -9.4438  -9.2040  -9.1329  -9.1294  -9.0644  -9.0634
    -9.0433  -9.0418  -8.7454  -8.7411  -8.6828  -8.6813  -8.4490  -8.4476
    -8.3891  -8.3836  -8.0449  -8.0392  -7.9488  -7.9006  -7.8991  -7.7966
    -7.6308  -7.6290  -7.4671  -7.4654  -7.2979  -7.2339  -7.2330  -7.0758
    -7.0741  -6.9313  -6.9291  -6.7966  -6.6709  -6.6692  -6.6651  -6.6629
    -5.9241  -5.6449  -5.6425  -4.8992  -4.2124  -3.5440  -3.5409  -3.3577
    -2.9500  -2.8693  -2.8658  -2.6695  -2.6664  -2.5273  -2.5253  -2.4818
    -2.4789  -2.1050  -2.1031  -1.9830  -1.9809  -1.7659  -1.7632  -1.7486
    -1.1324  -1.0557  -1.0534  -0.9693  -0.9690  -0.8138  -0.8113  -0.4791
    -0.4790  -0.3859  -0.3838  -0.3752  -0.2093  -0.2089  -0.1524   0.0101
     0.0104   0.1382   0.1401

          k =-0.2500 0.1443 0.0000 (523216 PWs)   bands (ev):

   -23.8298 -23.5903 -23.4715 -23.4700 -23.2329 -23.2314 -23.1131 -22.7580
   -22.7564 -22.4045 -22.4028 -22.4010 -22.1686 -22.1661 -22.0513 -22.0497
   -21.7004 -21.6979 -21.4664 -21.1215 -21.1199 -21.0063 -21.0038 -20.6639
   -20.6614 -20.4352 -20.4326 -20.3194 -20.0985 -20.0959 -19.9861 -19.9843
   -19.9837 -19.9806 -19.3306 -19.3280 -19.0244 -19.0015 -18.9989 -18.7097
   -18.7079 -18.5624 -18.5602 -18.3780 -18.3760 -18.2549 -18.2529 -17.7921
   -17.7893 -17.3823 -17.3799 -17.2302 -17.0943 -17.0912 -16.9419 -16.9402
   -16.8328 -16.8304 -16.3784 -16.3762 -16.1349 -16.1315 -16.0060 -16.0034
   -15.5874 -15.4921 -15.4897 -15.3593 -15.3575 -15.0218 -15.0191 -14.8502
   -14.8479 -14.7312 -14.7302 -14.1555 -14.1533 -14.1404 -14.1383 -14.0556
   -14.0527 -13.9160 -13.9133 -13.7707 -13.6621 -13.6601 -13.2973 -13.2950
   -12.9662 -12.9636 -12.5466 -12.5436 -12.3669 -12.3645 -12.3149 -12.3141
   -12.2498 -12.2479 -12.1552 -12.0607 -12.0599 -12.0553 -12.0527 -11.9034
   -11.8675 -11.7868 -11.7842 -11.7249 -11.7236 -11.5453 -11.5441 -11.5307
   -11.5281 -11.4400 -11.4387 -11.4211 -11.4187 -11.2977 -11.1806 -11.1776
   -11.0008 -10.9983 -10.9363 -10.8821 -10.8796 -10.8758 -10.8746 -10.7537
   -10.7502 -10.7443 -10.7413 -10.7000 -10.4605 -10.4590 -10.4570 -10.2432
   -10.1969 -10.1938 -10.1870 -10.1850 -10.1289 -10.1266 -10.1151 -10.0465
   -10.0452  -9.8733  -9.8704  -9.7324  -9.7283  -9.6801  -9.6759  -9.6494
    -9.6474  -9.6023  -9.3866  -8.9938  -8.9905  -8.9824  -8.9811  -8.8622
    -8.8601  -8.8523  -8.7446  -8.7399  -8.6168  -8.4664  -8.4639  -8.3723
    -8.3687  -8.2478  -8.2454  -8.1629  -8.1313  -7.8541  -7.8520  -7.8346
    -7.8322  -7.7616  -7.7602  -7.7209  -7.6619  -7.2856  -7.2832  -7.0979
    -6.7137  -6.7114  -6.6780  -6.6762  -6.6725  -6.6704  -6.2816  -6.2791
    -6.0842  -6.0816  -5.4833  -5.4808  -3.6501  -3.6478  -3.1132  -3.1099
    -3.0813  -3.0778  -2.9269  -2.9233  -2.8207  -2.8185  -2.6872  -2.4408
    -2.4385  -2.4229  -2.4193  -1.6928  -1.6893  -1.4482  -1.4465  -1.2570
    -1.2140  -1.1963  -1.1936  -0.9153  -0.9119  -0.8875  -0.7243  -0.7240
    -0.4583  -0.3977  -0.3975  -0.3719  -0.3684  -0.2345  -0.1261  -0.0035
    -0.0006   0.0398   0.0400

          k = 0.5000-0.2887 0.0000 (523138 PWs)   bands (ev):

   -23.7403 -23.7396 -23.5014 -23.4998 -23.0258 -23.0241 -23.0239 -23.0222
   -22.7874 -22.7860 -22.3167 -22.3146 -22.3146 -22.3117 -21.6147 -21.6130
   -21.6127 -21.6108 -21.3822 -21.3801 -21.3798 -21.3770 -20.9185 -20.9169
   -20.6926 -20.6901 -20.2379 -20.2356 -20.2354 -20.2327 -19.5720 -19.5707
   -19.5698 -19.5671 -19.3539 -19.3530 -19.3523 -19.3502 -18.9475 -18.9459
   -18.9452 -18.9427 -18.5933 -18.3210 -18.3192 -18.3192 -18.3170 -17.7053
   -17.3831 -17.3798 -17.1572 -17.1564 -17.1558 -17.1526 -16.7575 -16.7551
   -16.6182 -16.6171 -16.6163 -16.6124 -16.1824 -16.1807 -16.1798 -16.1792
   -15.5276 -15.5273 -15.5265 -15.5231 -15.1673 -15.1667 -15.1656 -15.1629
   -14.8244 -14.8240 -14.6922 -14.6911 -13.8350 -13.8323 -13.7354 -13.7343
   -13.7336 -13.7305 -13.5942 -13.5930 -13.5915 -13.5907 -13.2600 -13.2588
   -13.2571 -13.2557 -12.8345 -12.8319 -12.8309 -12.8302 -12.4574 -12.4561
   -12.2200 -12.2198 -12.2190 -12.2172 -12.0474 -12.0468 -11.9141 -11.9127
   -11.9118 -11.9082 -11.7607 -11.7594 -11.3255 -11.3224 -11.3220 -11.3206
   -11.1930 -11.1917 -11.1915 -11.1900 -11.1840 -11.1837 -11.1822 -11.1799
   -11.0866 -11.0834 -11.0829 -11.0810 -10.9896 -10.9877 -10.9660 -10.9115
   -10.9103 -10.6216 -10.6176 -10.6172 -10.6152 -10.4985 -10.4964 -10.3579
   -10.3560 -10.3560 -10.3537 -10.2173 -10.2138 -10.2133 -10.2088  -9.9603
    -9.9564  -9.9552  -9.9536  -9.5417  -9.5404  -9.5401  -9.5382  -9.2867
    -9.2848  -9.2846  -9.2822  -9.2357  -9.2331  -9.1630  -9.1582  -9.1576
    -9.1536  -8.8612  -8.8588  -8.7843  -8.7828  -8.4943  -8.4917  -8.3594
    -8.3570  -8.0729  -8.0704  -8.0644  -8.0616  -8.0615  -8.0593  -7.8509
    -7.8472  -7.2831  -7.2814  -7.2809  -7.2784  -7.1617  -7.1608  -7.1607
    -7.1577  -6.9943  -6.9914  -6.9913  -6.9894  -6.9063  -6.1558  -6.1528
    -6.1528  -6.1507  -5.1709  -5.1680  -3.9636  -3.9612  -3.1093  -3.1073
    -3.1073  -3.1024  -2.9256  -2.7128  -2.7104  -2.7102  -2.7058  -2.2260
    -2.2224  -2.2222  -2.2214  -1.8146  -1.8123  -1.8117  -1.8088  -1.2963
    -1.2941  -1.2940  -1.2894  -1.0917  -1.0914  -0.7651  -0.7648  -0.3339
    -0.3335  -0.3317  -0.3297  -0.2929  -0.2894  -0.1120  -0.1118  -0.1117
    -0.1115  -0.0017  -0.0016

          k = 0.5000 0.0000 0.0000 (523262 PWs)   bands (ev):

   -23.7699 -23.6506 -23.6496 -23.2928 -23.2907 -23.0537 -22.9355 -22.9344
   -22.6993 -22.6965 -22.5807 -22.5786 -21.9932 -21.9904 -21.8761 -21.8729
   -21.6420 -21.5259 -21.5247 -21.1806 -21.1783 -21.1773 -21.1752 -20.8337
   -20.8306 -20.6047 -20.6017 -20.1553 -20.1520 -19.8188 -19.8154 -19.5991
   -19.5975 -19.5952 -19.4882 -19.4870 -19.1694 -19.1671 -18.9501 -18.9472
   -18.8500 -18.8465 -18.7168 -18.7139 -18.5184 -17.9118 -17.7992 -17.7961
   -17.6247 -17.5349 -17.5324 -17.2346 -17.0515 -16.7369 -16.7360 -16.7058
   -16.6934 -16.6902 -16.4293 -16.4270 -16.3757 -16.3734 -15.9054 -15.9031
   -15.8802 -15.8770 -15.6536 -15.6505 -15.1312 -15.1273 -15.0777 -14.9243
   -14.6409 -14.6387 -14.4590 -14.4567 -14.2622 -14.2608 -14.2243 -14.2203
   -13.6323 -13.5054 -13.4739 -13.4711 -13.3059 -13.3027 -13.2538 -13.2499
   -12.9313 -12.9280 -12.8967 -12.8949 -12.8188 -12.8160 -12.7583 -12.7555
   -12.6373 -12.3755 -12.3713 -12.0831 -11.9397 -11.9388 -11.8535 -11.8502
   -11.7244 -11.7220 -11.6022 -11.5999 -11.5112 -11.5095 -11.4499 -11.4451
   -11.3537 -11.3399 -11.2351 -11.2318 -11.2267 -11.0865 -11.0856 -11.0594
   -11.0573 -11.0354 -11.0312 -10.8833 -10.8802 -10.8781 -10.8766 -10.8070
   -10.8047 -10.7055 -10.7026 -10.6679 -10.6662 -10.5634 -10.5584 -10.5314
   -10.5277 -10.4756 -10.4721 -10.3123 -10.3077 -10.0657  -9.9804  -9.9781
    -9.8480  -9.8452  -9.5730  -9.5722  -9.5675  -9.5139  -9.5099  -9.4789
    -9.4736  -9.4441  -9.4433  -9.2002  -9.1315  -9.1265  -9.0643  -9.0627
    -9.0442  -9.0414  -8.7490  -8.7433  -8.6842  -8.6812  -8.4490  -8.4469
    -8.3888  -8.3830  -8.0455  -8.0396  -7.9532  -7.9018  -7.8988  -7.7921
    -7.6308  -7.6282  -7.4691  -7.4660  -7.2971  -7.2332  -7.2320  -7.0749
    -7.0732  -6.9302  -6.9281  -6.7987  -6.6728  -6.6697  -6.6649  -6.6622
    -5.9262  -5.6444  -5.6418  -4.8973  -4.2145  -3.5444  -3.5421  -3.3547
    -2.9465  -2.8703  -2.8682  -2.6697  -2.6676  -2.5261  -2.5225  -2.4832
    -2.4809  -2.1035  -2.0992  -1.9850  -1.9825  -1.7663  -1.7641  -1.7506
    -1.1324  -1.0551  -1.0518  -0.9693  -0.9689  -0.8145  -0.8123  -0.4792
    -0.4789  -0.3850  -0.3810  -0.3752  -0.2094  -0.2089  -0.1524   0.0101
     0.0105   0.1370   0.1393

     the Fermi energy is    -4.6898 ev

!    total energy              =   -1746.39365810 Ry
     total all-electron energy =     -1746.393658 Ry
     estimated scf accuracy    <          5.8E-17 Ry
     smearing contrib. (-TS)   =       0.00260623 Ry
     internal energy E=F+TS    =   -1746.39626433 Ry

     The total energy is F=E-TS. E is the sum of the following terms:
     one-electron contribution =  -15337.95168912 Ry
     hartree contribution      =    7710.45803206 Ry
     xc contribution           =    -435.91804298 Ry
     ewald contribution        =    6878.15493447 Ry
     one-center paw contrib.   =    -561.13949877 Ry

     convergence has been achieved in  24 iterations

     negative rho (up, down):  2.248E-03 0.000E+00

     Forces acting on atoms (cartesian axes, Ry/au):

     atom    1 type  1   force =     0.00000000    0.00925862    0.00000000
     atom    2 type  1   force =     0.00000000   -0.02344988    0.00000000
     atom    3 type  1   force =     0.00046704    0.00048620   -0.00000000
     atom    4 type  1   force =     0.00011343   -0.00102456    0.00000000
     atom    5 type  1   force =    -0.00000247    0.00006639    0.00000000
     atom    6 type  1   force =    -0.00000256   -0.00010868    0.00000000
     atom    7 type  1   force =    -0.00000240   -0.00001081    0.00000000
     atom    8 type  1   force =     0.00000083   -0.00000033    0.00000000
     atom    9 type  1   force =     0.00000240   -0.00001081    0.00000000
     atom   10 type  1   force =    -0.00000083   -0.00000033    0.00000000
     atom   11 type  1   force =     0.00000247    0.00006639    0.00000000
     atom   12 type  1   force =     0.00000256   -0.00010868   -0.00000000
     atom   13 type  1   force =    -0.00046704    0.00048620    0.00000000
     atom   14 type  1   force =    -0.00011343   -0.00102456   -0.00000000
     atom   15 type  1   force =    -0.00243777    0.00553787    0.00000000
     atom   16 type  1   force =    -0.00110438    0.00108867    0.00000000
     atom   17 type  1   force =     0.00243777    0.00553787    0.00000000
     atom   18 type  1   force =     0.00110438    0.00108867   -0.00000000
     atom   19 type  1   force =    -0.00028646   -0.00000951   -0.00000000
     atom   20 type  1   force =     0.00006838    0.00008264    0.00000000
     atom   21 type  1   force =     0.00000805    0.00002633    0.00000000
     atom   22 type  1   force =     0.00005577   -0.00001619    0.00000000
     atom   23 type  1   force =     0.00000000    0.00000375    0.00000000
     atom   24 type  1   force =     0.00000000   -0.00001211    0.00000000
     atom   25 type  1   force =    -0.00000805    0.00002633    0.00000000
     atom   26 type  1   force =    -0.00005577   -0.00001619    0.00000000
     atom   27 type  1   force =     0.00028646   -0.00000951    0.00000000
     atom   28 type  1   force =    -0.00006838    0.00008264    0.00000000
     atom   29 type  1   force =     0.00017216    0.00018370   -0.00000000
     atom   30 type  1   force =    -0.00006021    0.00000867    0.00000000
     atom   31 type  1   force =     0.00000000   -0.00033668    0.00000000
     atom   32 type  1   force =     0.00000000    0.00021448    0.00000000
     atom   33 type  1   force =    -0.00017216    0.00018370    0.00000000
     atom   34 type  1   force =     0.00006021    0.00000867    0.00000000
     atom   35 type  1   force =    -0.00007906   -0.00004326    0.00000000
     atom   36 type  1   force =    -0.00000255    0.00003417   -0.00000000
     atom   37 type  1   force =    -0.00002873   -0.00002727    0.00000000
     atom   38 type  1   force =     0.00001108    0.00001872    0.00000000
     atom   39 type  1   force =     0.00002873   -0.00002727    0.00000000
     atom   40 type  1   force =    -0.00001108    0.00001872    0.00000000
     atom   41 type  1   force =     0.00007906   -0.00004326   -0.00000000
     atom   42 type  1   force =     0.00000255    0.00003417    0.00000000
     atom   43 type  1   force =     0.00000846    0.00001489    0.00000000
     atom   44 type  1   force =    -0.00002587    0.00001111   -0.00000000
     atom   45 type  1   force =     0.00006504   -0.00003481    0.00000000
     atom   46 type  1   force =     0.00001931    0.00002313    0.00000000
     atom   47 type  1   force =    -0.00006504   -0.00003481    0.00000000
     atom   48 type  1   force =    -0.00001931    0.00002313    0.00000000
     atom   49 type  1   force =    -0.00000846    0.00001489    0.00000000
     atom   50 type  1   force =     0.00002587    0.00001111    0.00000000
     atom   51 type  1   force =    -0.00001593    0.00001293    0.00000000
     atom   52 type  1   force =     0.00000066   -0.00001475   -0.00000000
     atom   53 type  1   force =     0.00000000   -0.00002324    0.00000000
     atom   54 type  1   force =     0.00000000    0.00002654    0.00000000
     atom   55 type  1   force =     0.00001593    0.00001293    0.00000000
     atom   56 type  1   force =    -0.00000066   -0.00001475    0.00000000
     atom   57 type  1   force =     0.00002760   -0.00002389    0.00000000
     atom   58 type  1   force =     0.00000478    0.00002498    0.00000000
     atom   59 type  1   force =     0.00000773   -0.00000666    0.00000000
     atom   60 type  1   force =    -0.00001044    0.00000792    0.00000000
     atom   61 type  1   force =     0.00000000   -0.00004576    0.00000000
     atom   62 type  1   force =     0.00000000    0.00004318    0.00000000
     atom   63 type  1   force =    -0.00000773   -0.00000666   -0.00000000
     atom   64 type  1   force =     0.00001044    0.00000792   -0.00000000
     atom   65 type  1   force =    -0.00002760   -0.00002389    0.00000000
     atom   66 type  1   force =    -0.00000478    0.00002498    0.00000000
     atom   67 type  1   force =     0.00001354   -0.00003269   -0.00000000
     atom   68 type  1   force =     0.00006362    0.00004017    0.00000000
     atom   69 type  1   force =    -0.00001354   -0.00003269    0.00000000
     atom   70 type  1   force =    -0.00006362    0.00004017   -0.00000000
     atom   71 type  1   force =     0.00001643    0.00001673   -0.00000000
     atom   72 type  1   force =    -0.00005711    0.00000282    0.00000000
     atom   73 type  1   force =     0.00000352   -0.00002310    0.00000000
     atom   74 type  1   force =    -0.00006723    0.00002306    0.00000000
     atom   75 type  1   force =     0.00001394   -0.00001527   -0.00000000
     atom   76 type  1   force =    -0.00002118    0.00001610    0.00000000
     atom   77 type  1   force =    -0.00001394   -0.00001527    0.00000000
     atom   78 type  1   force =     0.00002118    0.00001610    0.00000000
     atom   79 type  1   force =    -0.00000352   -0.00002310    0.00000000
     atom   80 type  1   force =     0.00006723    0.00002306    0.00000000
     atom   81 type  1   force =    -0.00001643    0.00001673    0.00000000
     atom   82 type  1   force =     0.00005711    0.00000282    0.00000000
     atom   83 type  1   force =     0.00000000   -0.00016927    0.00000000
     atom   84 type  1   force =     0.00000000    0.00020849    0.00000000
     atom   85 type  1   force =    -0.00011282   -0.00029564    0.00000000
     atom   86 type  1   force =    -0.00132059    0.00106631   -0.00000000
     atom   87 type  1   force =     0.00006369   -0.00004714    0.00000000
     atom   88 type  1   force =    -0.00006868    0.00008166   -0.00000000
     atom   89 type  1   force =     0.00004310    0.00002017    0.00000000
     atom   90 type  1   force =     0.00003554   -0.00002193    0.00000000
     atom   91 type  1   force =     0.00000000    0.00001132    0.00000000
     atom   92 type  1   force =     0.00000000   -0.00000713    0.00000000
     atom   93 type  1   force =    -0.00004310    0.00002017    0.00000000
     atom   94 type  1   force =    -0.00003554   -0.00002193   -0.00000000
     atom   95 type  1   force =    -0.00006369   -0.00004714   -0.00000000
     atom   96 type  1   force =     0.00006868    0.00008166    0.00000000
     atom   97 type  1   force =     0.00011282   -0.00029564    0.00000000
     atom   98 type  1   force =     0.00132059    0.00106631    0.00000000

     Total force =     0.026895     Total SCF correction =     0.000000

     Writing all to output data dir ./scratch_runs/atom02_y_plus/c_sup.save/ :
     XML data file, charge density, pseudopotentials, collected wavefunctions
 
     init_run     :    141.49s CPU    145.72s WALL (       1 calls)
     electrons    :   3019.18s CPU   3119.65s WALL (       1 calls)
     forces       :     20.81s CPU     21.73s WALL (       1 calls)

     Called by init_run:
     wfcinit      :    139.85s CPU    143.68s WALL (       1 calls)
     potinit      :      0.13s CPU      0.15s WALL (       1 calls)
     hinit0       :      0.14s CPU      0.16s WALL (       1 calls)

     Called by electrons:
     c_bands      :   2562.66s CPU   2647.15s WALL (      24 calls)
     sum_band     :    445.48s CPU    454.80s WALL (      24 calls)
     v_of_rho     :      1.26s CPU      1.27s WALL (      25 calls)
     newd         :      6.07s CPU     12.93s WALL (      25 calls)
     PAW_pot      :      1.58s CPU      1.59s WALL (      25 calls)
     mix_rho      :      2.19s CPU      2.23s WALL (      24 calls)

     Called by c_bands:
     init_us_2    :     58.27s CPU     58.44s WALL (     350 calls)
     cegterg      :   2479.82s CPU   2564.24s WALL (     171 calls)

     Called by *egterg:
     cdiaghg      :     42.38s CPU     43.54s WALL (     749 calls)
     h_psi        :   1715.52s CPU   1740.86s WALL (     756 calls)
     s_psi        :    272.71s CPU    272.86s WALL (     756 calls)
     g_psi        :      5.46s CPU      5.46s WALL (     578 calls)

     Called by h_psi:
     h_psi:calbec :    248.04s CPU    248.12s WALL (     756 calls)
     vloc_psi     :   1186.99s CPU   1196.87s WALL (     756 calls)
     add_vuspsi   :    273.32s CPU    273.36s WALL (     756 calls)

     General routines
     calbec       :    357.48s CPU    357.63s WALL (     952 calls)
     fft          :      1.13s CPU      1.17s WALL (     104 calls)
     ffts         :      0.24s CPU      0.25s WALL (      24 calls)
     fftw         :   1010.27s CPU   1022.20s WALL (  239978 calls)
 
     Parallel routines
 
     PWSCF        :  53m 5.34s CPU  54m55.42s WALL

 
   This run was terminated on:   1:34:22  14May2026            

=------------------------------------------------------------------------------=
   JOB DONE.
=------------------------------------------------------------------------------=

===== TIMING =====
Job:           atom02_y_plus
Start:         2026-05-14T00:39:26+02:00
End:           2026-05-14T01:34:22+02:00
Duration (s):  3296
Duration (H:M:S): 00:54:56
==================
