
     Program PWSCF v.7.4 starts on 14May2026 at  1:34:24 

     This program is part of the open-source Quantum ESPRESSO suite
     for quantum simulation of materials; please cite
         "P. Giannozzi et al., J. Phys.:Condens. Matter 21 395502 (2009);
         "P. Giannozzi et al., J. Phys.:Condens. Matter 29 465901 (2017);
         "P. Giannozzi et al., J. Chem. Phys. 152 154105 (2020);
          URL http://www.quantum-espresso.org", 
     in publications or presentations arising from this work. More details at
     http://www.quantum-espresso.org/quote

     Parallel version (MPI), running on    12 processors

     MPI processes distributed on     1 nodes
     177946 MiB available memory on the printing compute node when the environment starts
 
     Reading input from ./scratch_runs/atom02_z_minus/atom02_z_minus.in

     Current dimensions of program PWSCF are:
     Max number of different atomic species (ntypx) = 10
     Max number of k-points (npk) =  40000
     Max angular momentum in pseudopotentials (lmaxx) =  4
read_pp_mesh; mismatch in mesh size, discarding the one in header
     Message from routine setup:
     using ibrav=0 with symmetry is DISCOURAGED, use correct ibrav instead
 
     R & G space division:  proc/nbgrp/npool/nimage =      12
     Subspace diagonalization in iterative solution of the eigenvalue problem:
     one sub-group per band group will be used
     custom distributed-memory algorithm (size of sub-group:  2*  2 procs)

 
     Parallelization info
     --------------------
     sticks:   dense  smooth     PW     G-vecs:    dense   smooth      PW
     Min        2442    2442    624               348776   348776   45074
     Max        2443    2443    625               348781   348781   45075
     Sum       29305   29305   7495              4185323  4185323  540895
 
     Using Slab Decomposition
 


     bravais-lattice index     =            0
     lattice parameter (alat)  =      32.6115  a.u.
     unit-cell volume          =   30980.7320 (a.u.)^3
     number of atoms/cell      =           98
     number of atomic types    =            1
     number of electrons       =       392.00
     number of Kohn-Sham states=          235
     kinetic-energy cutoff     =     100.0000  Ry
     charge density cutoff     =     400.0000  Ry
     scf convergence threshold =      1.0E-16
     mixing beta               =       0.7000
     number of iterations used =            8  plain     mixing
     Exchange-correlation= SLA PW NOGX NOGC
                           (   1   4   0   0   0   0   0)

     celldm(1)=  32.611523  celldm(2)=   0.000000  celldm(3)=   0.000000
     celldm(4)=   0.000000  celldm(5)=   0.000000  celldm(6)=   0.000000

     crystal axes: (cart. coord. in units of alat)
               a(1) = (   1.000000   0.000000   0.000000 )  
               a(2) = (  -0.500000   0.866025   0.000000 )  
               a(3) = (   0.000000   0.000000   1.031449 )  

     reciprocal axes: (cart. coord. in units 2 pi/alat)
               b(1) = (  1.000000  0.577350  0.000000 )  
               b(2) = (  0.000000  1.154701  0.000000 )  
               b(3) = (  0.000000  0.000000  0.969510 )  


     PseudoPot. # 1 for C  read from file:
     ./C.upf
     MD5 check sum: 1b594deb0bcc8b4bffb8cfaf75c62b92
     Pseudo is Projector augmented-wave + core cor, Zval =  4.0
     Generated using ATOMPAW code
     Shape of augmentation charge: SINC**2
     Using radial grid of 2342 points,  4 beta functions with: 
                l(1) =   0
                l(2) =   0
                l(3) =   1
                l(4) =   1
     Q(r) pseudized with 0 coefficients 


     atomic species   valence    mass     pseudopotential
     C                 4.00    12.01070     C ( 1.00)

      2 Sym. Ops. (no inversion) found



   Cartesian axes

     site n.     atom                  positions (alat units)
         1        C      tau(   1) = (   0.0000000   0.0000000   0.5157245  )
         2        C      tau(   2) = (   0.0000000   0.0824785   0.5151451  )
         3        C      tau(   3) = (   0.1428570   0.0000000   0.5157245  )
         4        C      tau(   4) = (   0.1428570   0.0824785   0.5157245  )
         5        C      tau(   5) = (   0.2857140   0.0000000   0.5157245  )
         6        C      tau(   6) = (   0.2857140   0.0824785   0.5157245  )
         7        C      tau(   7) = (   0.4285710   0.0000000   0.5157245  )
         8        C      tau(   8) = (   0.4285710   0.0824785   0.5157245  )
         9        C      tau(   9) = (   0.5714290   0.0000000   0.5157245  )
        10        C      tau(  10) = (   0.5714290   0.0824785   0.5157245  )
        11        C      tau(  11) = (   0.7142860   0.0000000   0.5157245  )
        12        C      tau(  12) = (   0.7142860   0.0824785   0.5157245  )
        13        C      tau(  13) = (   0.8571430   0.0000000   0.5157245  )
        14        C      tau(  14) = (   0.8571430   0.0824785   0.5157245  )
        15        C      tau(  15) = (  -0.0714285   0.1237178   0.5157245  )
        16        C      tau(  16) = (  -0.0714285   0.2061963   0.5157245  )
        17        C      tau(  17) = (   0.0714285   0.1237178   0.5157245  )
        18        C      tau(  18) = (   0.0714285   0.2061963   0.5157245  )
        19        C      tau(  19) = (   0.2142855   0.1237178   0.5157245  )
        20        C      tau(  20) = (   0.2142855   0.2061963   0.5157245  )
        21        C      tau(  21) = (   0.3571425   0.1237178   0.5157245  )
        22        C      tau(  22) = (   0.3571425   0.2061963   0.5157245  )
        23        C      tau(  23) = (   0.5000005   0.1237178   0.5157245  )
        24        C      tau(  24) = (   0.5000005   0.2061963   0.5157245  )
        25        C      tau(  25) = (   0.6428575   0.1237178   0.5157245  )
        26        C      tau(  26) = (   0.6428575   0.2061963   0.5157245  )
        27        C      tau(  27) = (   0.7857145   0.1237178   0.5157245  )
        28        C      tau(  28) = (   0.7857145   0.2061963   0.5157245  )
        29        C      tau(  29) = (  -0.1428570   0.2474356   0.5157245  )
        30        C      tau(  30) = (  -0.1428570   0.3299141   0.5157245  )
        31        C      tau(  31) = (   0.0000000   0.2474356   0.5157245  )
        32        C      tau(  32) = (   0.0000000   0.3299141   0.5157245  )
        33        C      tau(  33) = (   0.1428570   0.2474356   0.5157245  )
        34        C      tau(  34) = (   0.1428570   0.3299141   0.5157245  )
        35        C      tau(  35) = (   0.2857140   0.2474356   0.5157245  )
        36        C      tau(  36) = (   0.2857140   0.3299141   0.5157245  )
        37        C      tau(  37) = (   0.4285720   0.2474356   0.5157245  )
        38        C      tau(  38) = (   0.4285720   0.3299141   0.5157245  )
        39        C      tau(  39) = (   0.5714290   0.2474356   0.5157245  )
        40        C      tau(  40) = (   0.5714290   0.3299141   0.5157245  )
        41        C      tau(  41) = (   0.7142860   0.2474356   0.5157245  )
        42        C      tau(  42) = (   0.7142860   0.3299141   0.5157245  )
        43        C      tau(  43) = (  -0.2142855   0.3711534   0.5157245  )
        44        C      tau(  44) = (  -0.2142860   0.4536327   0.5157245  )
        45        C      tau(  45) = (  -0.0714285   0.3711534   0.5157245  )
        46        C      tau(  46) = (  -0.0714290   0.4536327   0.5157245  )
        47        C      tau(  47) = (   0.0714285   0.3711534   0.5157245  )
        48        C      tau(  48) = (   0.0714280   0.4536327   0.5157245  )
        49        C      tau(  49) = (   0.2142855   0.3711534   0.5157245  )
        50        C      tau(  50) = (   0.2142850   0.4536327   0.5157245  )
        51        C      tau(  51) = (   0.3571435   0.3711534   0.5157245  )
        52        C      tau(  52) = (   0.3571430   0.4536327   0.5157245  )
        53        C      tau(  53) = (   0.5000005   0.3711534   0.5157245  )
        54        C      tau(  54) = (   0.5000000   0.4536327   0.5157245  )
        55        C      tau(  55) = (   0.6428575   0.3711534   0.5157245  )
        56        C      tau(  56) = (   0.6428570   0.4536327   0.5157245  )
        57        C      tau(  57) = (  -0.2857145   0.4948720   0.5157245  )
        58        C      tau(  58) = (  -0.2857145   0.5773505   0.5157245  )
        59        C      tau(  59) = (  -0.1428575   0.4948720   0.5157245  )
        60        C      tau(  60) = (  -0.1428575   0.5773505   0.5157245  )
        61        C      tau(  61) = (  -0.0000005   0.4948720   0.5157245  )
        62        C      tau(  62) = (  -0.0000005   0.5773505   0.5157245  )
        63        C      tau(  63) = (   0.1428565   0.4948720   0.5157245  )
        64        C      tau(  64) = (   0.1428565   0.5773505   0.5157245  )
        65        C      tau(  65) = (   0.2857145   0.4948720   0.5157245  )
        66        C      tau(  66) = (   0.2857145   0.5773505   0.5157245  )
        67        C      tau(  67) = (   0.4285715   0.4948720   0.5157245  )
        68        C      tau(  68) = (   0.4285715   0.5773505   0.5157245  )
        69        C      tau(  69) = (   0.5714285   0.4948720   0.5157245  )
        70        C      tau(  70) = (   0.5714285   0.5773505   0.5157245  )
        71        C      tau(  71) = (  -0.3571430   0.6185898   0.5157245  )
        72        C      tau(  72) = (  -0.3571430   0.7010683   0.5157245  )
        73        C      tau(  73) = (  -0.2142860   0.6185898   0.5157245  )
        74        C      tau(  74) = (  -0.2142860   0.7010683   0.5157245  )
        75        C      tau(  75) = (  -0.0714290   0.6185898   0.5157245  )
        76        C      tau(  76) = (  -0.0714290   0.7010683   0.5157245  )
        77        C      tau(  77) = (   0.0714280   0.6185898   0.5157245  )
        78        C      tau(  78) = (   0.0714280   0.7010683   0.5157245  )
        79        C      tau(  79) = (   0.2142860   0.6185898   0.5157245  )
        80        C      tau(  80) = (   0.2142860   0.7010683   0.5157245  )
        81        C      tau(  81) = (   0.3571430   0.6185898   0.5157245  )
        82        C      tau(  82) = (   0.3571430   0.7010683   0.5157245  )
        83        C      tau(  83) = (   0.5000000   0.6185898   0.5157245  )
        84        C      tau(  84) = (   0.5000000   0.7010683   0.5157245  )
        85        C      tau(  85) = (  -0.4285715   0.7423076   0.5157245  )
        86        C      tau(  86) = (  -0.4285715   0.8247861   0.5157245  )
        87        C      tau(  87) = (  -0.2857145   0.7423076   0.5157245  )
        88        C      tau(  88) = (  -0.2857145   0.8247861   0.5157245  )
        89        C      tau(  89) = (  -0.1428575   0.7423076   0.5157245  )
        90        C      tau(  90) = (  -0.1428575   0.8247861   0.5157245  )
        91        C      tau(  91) = (  -0.0000005   0.7423076   0.5157245  )
        92        C      tau(  92) = (  -0.0000005   0.8247861   0.5157245  )
        93        C      tau(  93) = (   0.1428575   0.7423076   0.5157245  )
        94        C      tau(  94) = (   0.1428575   0.8247861   0.5157245  )
        95        C      tau(  95) = (   0.2857145   0.7423076   0.5157245  )
        96        C      tau(  96) = (   0.2857145   0.8247861   0.5157245  )
        97        C      tau(  97) = (   0.4285715   0.7423076   0.5157245  )
        98        C      tau(  98) = (   0.4285715   0.8247861   0.5157245  )

     number of k points=     7  Marzari-Vanderbilt smearing, width (Ry)=  0.0200
                       cart. coord. in units 2pi/alat
        k(    1) = (   0.0000000   0.0000000   0.0000000), wk =   0.1250000
        k(    2) = (   0.0000000   0.2886751   0.0000000), wk =   0.2500000
        k(    3) = (   0.0000000  -0.5773503   0.0000000), wk =   0.1250000
        k(    4) = (   0.2500000   0.4330127   0.0000000), wk =   0.5000000
        k(    5) = (  -0.2500000   0.1443376   0.0000000), wk =   0.5000000
        k(    6) = (   0.5000000  -0.2886751   0.0000000), wk =   0.2500000
        k(    7) = (   0.5000000   0.0000000   0.0000000), wk =   0.2500000

     Dense  grid:  4185323 G-vectors     FFT dimensions: ( 216, 216, 216)

     Estimated max dynamical RAM per process >       3.67 GB

     Estimated total dynamical RAM >      44.07 GB
 ----2D----2D----2D----2D----2D----2D----2D----2D----2D----2D----2D----2D
  The code is running with the 2D cutoff
  Please refer to:
  Sohier, T., Calandra, M., & Mauri, F. (2017), 
  Density functional perturbation theory for gated two-dimensional heterostructu
 res:
  Theoretical developments and application to flexural phonons in graphene.
  Physical Review B, 96(7), 75448. https://doi.org/10.1103/PhysRevB.96.075448
 ----2D----2D----2D----2D----2D----2D----2D----2D----2D----2D----2D----2D

     Check: negative core charge=   -0.000011

     Initial potential from superposition of free atoms

     starting charge     391.9962, renormalised to     392.0000

     negative rho (up, down):  2.274E-04 0.000E+00
     Starting wfcs are  784 randomized atomic wfcs
     Checking if some PAW data can be deallocated... 

     total cpu time spent up to now is      148.1 secs

     per-process dynamical memory:  2058.1 Mb

     Self-consistent Calculation

     iteration #  1     ecut=   100.00 Ry     beta= 0.70
     Davidson diagonalization with overlap
     ethr =  1.00E-02,  avg # of iterations =  2.0

     negative rho (up, down):  1.252E-03 0.000E+00

     total cpu time spent up to now is      304.5 secs

     total energy              =   -1744.98118561 Ry
     estimated scf accuracy    <       9.59074707 Ry

     iteration #  2     ecut=   100.00 Ry     beta= 0.70
     Davidson diagonalization with overlap
     ethr =  2.45E-03,  avg # of iterations =  2.0

     negative rho (up, down):  1.772E-03 0.000E+00

     total cpu time spent up to now is      444.5 secs

     total energy              =   -1746.37179777 Ry
     estimated scf accuracy    <       0.12152691 Ry

     iteration #  3     ecut=   100.00 Ry     beta= 0.70
     Davidson diagonalization with overlap
     c_bands:  5 eigenvalues not converged
     c_bands:  5 eigenvalues not converged
     c_bands:  4 eigenvalues not converged
     c_bands:  4 eigenvalues not converged
     ethr =  3.10E-05,  avg # of iterations = 24.6

     negative rho (up, down):  2.118E-03 0.000E+00

     total cpu time spent up to now is      697.1 secs

     total energy              =   -1746.38900841 Ry
     estimated scf accuracy    <       0.01214280 Ry

     iteration #  4     ecut=   100.00 Ry     beta= 0.70
     Davidson diagonalization with overlap
     c_bands:  1 eigenvalues not converged
     ethr =  3.10E-06,  avg # of iterations = 12.9

     negative rho (up, down):  2.191E-03 0.000E+00

     total cpu time spent up to now is      892.3 secs

     total energy              =   -1746.38804204 Ry
     estimated scf accuracy    <       0.03109814 Ry

     iteration #  5     ecut=   100.00 Ry     beta= 0.70
     Davidson diagonalization with overlap
     ethr =  3.10E-06,  avg # of iterations =  7.7

     negative rho (up, down):  2.212E-03 0.000E+00

     total cpu time spent up to now is     1048.1 secs

     total energy              =   -1746.39350000 Ry
     estimated scf accuracy    <       0.00125516 Ry

     iteration #  6     ecut=   100.00 Ry     beta= 0.70
     Davidson diagonalization with overlap
     ethr =  3.20E-07,  avg # of iterations =  2.0

     negative rho (up, down):  2.229E-03 0.000E+00

     total cpu time spent up to now is     1176.4 secs

     total energy              =   -1746.39379103 Ry
     estimated scf accuracy    <       0.00011941 Ry

     iteration #  7     ecut=   100.00 Ry     beta= 0.70
     Davidson diagonalization with overlap
     ethr =  3.05E-08,  avg # of iterations =  2.3

     negative rho (up, down):  2.245E-03 0.000E+00

     total cpu time spent up to now is     1314.5 secs

     total energy              =   -1746.39382007 Ry
     estimated scf accuracy    <       0.00002085 Ry

     iteration #  8     ecut=   100.00 Ry     beta= 0.70
     Davidson diagonalization with overlap
     ethr =  5.32E-09,  avg # of iterations =  2.0

     negative rho (up, down):  2.248E-03 0.000E+00

     total cpu time spent up to now is     1446.6 secs

     total energy              =   -1746.39382345 Ry
     estimated scf accuracy    <       0.00000252 Ry

     iteration #  9     ecut=   100.00 Ry     beta= 0.70
     Davidson diagonalization with overlap
     ethr =  6.43E-10,  avg # of iterations =  2.9

     negative rho (up, down):  2.248E-03 0.000E+00

     total cpu time spent up to now is     1585.8 secs

     total energy              =   -1746.39382388 Ry
     estimated scf accuracy    <       0.00000044 Ry

     iteration # 10     ecut=   100.00 Ry     beta= 0.70
     Davidson diagonalization with overlap
     ethr =  1.12E-10,  avg # of iterations =  2.7

     negative rho (up, down):  2.248E-03 0.000E+00

     total cpu time spent up to now is     1725.9 secs

     total energy              =   -1746.39382395 Ry
     estimated scf accuracy    <       0.00000020 Ry

     iteration # 11     ecut=   100.00 Ry     beta= 0.70
     Davidson diagonalization with overlap
     ethr =  4.98E-11,  avg # of iterations =  2.0

     negative rho (up, down):  2.248E-03 0.000E+00

     total cpu time spent up to now is     1850.2 secs

     total energy              =   -1746.39382400 Ry
     estimated scf accuracy    <       0.00000005 Ry

     iteration # 12     ecut=   100.00 Ry     beta= 0.70
     Davidson diagonalization with overlap
     ethr =  1.31E-11,  avg # of iterations =  2.0

     negative rho (up, down):  2.248E-03 0.000E+00

     total cpu time spent up to now is     1975.6 secs

     total energy              =   -1746.39382401 Ry
     estimated scf accuracy    <       0.00000001 Ry

     iteration # 13     ecut=   100.00 Ry     beta= 0.70
     Davidson diagonalization with overlap
     ethr =  2.91E-12,  avg # of iterations =  2.0

     negative rho (up, down):  2.248E-03 0.000E+00

     total cpu time spent up to now is     2099.4 secs

     total energy              =   -1746.39382401 Ry
     estimated scf accuracy    <          6.4E-10 Ry

     iteration # 14     ecut=   100.00 Ry     beta= 0.70
     Davidson diagonalization with overlap
     ethr =  1.64E-13,  avg # of iterations =  3.4

     negative rho (up, down):  2.248E-03 0.000E+00

     total cpu time spent up to now is     2244.4 secs

     total energy              =   -1746.39382401 Ry
     estimated scf accuracy    <          1.0E-10 Ry

     iteration # 15     ecut=   100.00 Ry     beta= 0.70
     Davidson diagonalization with overlap
     ethr =  1.00E-13,  avg # of iterations =  2.0

     negative rho (up, down):  2.248E-03 0.000E+00

     total cpu time spent up to now is     2360.0 secs

     total energy              =   -1746.39382401 Ry
     estimated scf accuracy    <          8.9E-11 Ry

     iteration # 16     ecut=   100.00 Ry     beta= 0.70
     Davidson diagonalization with overlap
     ethr =  1.00E-13,  avg # of iterations =  1.0

     negative rho (up, down):  2.248E-03 0.000E+00

     total cpu time spent up to now is     2466.4 secs

     total energy              =   -1746.39382401 Ry
     estimated scf accuracy    <          5.7E-12 Ry

     iteration # 17     ecut=   100.00 Ry     beta= 0.70
     Davidson diagonalization with overlap
     ethr =  1.00E-13,  avg # of iterations =  1.0

     negative rho (up, down):  2.248E-03 0.000E+00

     total cpu time spent up to now is     2572.9 secs

     total energy              =   -1746.39382401 Ry
     estimated scf accuracy    <          8.3E-13 Ry

     iteration # 18     ecut=   100.00 Ry     beta= 0.70
     Davidson diagonalization with overlap
     ethr =  1.00E-13,  avg # of iterations =  1.0

     negative rho (up, down):  2.248E-03 0.000E+00

     total cpu time spent up to now is     2679.3 secs

     total energy              =   -1746.39382401 Ry
     estimated scf accuracy    <          2.1E-13 Ry

     iteration # 19     ecut=   100.00 Ry     beta= 0.70
     Davidson diagonalization with overlap
     ethr =  1.00E-13,  avg # of iterations =  1.0

     negative rho (up, down):  2.248E-03 0.000E+00

     total cpu time spent up to now is     2785.8 secs

     total energy              =   -1746.39382401 Ry
     estimated scf accuracy    <          6.8E-14 Ry

     iteration # 20     ecut=   100.00 Ry     beta= 0.70
     Davidson diagonalization with overlap
     ethr =  1.00E-13,  avg # of iterations =  1.0

     negative rho (up, down):  2.248E-03 0.000E+00

     total cpu time spent up to now is     2892.2 secs

     total energy              =   -1746.39382401 Ry
     estimated scf accuracy    <          3.3E-14 Ry

     iteration # 21     ecut=   100.00 Ry     beta= 0.70
     Davidson diagonalization with overlap
     ethr =  1.00E-13,  avg # of iterations =  1.0

     negative rho (up, down):  2.248E-03 0.000E+00

     total cpu time spent up to now is     2998.7 secs

     total energy              =   -1746.39382401 Ry
     estimated scf accuracy    <          6.8E-15 Ry

     iteration # 22     ecut=   100.00 Ry     beta= 0.70
     Davidson diagonalization with overlap
     ethr =  1.00E-13,  avg # of iterations =  1.0

     negative rho (up, down):  2.248E-03 0.000E+00

     total cpu time spent up to now is     3105.1 secs

     total energy              =   -1746.39382401 Ry
     estimated scf accuracy    <          3.1E-15 Ry

     iteration # 23     ecut=   100.00 Ry     beta= 0.70
     Davidson diagonalization with overlap
     ethr =  1.00E-13,  avg # of iterations =  1.0

     negative rho (up, down):  2.248E-03 0.000E+00

     total cpu time spent up to now is     3211.6 secs

     total energy              =   -1746.39382401 Ry
     estimated scf accuracy    <          1.3E-15 Ry

     iteration # 24     ecut=   100.00 Ry     beta= 0.70
     Davidson diagonalization with overlap
     ethr =  1.00E-13,  avg # of iterations =  1.0

     negative rho (up, down):  2.248E-03 0.000E+00

     total cpu time spent up to now is     3318.1 secs

     total energy              =   -1746.39382401 Ry
     estimated scf accuracy    <          1.6E-16 Ry

     iteration # 25     ecut=   100.00 Ry     beta= 0.70
     Davidson diagonalization with overlap
     ethr =  1.00E-13,  avg # of iterations =  1.0

     negative rho (up, down):  2.248E-03 0.000E+00

     total cpu time spent up to now is     3424.5 secs

     End of self-consistent calculation

          k = 0.0000 0.0000 0.0000 (523289 PWs)   bands (ev):

   -23.8598 -23.3814 -23.3814 -23.3812 -23.3812 -23.3810 -23.3810 -22.4324
   -22.4324 -22.4324 -22.4324 -22.4323 -22.4323 -21.9621 -21.9621 -21.9620
   -21.9620 -21.9619 -21.9619 -20.5768 -20.5768 -20.5768 -20.5768 -20.5767
   -20.5767 -20.5767 -20.5767 -20.5765 -20.5765 -20.5765 -20.5765 -19.6791
   -19.6791 -19.6791 -19.6790 -19.6790 -19.6790 -18.3983 -18.3983 -18.3983
   -18.3983 -18.3982 -18.3982 -18.2900 -18.2900 -18.2899 -18.2899 -18.2898
   -18.2898 -17.3989 -17.3989 -17.3988 -17.3988 -17.3988 -17.3988 -16.4436
   -16.4436 -16.4436 -16.4436 -16.4435 -16.4435 -15.8833 -15.8833 -15.8832
   -15.8832 -15.8831 -15.8831 -14.5109 -14.5109 -14.5109 -14.5109 -14.5109
   -14.5108 -14.5108 -14.5108 -14.5108 -14.5108 -14.5108 -14.5107 -14.4300
   -14.4300 -14.4298 -14.4298 -14.4297 -14.4297 -12.8359 -12.8359 -12.8359
   -12.8359 -12.8359 -12.8359 -12.3469 -12.3469 -12.3469 -12.3469 -12.3469
   -12.3468 -12.1913 -11.8363 -11.8363 -11.8363 -11.8363 -11.8362 -11.8362
   -11.8362 -11.8362 -11.8361 -11.8361 -11.8361 -11.8361 -11.6174 -11.6174
   -11.6172 -11.6172 -11.6170 -11.6170 -11.3587 -11.3587 -11.3586 -11.3586
   -11.3586 -11.3586 -10.8481 -10.8480 -10.8479 -10.8479 -10.8478 -10.8478
   -10.4924 -10.4924 -10.4924 -10.4923 -10.4923 -10.4923 -10.2305 -10.2305
   -10.2304 -10.2304 -10.2304 -10.2304  -9.9503  -9.9502  -9.9496  -9.9496
    -9.9495  -9.9495  -9.9431  -9.9431  -9.9431  -9.9431  -9.9424  -9.9423
    -9.3114  -9.3114  -9.3114  -9.3114  -9.3113  -9.3112  -8.4776  -8.4775
    -8.4774  -8.4774  -8.4774  -8.4773  -8.3823  -8.3823  -8.3822  -8.3822
    -8.3821  -8.3821  -8.3821  -8.3820  -8.3820  -8.3820  -8.3819  -8.3819
    -7.5980  -7.5980  -7.5702  -7.5702  -7.5702  -7.5701  -7.5700  -7.5700
    -6.4690  -6.4690  -6.4689  -6.4689  -6.4689  -6.4689  -6.0606  -6.0606
    -6.0605  -6.0605  -6.0604  -6.0604  -3.0666  -3.0666  -3.0665  -3.0665
    -3.0664  -3.0664  -3.0586  -3.0586  -3.0585  -3.0585  -3.0585  -3.0585
    -2.0757  -2.0757  -2.0756  -2.0756  -2.0755  -2.0755  -1.2549  -0.6060
    -0.6019  -0.6019  -0.6018  -0.6016  -0.6016  -0.5915  -0.5915  -0.5915
    -0.5915  -0.5914  -0.5914  -0.5914  -0.5913  -0.5913  -0.5913  -0.5913
    -0.5873  -0.4998   0.1640

          k = 0.0000 0.2887 0.0000 (523216 PWs)   bands (ev):

   -23.8298 -23.5903 -23.4707 -23.4707 -23.2322 -23.2321 -23.1131 -22.7572
   -22.7571 -22.4029 -22.4029 -22.4026 -22.1673 -22.1673 -22.0505 -22.0505
   -21.6992 -21.6992 -21.4663 -21.1207 -21.1207 -21.0050 -21.0050 -20.6627
   -20.6627 -20.4339 -20.4339 -20.3193 -20.0971 -20.0971 -19.9845 -19.9845
   -19.9828 -19.9828 -19.3293 -19.3293 -19.0244 -19.0002 -19.0002 -18.7089
   -18.7088 -18.5612 -18.5612 -18.3770 -18.3770 -18.2538 -18.2537 -17.7909
   -17.7908 -17.3814 -17.3814 -17.2296 -17.0932 -17.0931 -16.9404 -16.9404
   -16.8318 -16.8318 -16.3768 -16.3767 -16.1337 -16.1337 -16.0050 -16.0050
   -15.5868 -15.4908 -15.4907 -15.3578 -15.3578 -15.0207 -15.0207 -14.8492
   -14.8491 -14.7311 -14.7311 -14.1537 -14.1537 -14.1396 -14.1396 -14.0548
   -14.0548 -13.9148 -13.9148 -13.7701 -13.6605 -13.6605 -13.2964 -13.2964
   -12.9645 -12.9645 -12.5450 -12.5449 -12.3661 -12.3660 -12.3151 -12.3151
   -12.2481 -12.2481 -12.1552 -12.0603 -12.0603 -12.0541 -12.0540 -11.9026
   -11.8674 -11.7852 -11.7852 -11.7243 -11.7242 -11.5453 -11.5453 -11.5304
   -11.5303 -11.4393 -11.4393 -11.4195 -11.4194 -11.2977 -11.1788 -11.1788
   -10.9991 -10.9991 -10.9371 -10.8807 -10.8805 -10.8752 -10.8750 -10.7513
   -10.7513 -10.7439 -10.7439 -10.7009 -10.4601 -10.4582 -10.4582 -10.2439
   -10.1950 -10.1950 -10.1859 -10.1859 -10.1268 -10.1268 -10.1143 -10.0459
   -10.0459  -9.8713  -9.8713  -9.7306  -9.7306  -9.6784  -9.6784  -9.6483
    -9.6483  -9.6034  -9.3867  -8.9932  -8.9932  -8.9819  -8.9819  -8.8612
    -8.8611  -8.8533  -8.7420  -8.7420  -8.6157  -8.4650  -8.4650  -8.3695
    -8.3695  -8.2464  -8.2464  -8.1632  -8.1328  -7.8530  -7.8529  -7.8333
    -7.8333  -7.7612  -7.7612  -7.7193  -7.6636  -7.2841  -7.2841  -7.0985
    -6.7122  -6.7122  -6.6771  -6.6771  -6.6723  -6.6723  -6.2800  -6.2799
    -6.0825  -6.0825  -5.4825  -5.4825  -3.6484  -3.6484  -3.1120  -3.1120
    -3.0803  -3.0803  -2.9257  -2.9256  -2.8186  -2.8186  -2.6862  -2.4393
    -2.4393  -2.4218  -2.4218  -1.6916  -1.6915  -1.4467  -1.4467  -1.2563
    -1.2141  -1.1949  -1.1949  -0.9142  -0.9141  -0.8874  -0.7241  -0.7241
    -0.4583  -0.3977  -0.3976  -0.3708  -0.3707  -0.2345  -0.1261  -0.0022
    -0.0021   0.0399   0.0399

          k = 0.0000-0.5774 0.0000 (523138 PWs)   bands (ev):

   -23.7399 -23.7399 -23.5006 -23.5006 -23.0240 -23.0240 -23.0240 -23.0240
   -22.7867 -22.7866 -22.3144 -22.3144 -22.3144 -22.3144 -21.6128 -21.6127
   -21.6127 -21.6127 -21.3798 -21.3798 -21.3797 -21.3797 -20.9176 -20.9176
   -20.6914 -20.6914 -20.2354 -20.2354 -20.2354 -20.2354 -19.5699 -19.5698
   -19.5698 -19.5698 -19.3524 -19.3524 -19.3523 -19.3523 -18.9453 -18.9453
   -18.9452 -18.9452 -18.5936 -18.3191 -18.3191 -18.3190 -18.3190 -17.7044
   -17.3819 -17.3819 -17.1558 -17.1558 -17.1557 -17.1557 -16.7554 -16.7554
   -16.6164 -16.6164 -16.6164 -16.6164 -16.1800 -16.1800 -16.1800 -16.1800
   -15.5264 -15.5264 -15.5264 -15.5264 -15.1657 -15.1656 -15.1656 -15.1656
   -14.8246 -14.8246 -14.6911 -14.6911 -13.8344 -13.8344 -13.7337 -13.7336
   -13.7336 -13.7336 -13.5920 -13.5920 -13.5920 -13.5920 -13.2579 -13.2579
   -13.2579 -13.2579 -12.8312 -12.8312 -12.8312 -12.8312 -12.4558 -12.4558
   -12.2197 -12.2197 -12.2196 -12.2196 -12.0471 -12.0471 -11.9123 -11.9123
   -11.9123 -11.9123 -11.7600 -11.7600 -11.3224 -11.3223 -11.3221 -11.3221
   -11.1917 -11.1916 -11.1915 -11.1915 -11.1832 -11.1832 -11.1831 -11.1830
   -11.0831 -11.0831 -11.0831 -11.0831 -10.9878 -10.9878 -10.9669 -10.9110
   -10.9109 -10.6176 -10.6176 -10.6176 -10.6175 -10.4983 -10.4983 -10.3558
   -10.3558 -10.3558 -10.3558 -10.2133 -10.2133 -10.2133 -10.2133  -9.9558
    -9.9558  -9.9557  -9.9557  -9.5402  -9.5402  -9.5402  -9.5402  -9.2846
    -9.2846  -9.2846  -9.2845  -9.2353  -9.2353  -9.1582  -9.1582  -9.1581
    -9.1581  -8.8614  -8.8614  -8.7838  -8.7837  -8.4928  -8.4928  -8.3568
    -8.3568  -8.0704  -8.0703  -8.0615  -8.0615  -8.0615  -8.0613  -7.8507
    -7.8506  -7.2810  -7.2810  -7.2809  -7.2809  -7.1607  -7.1607  -7.1606
    -7.1606  -6.9915  -6.9914  -6.9912  -6.9912  -6.9070  -6.1527  -6.1527
    -6.1526  -6.1526  -5.1701  -5.1701  -3.9616  -3.9616  -3.1072  -3.1072
    -3.1072  -3.1072  -2.9245  -2.7104  -2.7104  -2.7102  -2.7102  -2.2223
    -2.2222  -2.2222  -2.2222  -1.8118  -1.8117  -1.8117  -1.8117  -1.2941
    -1.2940  -1.2939  -1.2939  -1.0917  -1.0915  -0.7649  -0.7649  -0.3339
    -0.3335  -0.3301  -0.3300  -0.2918  -0.2918  -0.1118  -0.1117  -0.1117
    -0.1117  -0.0016  -0.0016

          k = 0.2500 0.4330 0.0000 (523262 PWs)   bands (ev):

   -23.7699 -23.6502 -23.6500 -23.2918 -23.2917 -23.0537 -22.9350 -22.9347
   -22.6980 -22.6979 -22.5797 -22.5796 -21.9918 -21.9917 -21.8746 -21.8745
   -21.6419 -21.5254 -21.5251 -21.1787 -21.1786 -21.1770 -21.1769 -20.8322
   -20.8322 -20.6032 -20.6031 -20.1537 -20.1537 -19.8171 -19.8171 -19.5974
   -19.5971 -19.5971 -19.4877 -19.4874 -19.1683 -19.1682 -18.9486 -18.9486
   -18.8484 -18.8484 -18.7156 -18.7156 -18.5177 -17.9109 -17.7979 -17.7979
   -17.6264 -17.5329 -17.5329 -17.2352 -17.0533 -16.7358 -16.7357 -16.7048
   -16.6913 -16.6913 -16.4277 -16.4276 -16.3757 -16.3756 -15.9052 -15.9051
   -15.8783 -15.8782 -15.6514 -15.6513 -15.1288 -15.1287 -15.0782 -14.9229
   -14.6408 -14.6408 -14.4589 -14.4588 -14.2620 -14.2618 -14.2217 -14.2217
   -13.6312 -13.5068 -13.4714 -13.4712 -13.3047 -13.3047 -13.2510 -13.2509
   -12.9285 -12.9284 -12.8962 -12.8962 -12.8187 -12.8187 -12.7579 -12.7578
   -12.6355 -12.3733 -12.3732 -12.0831 -11.9393 -11.9391 -11.8513 -11.8513
   -11.7239 -11.7238 -11.6016 -11.6016 -11.5103 -11.5103 -11.4469 -11.4468
   -11.3524 -11.3419 -11.2322 -11.2321 -11.2266 -11.0862 -11.0860 -11.0589
   -11.0589 -11.0351 -11.0351 -10.8816 -10.8815 -10.8773 -10.8772 -10.8057
   -10.8057 -10.7048 -10.7047 -10.6671 -10.6670 -10.5596 -10.5594 -10.5299
   -10.5298 -10.4748 -10.4748 -10.3084 -10.3083 -10.0634  -9.9793  -9.9792
    -9.8464  -9.8464  -9.5727  -9.5682  -9.5679  -9.5125  -9.5125  -9.4783
    -9.4783  -9.4440  -9.4437  -9.2027  -9.1306  -9.1305  -9.0637  -9.0636
    -9.0427  -9.0427  -8.7443  -8.7442  -8.6823  -8.6822  -8.4482  -8.4482
    -8.3863  -8.3862  -8.0423  -8.0422  -7.9504  -7.9000  -7.9000  -7.7952
    -7.6297  -7.6297  -7.4668  -7.4666  -7.2976  -7.2333  -7.2330  -7.0747
    -7.0746  -6.9299  -6.9298  -6.7973  -6.6703  -6.6702  -6.6641  -6.6641
    -5.9248  -5.6435  -5.6435  -4.8986  -4.2131  -3.5427  -3.5427  -3.3567
    -2.9488  -2.8681  -2.8681  -2.6682  -2.6682  -2.5257  -2.5256  -2.4810
    -2.4809  -2.1033  -2.1031  -1.9827  -1.9825  -1.7647  -1.7647  -1.7495
    -1.1324  -1.0543  -1.0542  -0.9692  -0.9690  -0.8129  -0.8129  -0.4791
    -0.4790  -0.3843  -0.3842  -0.3752  -0.2093  -0.2089  -0.1524   0.0102
     0.0104   0.1387   0.1389

          k =-0.2500 0.1443 0.0000 (523216 PWs)   bands (ev):

   -23.8298 -23.5903 -23.4707 -23.4707 -23.2321 -23.2321 -23.1131 -22.7572
   -22.7572 -22.4029 -22.4029 -22.4026 -22.1673 -22.1673 -22.0505 -22.0505
   -21.6992 -21.6992 -21.4663 -21.1207 -21.1207 -21.0050 -21.0050 -20.6627
   -20.6627 -20.4339 -20.4339 -20.3193 -20.0971 -20.0971 -19.9845 -19.9845
   -19.9828 -19.9828 -19.3293 -19.3293 -19.0244 -19.0002 -19.0002 -18.7089
   -18.7088 -18.5612 -18.5612 -18.3770 -18.3770 -18.2538 -18.2538 -17.7908
   -17.7908 -17.3814 -17.3814 -17.2297 -17.0931 -17.0931 -16.9405 -16.9404
   -16.8318 -16.8318 -16.3768 -16.3768 -16.1337 -16.1337 -16.0050 -16.0050
   -15.5868 -15.4908 -15.4908 -15.3579 -15.3578 -15.0207 -15.0207 -14.8492
   -14.8491 -14.7311 -14.7311 -14.1538 -14.1537 -14.1396 -14.1396 -14.0548
   -14.0548 -13.9148 -13.9148 -13.7701 -13.6605 -13.6605 -13.2964 -13.2964
   -12.9645 -12.9645 -12.5450 -12.5449 -12.3661 -12.3660 -12.3151 -12.3151
   -12.2481 -12.2481 -12.1552 -12.0603 -12.0603 -12.0541 -12.0541 -11.9026
   -11.8674 -11.7852 -11.7852 -11.7243 -11.7242 -11.5453 -11.5453 -11.5303
   -11.5303 -11.4393 -11.4393 -11.4195 -11.4194 -11.2977 -11.1788 -11.1788
   -10.9991 -10.9991 -10.9370 -10.8807 -10.8805 -10.8752 -10.8750 -10.7513
   -10.7513 -10.7439 -10.7439 -10.7008 -10.4601 -10.4582 -10.4582 -10.2439
   -10.1950 -10.1950 -10.1859 -10.1859 -10.1268 -10.1268 -10.1143 -10.0459
   -10.0459  -9.8713  -9.8713  -9.7306  -9.7306  -9.6784  -9.6784  -9.6483
    -9.6483  -9.6034  -9.3867  -8.9932  -8.9932  -8.9819  -8.9819  -8.8612
    -8.8611  -8.8533  -8.7420  -8.7420  -8.6157  -8.4650  -8.4650  -8.3695
    -8.3695  -8.2464  -8.2464  -8.1632  -8.1328  -7.8529  -7.8529  -7.8333
    -7.8333  -7.7612  -7.7612  -7.7193  -7.6636  -7.2841  -7.2841  -7.0985
    -6.7122  -6.7122  -6.6771  -6.6771  -6.6723  -6.6723  -6.2800  -6.2800
    -6.0825  -6.0825  -5.4825  -5.4825  -3.6484  -3.6484  -3.1120  -3.1120
    -3.0803  -3.0803  -2.9257  -2.9256  -2.8187  -2.8186  -2.6862  -2.4393
    -2.4393  -2.4218  -2.4217  -1.6915  -1.6915  -1.4467  -1.4467  -1.2563
    -1.2141  -1.1949  -1.1949  -0.9142  -0.9141  -0.8874  -0.7241  -0.7241
    -0.4583  -0.3977  -0.3976  -0.3708  -0.3707  -0.2345  -0.1261  -0.0022
    -0.0021   0.0398   0.0399

          k = 0.5000-0.2887 0.0000 (523138 PWs)   bands (ev):

   -23.7400 -23.7398 -23.5006 -23.5006 -23.0240 -23.0240 -23.0239 -23.0239
   -22.7867 -22.7866 -22.3146 -22.3146 -22.3143 -22.3143 -21.6128 -21.6127
   -21.6127 -21.6127 -21.3798 -21.3798 -21.3797 -21.3797 -20.9176 -20.9176
   -20.6914 -20.6914 -20.2355 -20.2355 -20.2354 -20.2354 -19.5699 -19.5698
   -19.5698 -19.5698 -19.3524 -19.3524 -19.3523 -19.3523 -18.9453 -18.9453
   -18.9452 -18.9452 -18.5936 -18.3192 -18.3192 -18.3189 -18.3189 -17.7045
   -17.3819 -17.3819 -17.1558 -17.1558 -17.1558 -17.1557 -16.7554 -16.7554
   -16.6164 -16.6164 -16.6163 -16.6163 -16.1801 -16.1800 -16.1800 -16.1799
   -15.5264 -15.5264 -15.5264 -15.5264 -15.1657 -15.1657 -15.1656 -15.1656
   -14.8246 -14.8246 -14.6911 -14.6911 -13.8343 -13.8343 -13.7337 -13.7336
   -13.7336 -13.7336 -13.5921 -13.5921 -13.5919 -13.5919 -13.2579 -13.2579
   -13.2579 -13.2579 -12.8312 -12.8312 -12.8312 -12.8312 -12.4559 -12.4559
   -12.2198 -12.2197 -12.2195 -12.2194 -12.0472 -12.0470 -11.9123 -11.9123
   -11.9122 -11.9122 -11.7600 -11.7600 -11.3223 -11.3222 -11.3222 -11.3221
   -11.1918 -11.1916 -11.1915 -11.1915 -11.1832 -11.1832 -11.1831 -11.1829
   -11.0831 -11.0831 -11.0831 -11.0831 -10.9878 -10.9878 -10.9669 -10.9110
   -10.9109 -10.6176 -10.6176 -10.6176 -10.6176 -10.4983 -10.4982 -10.3559
   -10.3559 -10.3557 -10.3557 -10.2133 -10.2133 -10.2133 -10.2133  -9.9558
    -9.9558  -9.9557  -9.9557  -9.5402  -9.5402  -9.5402  -9.5402  -9.2846
    -9.2846  -9.2846  -9.2845  -9.2353  -9.2352  -9.1582  -9.1582  -9.1582
    -9.1581  -8.8614  -8.8614  -8.7838  -8.7837  -8.4928  -8.4928  -8.3569
    -8.3568  -8.0705  -8.0703  -8.0616  -8.0615  -8.0615  -8.0613  -7.8508
    -7.8505  -7.2810  -7.2810  -7.2809  -7.2809  -7.1607  -7.1607  -7.1606
    -7.1605  -6.9914  -6.9913  -6.9913  -6.9912  -6.9070  -6.1528  -6.1528
    -6.1526  -6.1525  -5.1701  -5.1701  -3.9616  -3.9616  -3.1073  -3.1073
    -3.1071  -3.1071  -2.9245  -2.7104  -2.7103  -2.7103  -2.7102  -2.2223
    -2.2223  -2.2222  -2.2221  -1.8118  -1.8117  -1.8117  -1.8117  -1.2941
    -1.2940  -1.2939  -1.2939  -1.0917  -1.0914  -0.7649  -0.7649  -0.3339
    -0.3335  -0.3302  -0.3300  -0.2918  -0.2917  -0.1118  -0.1117  -0.1117
    -0.1117  -0.0016  -0.0016

          k = 0.5000 0.0000 0.0000 (523262 PWs)   bands (ev):

   -23.7699 -23.6501 -23.6501 -23.2917 -23.2917 -23.0537 -22.9349 -22.9349
   -22.6979 -22.6979 -22.5796 -22.5796 -21.9918 -21.9918 -21.8745 -21.8745
   -21.6419 -21.5252 -21.5252 -21.1787 -21.1786 -21.1769 -21.1769 -20.8322
   -20.8322 -20.6032 -20.6031 -20.1537 -20.1537 -19.8171 -19.8171 -19.5974
   -19.5971 -19.5971 -19.4876 -19.4876 -19.1682 -19.1682 -18.9486 -18.9486
   -18.8484 -18.8484 -18.7156 -18.7156 -18.5177 -17.9109 -17.7979 -17.7979
   -17.6264 -17.5330 -17.5329 -17.2352 -17.0533 -16.7358 -16.7357 -16.7048
   -16.6913 -16.6913 -16.4277 -16.4276 -16.3756 -16.3756 -15.9052 -15.9052
   -15.8783 -15.8783 -15.6514 -15.6513 -15.1288 -15.1287 -15.0782 -14.9229
   -14.6408 -14.6408 -14.4589 -14.4588 -14.2619 -14.2619 -14.2217 -14.2217
   -13.6312 -13.5068 -13.4713 -13.4713 -13.3047 -13.3047 -13.2509 -13.2509
   -12.9285 -12.9285 -12.8962 -12.8962 -12.8187 -12.8187 -12.7579 -12.7578
   -12.6355 -12.3733 -12.3732 -12.0831 -11.9392 -11.9392 -11.8513 -11.8513
   -11.7239 -11.7238 -11.6016 -11.6016 -11.5103 -11.5103 -11.4469 -11.4468
   -11.3524 -11.3419 -11.2322 -11.2321 -11.2266 -11.0861 -11.0861 -11.0589
   -11.0589 -11.0351 -11.0351 -10.8815 -10.8815 -10.8773 -10.8772 -10.8057
   -10.8057 -10.7048 -10.7047 -10.6671 -10.6670 -10.5595 -10.5595 -10.5299
   -10.5298 -10.4748 -10.4748 -10.3084 -10.3084 -10.0634  -9.9792  -9.9792
    -9.8464  -9.8464  -9.5727  -9.5682  -9.5680  -9.5125  -9.5125  -9.4783
    -9.4782  -9.4439  -9.4439  -9.2027  -9.1306  -9.1305  -9.0637  -9.0636
    -9.0427  -9.0427  -8.7443  -8.7443  -8.6822  -8.6822  -8.4482  -8.4482
    -8.3863  -8.3862  -8.0423  -8.0422  -7.9504  -7.9000  -7.9000  -7.7952
    -7.6297  -7.6297  -7.4667  -7.4667  -7.2976  -7.2332  -7.2331  -7.0747
    -7.0746  -6.9299  -6.9298  -6.7973  -6.6703  -6.6703  -6.6641  -6.6641
    -5.9248  -5.6435  -5.6435  -4.8985  -4.2131  -3.5427  -3.5427  -3.3567
    -2.9488  -2.8682  -2.8681  -2.6682  -2.6682  -2.5256  -2.5256  -2.4810
    -2.4810  -2.1032  -2.1032  -1.9826  -1.9826  -1.7647  -1.7647  -1.7495
    -1.1324  -1.0543  -1.0542  -0.9692  -0.9690  -0.8129  -0.8129  -0.4791
    -0.4791  -0.3843  -0.3842  -0.3752  -0.2093  -0.2090  -0.1524   0.0102
     0.0104   0.1388   0.1388

     the Fermi energy is    -4.6898 ev

!    total energy              =   -1746.39382401 Ry
     total all-electron energy =     -1746.393824 Ry
     estimated scf accuracy    <          3.2E-17 Ry
     smearing contrib. (-TS)   =       0.00260623 Ry
     internal energy E=F+TS    =   -1746.39643024 Ry

     The total energy is F=E-TS. E is the sum of the following terms:
     one-electron contribution =  -15337.94661246 Ry
     hartree contribution      =    7710.45545874 Ry
     xc contribution           =    -435.91784638 Ry
     ewald contribution        =    6878.15204717 Ry
     one-center paw contrib.   =    -561.13947731 Ry

     convergence has been achieved in  25 iterations

     negative rho (up, down):  2.248E-03 0.000E+00

     Forces acting on atoms (cartesian axes, Ry/au):

     atom    1 type  1   force =     0.00000000    0.00002355   -0.00252116
     atom    2 type  1   force =     0.00000000    0.00000049    0.00599305
     atom    3 type  1   force =    -0.00000562    0.00000017   -0.00015021
     atom    4 type  1   force =    -0.00000203   -0.00000045    0.00018618
     atom    5 type  1   force =    -0.00000308   -0.00000079    0.00000265
     atom    6 type  1   force =    -0.00000032   -0.00000452    0.00000404
     atom    7 type  1   force =     0.00000749   -0.00000389    0.00000117
     atom    8 type  1   force =     0.00001026   -0.00000284   -0.00000020
     atom    9 type  1   force =    -0.00000749   -0.00000389    0.00000117
     atom   10 type  1   force =    -0.00001026   -0.00000284   -0.00000020
     atom   11 type  1   force =     0.00000308   -0.00000079    0.00000265
     atom   12 type  1   force =     0.00000032   -0.00000452    0.00000404
     atom   13 type  1   force =     0.00000562    0.00000017   -0.00015021
     atom   14 type  1   force =     0.00000203   -0.00000045    0.00018618
     atom   15 type  1   force =     0.00002196   -0.00001566   -0.00252047
     atom   16 type  1   force =    -0.00000290    0.00000224    0.00018548
     atom   17 type  1   force =    -0.00002196   -0.00001566   -0.00252047
     atom   18 type  1   force =     0.00000290    0.00000224    0.00018548
     atom   19 type  1   force =    -0.00000510   -0.00000239    0.00018613
     atom   20 type  1   force =    -0.00000321    0.00000012   -0.00002703
     atom   21 type  1   force =    -0.00000209    0.00000021   -0.00000950
     atom   22 type  1   force =     0.00000862    0.00000179    0.00000290
     atom   23 type  1   force =     0.00000000   -0.00000762   -0.00000128
     atom   24 type  1   force =     0.00000000   -0.00000389   -0.00000013
     atom   25 type  1   force =     0.00000209    0.00000021   -0.00000950
     atom   26 type  1   force =    -0.00000862    0.00000179    0.00000290
     atom   27 type  1   force =     0.00000510   -0.00000239    0.00018613
     atom   28 type  1   force =     0.00000321    0.00000012   -0.00002703
     atom   29 type  1   force =     0.00000356   -0.00000203    0.00018634
     atom   30 type  1   force =     0.00000386    0.00000507    0.00000424
     atom   31 type  1   force =     0.00000000   -0.00000513   -0.00014979
     atom   32 type  1   force =     0.00000000    0.00000739   -0.00002707
     atom   33 type  1   force =    -0.00000356   -0.00000203    0.00018634
     atom   34 type  1   force =    -0.00000386    0.00000507    0.00000424
     atom   35 type  1   force =    -0.00000194   -0.00000156   -0.00002341
     atom   36 type  1   force =     0.00000616    0.00000902    0.00000186
     atom   37 type  1   force =    -0.00001155   -0.00000359    0.00000244
     atom   38 type  1   force =    -0.00000331    0.00000221   -0.00000008
     atom   39 type  1   force =     0.00001155   -0.00000359    0.00000244
     atom   40 type  1   force =     0.00000331    0.00000221   -0.00000008
     atom   41 type  1   force =     0.00000194   -0.00000156   -0.00002341
     atom   42 type  1   force =    -0.00000616    0.00000902    0.00000186
     atom   43 type  1   force =     0.00000178    0.00001880   -0.00000878
     atom   44 type  1   force =    -0.00000470   -0.00001086   -0.00000055
     atom   45 type  1   force =    -0.00000195    0.00001543    0.00000300
     atom   46 type  1   force =     0.00000359   -0.00001355    0.00000278
     atom   47 type  1   force =     0.00000195    0.00001543    0.00000300
     atom   48 type  1   force =    -0.00000359   -0.00001355    0.00000278
     atom   49 type  1   force =    -0.00000178    0.00001880   -0.00000878
     atom   50 type  1   force =     0.00000470   -0.00001086   -0.00000055
     atom   51 type  1   force =    -0.00001050    0.00001597    0.00000257
     atom   52 type  1   force =    -0.00000585   -0.00001692   -0.00000043
     atom   53 type  1   force =     0.00000000    0.00002054   -0.00000210
     atom   54 type  1   force =     0.00000000   -0.00001517   -0.00000052
     atom   55 type  1   force =     0.00001050    0.00001597    0.00000257
     atom   56 type  1   force =     0.00000585   -0.00001692   -0.00000043
     atom   57 type  1   force =     0.00001069   -0.00000504   -0.00000191
     atom   58 type  1   force =     0.00000599    0.00000254   -0.00000044
     atom   59 type  1   force =     0.00000007   -0.00000297    0.00000050
     atom   60 type  1   force =    -0.00000404    0.00000549   -0.00000048
     atom   61 type  1   force =     0.00000000   -0.00000663   -0.00000141
     atom   62 type  1   force =     0.00000000    0.00000142   -0.00000053
     atom   63 type  1   force =    -0.00000007   -0.00000297    0.00000050
     atom   64 type  1   force =     0.00000404    0.00000549   -0.00000048
     atom   65 type  1   force =    -0.00001069   -0.00000504   -0.00000191
     atom   66 type  1   force =    -0.00000599    0.00000254   -0.00000044
     atom   67 type  1   force =     0.00000173    0.00000010    0.00000269
     atom   68 type  1   force =    -0.00000200    0.00000382    0.00000217
     atom   69 type  1   force =    -0.00000173    0.00000010    0.00000269
     atom   70 type  1   force =     0.00000200    0.00000382    0.00000217
     atom   71 type  1   force =    -0.00000063    0.00000273   -0.00000904
     atom   72 type  1   force =     0.00000244   -0.00000076    0.00000392
     atom   73 type  1   force =     0.00000531   -0.00000395    0.00000106
     atom   74 type  1   force =     0.00000539   -0.00000224    0.00000205
     atom   75 type  1   force =    -0.00000232    0.00000028    0.00000081
     atom   76 type  1   force =    -0.00000661    0.00000031   -0.00000038
     atom   77 type  1   force =     0.00000232    0.00000028    0.00000081
     atom   78 type  1   force =     0.00000661    0.00000031   -0.00000038
     atom   79 type  1   force =    -0.00000531   -0.00000395    0.00000106
     atom   80 type  1   force =    -0.00000539   -0.00000224    0.00000205
     atom   81 type  1   force =     0.00000063    0.00000273   -0.00000904
     atom   82 type  1   force =    -0.00000244   -0.00000076    0.00000392
     atom   83 type  1   force =     0.00000000    0.00000431   -0.00002374
     atom   84 type  1   force =     0.00000000    0.00000360   -0.00002707
     atom   85 type  1   force =    -0.00000262    0.00000250    0.00018652
     atom   86 type  1   force =     0.00000048   -0.00000083    0.00018537
     atom   87 type  1   force =    -0.00000411    0.00000104    0.00000292
     atom   88 type  1   force =     0.00000294    0.00000011   -0.00002715
     atom   89 type  1   force =     0.00000676   -0.00000279   -0.00000150
     atom   90 type  1   force =     0.00000164   -0.00000359    0.00000287
     atom   91 type  1   force =     0.00000000   -0.00000127    0.00000023
     atom   92 type  1   force =     0.00000000    0.00000094   -0.00000067
     atom   93 type  1   force =    -0.00000676   -0.00000279   -0.00000150
     atom   94 type  1   force =    -0.00000164   -0.00000359    0.00000287
     atom   95 type  1   force =     0.00000411    0.00000104    0.00000292
     atom   96 type  1   force =    -0.00000294    0.00000011   -0.00002715
     atom   97 type  1   force =     0.00000262    0.00000250    0.00018652
     atom   98 type  1   force =    -0.00000048   -0.00000083    0.00018537

     Total force =     0.007448     Total SCF correction =     0.000000

     Writing all to output data dir ./scratch_runs/atom02_z_minus/c_sup.save/ :
     XML data file, charge density, pseudopotentials, collected wavefunctions
 
     init_run     :    143.86s CPU    148.03s WALL (       1 calls)
     electrons    :   3171.19s CPU   3276.47s WALL (       1 calls)
     forces       :     21.58s CPU     22.52s WALL (       1 calls)

     Called by init_run:
     wfcinit      :    142.15s CPU    145.92s WALL (       1 calls)
     potinit      :      0.13s CPU      0.15s WALL (       1 calls)
     hinit0       :      0.14s CPU      0.17s WALL (       1 calls)

     Called by electrons:
     c_bands      :   2690.82s CPU   2779.35s WALL (      25 calls)
     sum_band     :    468.83s CPU    478.69s WALL (      25 calls)
     v_of_rho     :      1.31s CPU      1.32s WALL (      26 calls)
     newd         :      6.37s CPU     13.42s WALL (      26 calls)
     PAW_pot      :      1.64s CPU      1.65s WALL (      26 calls)
     mix_rho      :      2.29s CPU      2.35s WALL (      25 calls)

     Called by c_bands:
     init_us_2    :     60.48s CPU     60.65s WALL (     364 calls)
     cegterg      :   2604.33s CPU   2692.79s WALL (     178 calls)

     Called by *egterg:
     cdiaghg      :     43.48s CPU     44.71s WALL (     755 calls)
     h_psi        :   1787.61s CPU   1814.39s WALL (     762 calls)
     s_psi        :    281.41s CPU    281.56s WALL (     762 calls)
     g_psi        :      5.61s CPU      5.62s WALL (     577 calls)

     Called by h_psi:
     h_psi:calbec :    266.93s CPU    267.09s WALL (     762 calls)
     vloc_psi     :   1231.33s CPU   1242.02s WALL (     762 calls)
     add_vuspsi   :    281.90s CPU    282.00s WALL (     762 calls)

     General routines
     calbec       :    385.43s CPU    385.65s WALL (     965 calls)
     fft          :      1.18s CPU      1.21s WALL (     108 calls)
     ffts         :      0.24s CPU      0.25s WALL (      25 calls)
     fftw         :   1048.71s CPU   1061.65s WALL (  248545 calls)
 
     Parallel routines
 
     PWSCF        :  55m40.47s CPU  57m35.39s WALL

 
   This run was terminated on:   2:32: 0  14May2026            

=------------------------------------------------------------------------------=
   JOB DONE.
=------------------------------------------------------------------------------=

===== TIMING =====
Job:           atom02_z_minus
Start:         2026-05-14T01:34:24+02:00
End:           2026-05-14T02:32:00+02:00
Duration (s):  3456
Duration (H:M:S): 00:57:36
==================
