
     Program PWSCF v.7.4 starts on 13May2026 at 22:21:32 

     This program is part of the open-source Quantum ESPRESSO suite
     for quantum simulation of materials; please cite
         "P. Giannozzi et al., J. Phys.:Condens. Matter 21 395502 (2009);
         "P. Giannozzi et al., J. Phys.:Condens. Matter 29 465901 (2017);
         "P. Giannozzi et al., J. Chem. Phys. 152 154105 (2020);
          URL http://www.quantum-espresso.org", 
     in publications or presentations arising from this work. More details at
     http://www.quantum-espresso.org/quote

     Parallel version (MPI), running on    12 processors

     MPI processes distributed on     1 nodes
     176235 MiB available memory on the printing compute node when the environment starts
 
     Reading input from ./scratch_runs/atom02_x_plus/atom02_x_plus.in

     Current dimensions of program PWSCF are:
     Max number of different atomic species (ntypx) = 10
     Max number of k-points (npk) =  40000
     Max angular momentum in pseudopotentials (lmaxx) =  4
read_pp_mesh; mismatch in mesh size, discarding the one in header
     Message from routine setup:
     using ibrav=0 with symmetry is DISCOURAGED, use correct ibrav instead
 
     R & G space division:  proc/nbgrp/npool/nimage =      12
     Subspace diagonalization in iterative solution of the eigenvalue problem:
     one sub-group per band group will be used
     custom distributed-memory algorithm (size of sub-group:  2*  2 procs)

 
     Parallelization info
     --------------------
     sticks:   dense  smooth     PW     G-vecs:    dense   smooth      PW
     Min        2442    2442    624               348776   348776   45074
     Max        2443    2443    625               348781   348781   45075
     Sum       29305   29305   7495              4185323  4185323  540895
 
     Using Slab Decomposition
 


     bravais-lattice index     =            0
     lattice parameter (alat)  =      32.6115  a.u.
     unit-cell volume          =   30980.7320 (a.u.)^3
     number of atoms/cell      =           98
     number of atomic types    =            1
     number of electrons       =       392.00
     number of Kohn-Sham states=          235
     kinetic-energy cutoff     =     100.0000  Ry
     charge density cutoff     =     400.0000  Ry
     scf convergence threshold =      1.0E-16
     mixing beta               =       0.7000
     number of iterations used =            8  plain     mixing
     Exchange-correlation= SLA PW NOGX NOGC
                           (   1   4   0   0   0   0   0)

     celldm(1)=  32.611523  celldm(2)=   0.000000  celldm(3)=   0.000000
     celldm(4)=   0.000000  celldm(5)=   0.000000  celldm(6)=   0.000000

     crystal axes: (cart. coord. in units of alat)
               a(1) = (   1.000000   0.000000   0.000000 )  
               a(2) = (  -0.500000   0.866025   0.000000 )  
               a(3) = (   0.000000   0.000000   1.031449 )  

     reciprocal axes: (cart. coord. in units 2 pi/alat)
               b(1) = (  1.000000  0.577350  0.000000 )  
               b(2) = (  0.000000  1.154701  0.000000 )  
               b(3) = (  0.000000  0.000000  0.969510 )  


     PseudoPot. # 1 for C  read from file:
     ./C.upf
     MD5 check sum: 1b594deb0bcc8b4bffb8cfaf75c62b92
     Pseudo is Projector augmented-wave + core cor, Zval =  4.0
     Generated using ATOMPAW code
     Shape of augmentation charge: SINC**2
     Using radial grid of 2342 points,  4 beta functions with: 
                l(1) =   0
                l(2) =   0
                l(3) =   1
                l(4) =   1
     Q(r) pseudized with 0 coefficients 


     atomic species   valence    mass     pseudopotential
     C                 4.00    12.01070     C ( 1.00)

      2 Sym. Ops. (no inversion) found



   Cartesian axes

     site n.     atom                  positions (alat units)
         1        C      tau(   1) = (   0.0000000   0.0000000   0.5157245  )
         2        C      tau(   2) = (   0.0005795   0.0824785   0.5157245  )
         3        C      tau(   3) = (   0.1428570   0.0000000   0.5157245  )
         4        C      tau(   4) = (   0.1428570   0.0824785   0.5157245  )
         5        C      tau(   5) = (   0.2857140   0.0000000   0.5157245  )
         6        C      tau(   6) = (   0.2857140   0.0824785   0.5157245  )
         7        C      tau(   7) = (   0.4285710   0.0000000   0.5157245  )
         8        C      tau(   8) = (   0.4285710   0.0824785   0.5157245  )
         9        C      tau(   9) = (   0.5714290   0.0000000   0.5157245  )
        10        C      tau(  10) = (   0.5714290   0.0824785   0.5157245  )
        11        C      tau(  11) = (   0.7142860   0.0000000   0.5157245  )
        12        C      tau(  12) = (   0.7142860   0.0824785   0.5157245  )
        13        C      tau(  13) = (   0.8571430   0.0000000   0.5157245  )
        14        C      tau(  14) = (   0.8571430   0.0824785   0.5157245  )
        15        C      tau(  15) = (  -0.0714285   0.1237178   0.5157245  )
        16        C      tau(  16) = (  -0.0714285   0.2061963   0.5157245  )
        17        C      tau(  17) = (   0.0714285   0.1237178   0.5157245  )
        18        C      tau(  18) = (   0.0714285   0.2061963   0.5157245  )
        19        C      tau(  19) = (   0.2142855   0.1237178   0.5157245  )
        20        C      tau(  20) = (   0.2142855   0.2061963   0.5157245  )
        21        C      tau(  21) = (   0.3571425   0.1237178   0.5157245  )
        22        C      tau(  22) = (   0.3571425   0.2061963   0.5157245  )
        23        C      tau(  23) = (   0.5000005   0.1237178   0.5157245  )
        24        C      tau(  24) = (   0.5000005   0.2061963   0.5157245  )
        25        C      tau(  25) = (   0.6428575   0.1237178   0.5157245  )
        26        C      tau(  26) = (   0.6428575   0.2061963   0.5157245  )
        27        C      tau(  27) = (   0.7857145   0.1237178   0.5157245  )
        28        C      tau(  28) = (   0.7857145   0.2061963   0.5157245  )
        29        C      tau(  29) = (  -0.1428570   0.2474356   0.5157245  )
        30        C      tau(  30) = (  -0.1428570   0.3299141   0.5157245  )
        31        C      tau(  31) = (   0.0000000   0.2474356   0.5157245  )
        32        C      tau(  32) = (   0.0000000   0.3299141   0.5157245  )
        33        C      tau(  33) = (   0.1428570   0.2474356   0.5157245  )
        34        C      tau(  34) = (   0.1428570   0.3299141   0.5157245  )
        35        C      tau(  35) = (   0.2857140   0.2474356   0.5157245  )
        36        C      tau(  36) = (   0.2857140   0.3299141   0.5157245  )
        37        C      tau(  37) = (   0.4285720   0.2474356   0.5157245  )
        38        C      tau(  38) = (   0.4285720   0.3299141   0.5157245  )
        39        C      tau(  39) = (   0.5714290   0.2474356   0.5157245  )
        40        C      tau(  40) = (   0.5714290   0.3299141   0.5157245  )
        41        C      tau(  41) = (   0.7142860   0.2474356   0.5157245  )
        42        C      tau(  42) = (   0.7142860   0.3299141   0.5157245  )
        43        C      tau(  43) = (  -0.2142855   0.3711534   0.5157245  )
        44        C      tau(  44) = (  -0.2142860   0.4536327   0.5157245  )
        45        C      tau(  45) = (  -0.0714285   0.3711534   0.5157245  )
        46        C      tau(  46) = (  -0.0714290   0.4536327   0.5157245  )
        47        C      tau(  47) = (   0.0714285   0.3711534   0.5157245  )
        48        C      tau(  48) = (   0.0714280   0.4536327   0.5157245  )
        49        C      tau(  49) = (   0.2142855   0.3711534   0.5157245  )
        50        C      tau(  50) = (   0.2142850   0.4536327   0.5157245  )
        51        C      tau(  51) = (   0.3571435   0.3711534   0.5157245  )
        52        C      tau(  52) = (   0.3571430   0.4536327   0.5157245  )
        53        C      tau(  53) = (   0.5000005   0.3711534   0.5157245  )
        54        C      tau(  54) = (   0.5000000   0.4536327   0.5157245  )
        55        C      tau(  55) = (   0.6428575   0.3711534   0.5157245  )
        56        C      tau(  56) = (   0.6428570   0.4536327   0.5157245  )
        57        C      tau(  57) = (  -0.2857145   0.4948720   0.5157245  )
        58        C      tau(  58) = (  -0.2857145   0.5773505   0.5157245  )
        59        C      tau(  59) = (  -0.1428575   0.4948720   0.5157245  )
        60        C      tau(  60) = (  -0.1428575   0.5773505   0.5157245  )
        61        C      tau(  61) = (  -0.0000005   0.4948720   0.5157245  )
        62        C      tau(  62) = (  -0.0000005   0.5773505   0.5157245  )
        63        C      tau(  63) = (   0.1428565   0.4948720   0.5157245  )
        64        C      tau(  64) = (   0.1428565   0.5773505   0.5157245  )
        65        C      tau(  65) = (   0.2857145   0.4948720   0.5157245  )
        66        C      tau(  66) = (   0.2857145   0.5773505   0.5157245  )
        67        C      tau(  67) = (   0.4285715   0.4948720   0.5157245  )
        68        C      tau(  68) = (   0.4285715   0.5773505   0.5157245  )
        69        C      tau(  69) = (   0.5714285   0.4948720   0.5157245  )
        70        C      tau(  70) = (   0.5714285   0.5773505   0.5157245  )
        71        C      tau(  71) = (  -0.3571430   0.6185898   0.5157245  )
        72        C      tau(  72) = (  -0.3571430   0.7010683   0.5157245  )
        73        C      tau(  73) = (  -0.2142860   0.6185898   0.5157245  )
        74        C      tau(  74) = (  -0.2142860   0.7010683   0.5157245  )
        75        C      tau(  75) = (  -0.0714290   0.6185898   0.5157245  )
        76        C      tau(  76) = (  -0.0714290   0.7010683   0.5157245  )
        77        C      tau(  77) = (   0.0714280   0.6185898   0.5157245  )
        78        C      tau(  78) = (   0.0714280   0.7010683   0.5157245  )
        79        C      tau(  79) = (   0.2142860   0.6185898   0.5157245  )
        80        C      tau(  80) = (   0.2142860   0.7010683   0.5157245  )
        81        C      tau(  81) = (   0.3571430   0.6185898   0.5157245  )
        82        C      tau(  82) = (   0.3571430   0.7010683   0.5157245  )
        83        C      tau(  83) = (   0.5000000   0.6185898   0.5157245  )
        84        C      tau(  84) = (   0.5000000   0.7010683   0.5157245  )
        85        C      tau(  85) = (  -0.4285715   0.7423076   0.5157245  )
        86        C      tau(  86) = (  -0.4285715   0.8247861   0.5157245  )
        87        C      tau(  87) = (  -0.2857145   0.7423076   0.5157245  )
        88        C      tau(  88) = (  -0.2857145   0.8247861   0.5157245  )
        89        C      tau(  89) = (  -0.1428575   0.7423076   0.5157245  )
        90        C      tau(  90) = (  -0.1428575   0.8247861   0.5157245  )
        91        C      tau(  91) = (  -0.0000005   0.7423076   0.5157245  )
        92        C      tau(  92) = (  -0.0000005   0.8247861   0.5157245  )
        93        C      tau(  93) = (   0.1428575   0.7423076   0.5157245  )
        94        C      tau(  94) = (   0.1428575   0.8247861   0.5157245  )
        95        C      tau(  95) = (   0.2857145   0.7423076   0.5157245  )
        96        C      tau(  96) = (   0.2857145   0.8247861   0.5157245  )
        97        C      tau(  97) = (   0.4285715   0.7423076   0.5157245  )
        98        C      tau(  98) = (   0.4285715   0.8247861   0.5157245  )

     number of k points=    10  Marzari-Vanderbilt smearing, width (Ry)=  0.0200
                       cart. coord. in units 2pi/alat
        k(    1) = (   0.0000000   0.0000000   0.0000000), wk =   0.1250000
        k(    2) = (   0.0000000   0.2886751   0.0000000), wk =   0.2500000
        k(    3) = (   0.0000000  -0.5773503   0.0000000), wk =   0.1250000
        k(    4) = (   0.2500000   0.4330127   0.0000000), wk =   0.2500000
        k(    5) = (  -0.2500000   0.1443376   0.0000000), wk =   0.2500000
        k(    6) = (   0.2500000   0.1443376   0.0000000), wk =   0.2500000
        k(    7) = (   0.5000000  -0.2886751   0.0000000), wk =   0.1250000
        k(    8) = (  -0.5000000  -0.2886751   0.0000000), wk =   0.1250000
        k(    9) = (  -0.2500000   0.4330127   0.0000000), wk =   0.2500000
        k(   10) = (   0.5000000   0.0000000   0.0000000), wk =   0.2500000

     Dense  grid:  4185323 G-vectors     FFT dimensions: ( 216, 216, 216)

     Estimated max dynamical RAM per process >       4.13 GB

     Estimated total dynamical RAM >      49.57 GB
 ----2D----2D----2D----2D----2D----2D----2D----2D----2D----2D----2D----2D
  The code is running with the 2D cutoff
  Please refer to:
  Sohier, T., Calandra, M., & Mauri, F. (2017), 
  Density functional perturbation theory for gated two-dimensional heterostructu
 res:
  Theoretical developments and application to flexural phonons in graphene.
  Physical Review B, 96(7), 75448. https://doi.org/10.1103/PhysRevB.96.075448
 ----2D----2D----2D----2D----2D----2D----2D----2D----2D----2D----2D----2D

     Check: negative core charge=   -0.000011

     Initial potential from superposition of free atoms

     starting charge     391.9962, renormalised to     392.0000

     negative rho (up, down):  2.274E-04 0.000E+00
     Starting wfcs are  784 randomized atomic wfcs
     Checking if some PAW data can be deallocated... 

     total cpu time spent up to now is      208.2 secs

     per-process dynamical memory:  2539.3 Mb

     Self-consistent Calculation

     iteration #  1     ecut=   100.00 Ry     beta= 0.70
     Davidson diagonalization with overlap
     ethr =  1.00E-02,  avg # of iterations =  2.0

     negative rho (up, down):  1.253E-03 0.000E+00

     total cpu time spent up to now is      428.6 secs

     total energy              =   -1744.95955186 Ry
     estimated scf accuracy    <       9.59384364 Ry

     iteration #  2     ecut=   100.00 Ry     beta= 0.70
     Davidson diagonalization with overlap
     ethr =  2.45E-03,  avg # of iterations =  2.0

     negative rho (up, down):  1.770E-03 0.000E+00

     total cpu time spent up to now is      626.5 secs

     total energy              =   -1746.36913206 Ry
     estimated scf accuracy    <       0.12338127 Ry

     iteration #  3     ecut=   100.00 Ry     beta= 0.70
     Davidson diagonalization with overlap
     c_bands:  3 eigenvalues not converged
     c_bands:  3 eigenvalues not converged
     c_bands:  4 eigenvalues not converged
     c_bands:  4 eigenvalues not converged
     c_bands:  3 eigenvalues not converged
     c_bands:  4 eigenvalues not converged
     c_bands:  4 eigenvalues not converged
     ethr =  3.15E-05,  avg # of iterations = 24.0

     negative rho (up, down):  2.107E-03 0.000E+00

     total cpu time spent up to now is      967.3 secs

     total energy              =   -1746.38825183 Ry
     estimated scf accuracy    <       0.01298891 Ry

     iteration #  4     ecut=   100.00 Ry     beta= 0.70
     Davidson diagonalization with overlap
     c_bands:  1 eigenvalues not converged
     ethr =  3.31E-06,  avg # of iterations = 12.4

     negative rho (up, down):  2.187E-03 0.000E+00

     total cpu time spent up to now is     1243.9 secs

     total energy              =   -1746.38766204 Ry
     estimated scf accuracy    <       0.03032764 Ry

     iteration #  5     ecut=   100.00 Ry     beta= 0.70
     Davidson diagonalization with overlap
     ethr =  3.31E-06,  avg # of iterations =  7.6

     negative rho (up, down):  2.211E-03 0.000E+00

     total cpu time spent up to now is     1461.7 secs

     total energy              =   -1746.39320742 Ry
     estimated scf accuracy    <       0.00185678 Ry

     iteration #  6     ecut=   100.00 Ry     beta= 0.70
     Davidson diagonalization with overlap
     ethr =  4.74E-07,  avg # of iterations =  2.0

     negative rho (up, down):  2.229E-03 0.000E+00

     total cpu time spent up to now is     1641.1 secs

     total energy              =   -1746.39361127 Ry
     estimated scf accuracy    <       0.00014580 Ry

     iteration #  7     ecut=   100.00 Ry     beta= 0.70
     Davidson diagonalization with overlap
     ethr =  3.72E-08,  avg # of iterations =  3.0

     negative rho (up, down):  2.244E-03 0.000E+00

     total cpu time spent up to now is     1838.8 secs

     total energy              =   -1746.39364902 Ry
     estimated scf accuracy    <       0.00003733 Ry

     iteration #  8     ecut=   100.00 Ry     beta= 0.70
     Davidson diagonalization with overlap
     ethr =  9.52E-09,  avg # of iterations =  2.0

     negative rho (up, down):  2.247E-03 0.000E+00

     total cpu time spent up to now is     2017.2 secs

     total energy              =   -1746.39365525 Ry
     estimated scf accuracy    <       0.00000338 Ry

     iteration #  9     ecut=   100.00 Ry     beta= 0.70
     Davidson diagonalization with overlap
     ethr =  8.63E-10,  avg # of iterations =  2.5

     negative rho (up, down):  2.248E-03 0.000E+00

     total cpu time spent up to now is     2217.5 secs

     total energy              =   -1746.39365600 Ry
     estimated scf accuracy    <       0.00000044 Ry

     iteration # 10     ecut=   100.00 Ry     beta= 0.70
     Davidson diagonalization with overlap
     ethr =  1.12E-10,  avg # of iterations =  3.4

     negative rho (up, down):  2.248E-03 0.000E+00

     total cpu time spent up to now is     2422.7 secs

     total energy              =   -1746.39365608 Ry
     estimated scf accuracy    <       0.00000018 Ry

     iteration # 11     ecut=   100.00 Ry     beta= 0.70
     Davidson diagonalization with overlap
     ethr =  4.57E-11,  avg # of iterations =  2.0

     negative rho (up, down):  2.248E-03 0.000E+00

     total cpu time spent up to now is     2601.9 secs

     total energy              =   -1746.39365612 Ry
     estimated scf accuracy    <       0.00000007 Ry

     iteration # 12     ecut=   100.00 Ry     beta= 0.70
     Davidson diagonalization with overlap
     ethr =  1.81E-11,  avg # of iterations =  2.0

     negative rho (up, down):  2.248E-03 0.000E+00

     total cpu time spent up to now is     2773.2 secs

     total energy              =   -1746.39365613 Ry
     estimated scf accuracy    <       0.00000001 Ry

     iteration # 13     ecut=   100.00 Ry     beta= 0.70
     Davidson diagonalization with overlap
     ethr =  2.82E-12,  avg # of iterations =  2.2

     negative rho (up, down):  2.248E-03 0.000E+00

     total cpu time spent up to now is     2951.7 secs

     total energy              =   -1746.39365613 Ry
     estimated scf accuracy    <          1.1E-09 Ry

     iteration # 14     ecut=   100.00 Ry     beta= 0.70
     Davidson diagonalization with overlap
     ethr =  2.75E-13,  avg # of iterations =  3.3

     negative rho (up, down):  2.248E-03 0.000E+00

     total cpu time spent up to now is     3149.8 secs

     total energy              =   -1746.39365613 Ry
     estimated scf accuracy    <          2.4E-10 Ry

     iteration # 15     ecut=   100.00 Ry     beta= 0.70
     Davidson diagonalization with overlap
     ethr =  1.00E-13,  avg # of iterations =  2.1

     negative rho (up, down):  2.248E-03 0.000E+00

     total cpu time spent up to now is     3328.3 secs

     total energy              =   -1746.39365613 Ry
     estimated scf accuracy    <          2.3E-10 Ry

     iteration # 16     ecut=   100.00 Ry     beta= 0.70
     Davidson diagonalization with overlap
     ethr =  1.00E-13,  avg # of iterations =  1.0

     negative rho (up, down):  2.248E-03 0.000E+00

     total cpu time spent up to now is     3478.0 secs

     total energy              =   -1746.39365613 Ry
     estimated scf accuracy    <          9.0E-12 Ry

     iteration # 17     ecut=   100.00 Ry     beta= 0.70
     Davidson diagonalization with overlap
     ethr =  1.00E-13,  avg # of iterations =  1.0

     negative rho (up, down):  2.248E-03 0.000E+00

     total cpu time spent up to now is     3627.8 secs

     total energy              =   -1746.39365613 Ry
     estimated scf accuracy    <          5.7E-12 Ry

     iteration # 18     ecut=   100.00 Ry     beta= 0.70
     Davidson diagonalization with overlap
     ethr =  1.00E-13,  avg # of iterations =  1.0

     negative rho (up, down):  2.248E-03 0.000E+00

     total cpu time spent up to now is     3777.6 secs

     total energy              =   -1746.39365613 Ry
     estimated scf accuracy    <          3.8E-13 Ry

     iteration # 19     ecut=   100.00 Ry     beta= 0.70
     Davidson diagonalization with overlap
     ethr =  1.00E-13,  avg # of iterations =  1.0

     negative rho (up, down):  2.248E-03 0.000E+00

     total cpu time spent up to now is     3927.5 secs

     total energy              =   -1746.39365613 Ry
     estimated scf accuracy    <          1.1E-13 Ry

     iteration # 20     ecut=   100.00 Ry     beta= 0.70
     Davidson diagonalization with overlap
     ethr =  1.00E-13,  avg # of iterations =  1.0

     negative rho (up, down):  2.248E-03 0.000E+00

     total cpu time spent up to now is     4077.6 secs

     total energy              =   -1746.39365613 Ry
     estimated scf accuracy    <          3.5E-14 Ry

     iteration # 21     ecut=   100.00 Ry     beta= 0.70
     Davidson diagonalization with overlap
     ethr =  1.00E-13,  avg # of iterations =  1.0

     negative rho (up, down):  2.248E-03 0.000E+00

     total cpu time spent up to now is     4228.0 secs

     total energy              =   -1746.39365613 Ry
     estimated scf accuracy    <          1.4E-14 Ry

     iteration # 22     ecut=   100.00 Ry     beta= 0.70
     Davidson diagonalization with overlap
     ethr =  1.00E-13,  avg # of iterations =  1.0

     negative rho (up, down):  2.248E-03 0.000E+00

     total cpu time spent up to now is     4378.0 secs

     total energy              =   -1746.39365613 Ry
     estimated scf accuracy    <          3.4E-15 Ry

     iteration # 23     ecut=   100.00 Ry     beta= 0.70
     Davidson diagonalization with overlap
     ethr =  1.00E-13,  avg # of iterations =  1.0

     negative rho (up, down):  2.248E-03 0.000E+00

     total cpu time spent up to now is     4528.3 secs

     total energy              =   -1746.39365613 Ry
     estimated scf accuracy    <          7.4E-16 Ry

     iteration # 24     ecut=   100.00 Ry     beta= 0.70
     Davidson diagonalization with overlap
     ethr =  1.00E-13,  avg # of iterations =  1.0

     negative rho (up, down):  2.248E-03 0.000E+00

     total cpu time spent up to now is     4678.8 secs

     total energy              =   -1746.39365613 Ry
     estimated scf accuracy    <          2.2E-16 Ry

     iteration # 25     ecut=   100.00 Ry     beta= 0.70
     Davidson diagonalization with overlap
     ethr =  1.00E-13,  avg # of iterations =  1.0

     negative rho (up, down):  2.248E-03 0.000E+00

     total cpu time spent up to now is     4828.9 secs

     End of self-consistent calculation

          k = 0.0000 0.0000 0.0000 (523289 PWs)   bands (ev):

   -23.8598 -23.3835 -23.3812 -23.3812 -23.3812 -23.3811 -23.3790 -22.4358
   -22.4326 -22.4324 -22.4323 -22.4322 -22.4290 -21.9657 -21.9623 -21.9620
   -21.9620 -21.9617 -21.9584 -20.5848 -20.5777 -20.5768 -20.5768 -20.5767
   -20.5767 -20.5767 -20.5766 -20.5766 -20.5765 -20.5756 -20.5687 -19.6831
   -19.6798 -19.6791 -19.6790 -19.6784 -19.6750 -18.4025 -18.3989 -18.3983
   -18.3982 -18.3976 -18.3943 -18.2938 -18.2901 -18.2899 -18.2899 -18.2897
   -18.2858 -17.4024 -17.3995 -17.3989 -17.3987 -17.3982 -17.3952 -16.4474
   -16.4450 -16.4436 -16.4436 -16.4422 -16.4398 -15.8874 -15.8835 -15.8833
   -15.8831 -15.8829 -15.8790 -14.5194 -14.5133 -14.5113 -14.5109 -14.5109
   -14.5109 -14.5108 -14.5108 -14.5107 -14.5104 -14.5085 -14.5028 -14.4316
   -14.4312 -14.4299 -14.4297 -14.4282 -14.4277 -12.8407 -12.8372 -12.8359
   -12.8359 -12.8346 -12.8312 -12.3501 -12.3478 -12.3471 -12.3467 -12.3460
   -12.3437 -12.1913 -11.8440 -11.8387 -11.8365 -11.8363 -11.8363 -11.8362
   -11.8362 -11.8361 -11.8361 -11.8358 -11.8337 -11.8285 -11.6191 -11.6172
   -11.6172 -11.6172 -11.6171 -11.6154 -11.3643 -11.3592 -11.3588 -11.3585
   -11.3580 -11.3528 -10.8520 -10.8482 -10.8479 -10.8479 -10.8477 -10.8438
   -10.4952 -10.4925 -10.4923 -10.4923 -10.4922 -10.4896 -10.2360 -10.2320
   -10.2305 -10.2304 -10.2289 -10.2250  -9.9526  -9.9497  -9.9496  -9.9495
    -9.9494  -9.9486  -9.9465  -9.9439  -9.9431  -9.9431  -9.9423  -9.9373
    -9.3184  -9.3121  -9.3114  -9.3114  -9.3106  -9.3039  -8.4850  -8.4780
    -8.4774  -8.4774  -8.4768  -8.4694  -8.3893  -8.3824  -8.3823  -8.3822
    -8.3822  -8.3821  -8.3821  -8.3821  -8.3821  -8.3820  -8.3818  -8.3751
    -7.6009  -7.5948  -7.5738  -7.5703  -7.5702  -7.5701  -7.5700  -7.5665
    -6.4726  -6.4691  -6.4690  -6.4689  -6.4688  -6.4653  -6.0645  -6.0606
    -6.0605  -6.0605  -6.0604  -6.0565  -3.0730  -3.0666  -3.0665  -3.0664
    -3.0664  -3.0642  -3.0611  -3.0587  -3.0586  -3.0584  -3.0583  -3.0519
    -2.0802  -2.0759  -2.0756  -2.0756  -2.0753  -2.0709  -1.2548  -0.6021
    -0.6019  -0.6018  -0.6017  -0.6016  -0.6013  -0.6002  -0.5919  -0.5916
    -0.5915  -0.5915  -0.5914  -0.5914  -0.5913  -0.5913  -0.5912  -0.5909
    -0.5824  -0.4998   0.1640

          k = 0.0000 0.2887 0.0000 (523216 PWs)   bands (ev):

   -23.8298 -23.5903 -23.4716 -23.4699 -23.2331 -23.2313 -23.1131 -22.7581
   -22.7563 -22.4047 -22.4027 -22.4010 -22.1688 -22.1659 -22.0514 -22.0496
   -21.7006 -21.6978 -21.4664 -21.1216 -21.1198 -21.0065 -21.0036 -20.6642
   -20.6612 -20.4354 -20.4325 -20.3193 -20.0986 -20.0957 -19.9862 -19.9842
   -19.9834 -19.9808 -19.3307 -19.3278 -19.0244 -19.0017 -18.9987 -18.7099
   -18.7079 -18.5623 -18.5600 -18.3780 -18.3759 -18.2546 -18.2529 -17.7925
   -17.7893 -17.3828 -17.3801 -17.2297 -17.0950 -17.0914 -16.9411 -16.9397
   -16.8332 -16.8304 -16.3777 -16.3759 -16.1357 -16.1317 -16.0064 -16.0035
   -15.5869 -15.4919 -15.4895 -15.3586 -15.3571 -15.0223 -15.0192 -14.8503
   -14.8479 -14.7317 -14.7306 -14.1551 -14.1528 -14.1407 -14.1383 -14.0564
   -14.0532 -13.9163 -13.9132 -13.7701 -13.6613 -13.6596 -13.2977 -13.2952
   -12.9660 -12.9631 -12.5467 -12.5433 -12.3674 -12.3648 -12.3152 -12.3150
   -12.2490 -12.2472 -12.1552 -12.0616 -12.0602 -12.0548 -12.0520 -11.9026
   -11.8675 -11.7866 -11.7838 -11.7250 -11.7235 -11.5460 -11.5447 -11.5315
   -11.5292 -11.4401 -11.4386 -11.4207 -11.4182 -11.2977 -11.1805 -11.1772
   -11.0005 -10.9979 -10.9370 -10.8817 -10.8793 -10.8759 -10.8745 -10.7536
   -10.7497 -10.7450 -10.7420 -10.7007 -10.4606 -10.4590 -10.4568 -10.2441
   -10.1965 -10.1934 -10.1871 -10.1847 -10.1277 -10.1258 -10.1142 -10.0466
   -10.0452  -9.8728  -9.8699  -9.7326  -9.7285  -9.6806  -9.6760  -9.6496
    -9.6472  -9.6032  -9.3867  -8.9946  -8.9917  -8.9827  -8.9812  -8.8623
    -8.8600  -8.8535  -8.7442  -8.7397  -8.6155  -8.4664  -8.4636  -8.3710
    -8.3679  -8.2478  -8.2450  -8.1632  -8.1327  -7.8542  -7.8519  -7.8346
    -7.8319  -7.7620  -7.7604  -7.7194  -7.6634  -7.2854  -7.2828  -7.0986
    -6.7135  -6.7110  -6.6785  -6.6761  -6.6729  -6.6712  -6.2812  -6.2787
    -6.0838  -6.0811  -5.4838  -5.4811  -3.6494  -3.6473  -3.1141  -3.1102
    -3.0821  -3.0784  -2.9276  -2.9237  -2.8189  -2.8183  -2.6861  -2.4408
    -2.4381  -2.4235  -2.4196  -1.6935  -1.6895  -1.4472  -1.4461  -1.2562
    -1.2140  -1.1964  -1.1933  -0.9161  -0.9121  -0.8875  -0.7243  -0.7240
    -0.4583  -0.3977  -0.3975  -0.3727  -0.3688  -0.2345  -0.1261  -0.0036
    -0.0004   0.0398   0.0400

          k = 0.0000-0.5774 0.0000 (523138 PWs)   bands (ev):

   -23.7400 -23.7399 -23.5015 -23.4997 -23.0258 -23.0240 -23.0239 -23.0223
   -22.7867 -22.7867 -22.3173 -22.3144 -22.3144 -22.3116 -21.6143 -21.6130
   -21.6124 -21.6113 -21.3824 -21.3800 -21.3795 -21.3771 -20.9177 -20.9176
   -20.6929 -20.6899 -20.2382 -20.2355 -20.2353 -20.2326 -19.5722 -19.5705
   -19.5692 -19.5675 -19.3539 -19.3528 -19.3520 -19.3509 -18.9475 -18.9458
   -18.9447 -18.9431 -18.5937 -18.3210 -18.3191 -18.3190 -18.3170 -17.7044
   -17.3839 -17.3801 -17.1583 -17.1559 -17.1557 -17.1532 -16.7558 -16.7549
   -16.6197 -16.6169 -16.6159 -16.6131 -16.1809 -16.1806 -16.1794 -16.1791
   -15.5289 -15.5269 -15.5259 -15.5240 -15.1679 -15.1658 -15.1654 -15.1634
   -14.8247 -14.8246 -14.6911 -14.6911 -13.8361 -13.8328 -13.7359 -13.7339
   -13.7334 -13.7315 -13.5936 -13.5931 -13.5909 -13.5903 -13.2603 -13.2588
   -13.2570 -13.2555 -12.8328 -12.8317 -12.8307 -12.8297 -12.4564 -12.4554
   -12.2199 -12.2197 -12.2196 -12.2193 -12.0471 -12.0471 -11.9150 -11.9124
   -11.9121 -11.9096 -11.7607 -11.7593 -11.3247 -11.3225 -11.3219 -11.3200
   -11.1930 -11.1916 -11.1915 -11.1901 -11.1846 -11.1838 -11.1825 -11.1819
   -11.0858 -11.0833 -11.0829 -11.0804 -10.9878 -10.9878 -10.9666 -10.9110
   -10.9110 -10.6209 -10.6177 -10.6175 -10.6144 -10.4983 -10.4981 -10.3582
   -10.3558 -10.3558 -10.3534 -10.2173 -10.2135 -10.2132 -10.2092  -9.9589
    -9.9564  -9.9551  -9.9523  -9.5416  -9.5403  -9.5400  -9.5389  -9.2869
    -9.2846  -9.2845  -9.2822  -9.2355  -9.2353  -9.1627  -9.1582  -9.1581
    -9.1533  -8.8615  -8.8612  -8.7838  -8.7838  -8.4942  -8.4914  -8.3569
    -8.3566  -8.0703  -8.0703  -8.0643  -8.0615  -8.0615  -8.0587  -7.8507
    -7.8503  -7.2833  -7.2811  -7.2808  -7.2788  -7.1622  -7.1607  -7.1606
    -7.1591  -6.9937  -6.9914  -6.9912  -6.9889  -6.9070  -6.1553  -6.1527
    -6.1526  -6.1500  -5.1716  -5.1686  -3.9625  -3.9607  -3.1111  -3.1072
    -3.1072  -3.1034  -2.9245  -2.7143  -2.7104  -2.7102  -2.7063  -2.2230
    -2.2222  -2.2221  -2.2213  -1.8146  -1.8118  -1.8117  -1.8087  -1.2977
    -1.2940  -1.2939  -1.2901  -1.0917  -1.0915  -0.7650  -0.7648  -0.3338
    -0.3335  -0.3301  -0.3300  -0.2937  -0.2897  -0.1119  -0.1118  -0.1116
    -0.1115  -0.0017  -0.0015

          k = 0.2500 0.4330 0.0000 (523262 PWs)   bands (ev):

   -23.7699 -23.6506 -23.6496 -23.2926 -23.2909 -23.0537 -22.9354 -22.9344
   -22.6991 -22.6967 -22.5806 -22.5787 -21.9930 -21.9906 -21.8759 -21.8731
   -21.6420 -21.5258 -21.5248 -21.1807 -21.1781 -21.1772 -21.1752 -20.8335
   -20.8308 -20.6045 -20.6019 -20.1551 -20.1523 -19.8186 -19.8156 -19.5993
   -19.5972 -19.5953 -19.4881 -19.4871 -19.1692 -19.1673 -18.9499 -18.9474
   -18.8498 -18.8468 -18.7167 -18.7141 -18.5183 -17.9117 -17.7991 -17.7963
   -17.6250 -17.5348 -17.5323 -17.2347 -17.0517 -16.7373 -16.7355 -16.7058
   -16.6931 -16.6903 -16.4292 -16.4270 -16.3757 -16.3737 -15.9055 -15.9033
   -15.8800 -15.8771 -15.6534 -15.6505 -15.1309 -15.1275 -15.0778 -14.9241
   -14.6409 -14.6390 -14.4591 -14.4569 -14.2624 -14.2608 -14.2240 -14.2204
   -13.6322 -13.5056 -13.4736 -13.4711 -13.3060 -13.3028 -13.2534 -13.2499
   -12.9311 -12.9280 -12.8968 -12.8949 -12.8188 -12.8164 -12.7583 -12.7558
   -12.6370 -12.3753 -12.3714 -12.0831 -11.9396 -11.9389 -11.8534 -11.8501
   -11.7244 -11.7221 -11.6023 -11.6000 -11.5111 -11.5096 -11.4496 -11.4452
   -11.3536 -11.3402 -11.2347 -11.2319 -11.2267 -11.0864 -11.0857 -11.0595
   -11.0574 -11.0354 -11.0317 -10.8831 -10.8803 -10.8780 -10.8767 -10.8068
   -10.8048 -10.7056 -10.7027 -10.6678 -10.6663 -10.5630 -10.5584 -10.5314
   -10.5277 -10.4756 -10.4723 -10.3118 -10.3077 -10.0654  -9.9803  -9.9783
    -9.8478  -9.8454  -9.5724  -9.5722  -9.5675  -9.5139  -9.5101  -9.4790
    -9.4740  -9.4441  -9.4434  -9.2005  -9.1315  -9.1269  -9.0643  -9.0629
    -9.0439  -9.0415  -8.7485  -8.7432  -8.6839  -8.6813  -8.4490  -8.4470
    -8.3888  -8.3831  -8.0454  -8.0395  -7.9528  -7.9016  -7.8989  -7.7925
    -7.6307  -7.6284  -7.4688  -7.4661  -7.2971  -7.2332  -7.2321  -7.0750
    -7.0733  -6.9303  -6.9282  -6.7985  -6.6725  -6.6697  -6.6649  -6.6624
    -5.9260  -5.6444  -5.6418  -4.8975  -4.2143  -3.5445  -3.5419  -3.3550
    -2.9468  -2.8705  -2.8678  -2.6698  -2.6673  -2.5261  -2.5229  -2.4832
    -2.4807  -2.1035  -2.0998  -1.9847  -1.9824  -1.7664  -1.7639  -1.7504
    -1.1324  -1.0551  -1.0521  -0.9693  -0.9689  -0.8145  -0.8122  -0.4792
    -0.4789  -0.3850  -0.3814  -0.3752  -0.2093  -0.2089  -0.1523   0.0101
     0.0105   0.1371   0.1393

          k =-0.2500 0.1443 0.0000 (523216 PWs)   bands (ev):

   -23.8298 -23.5903 -23.4712 -23.4703 -23.2326 -23.2317 -23.1131 -22.7576
   -22.7567 -22.4043 -22.4028 -22.4013 -22.1681 -22.1667 -22.0509 -22.0500
   -21.7000 -21.6985 -21.4663 -21.1211 -21.1202 -21.0058 -21.0043 -20.6636
   -20.6620 -20.4348 -20.4332 -20.3193 -20.0979 -20.0964 -19.9863 -19.9845
   -19.9830 -19.9808 -19.3302 -19.3284 -19.0247 -19.0009 -18.9994 -18.7096
   -18.7086 -18.5621 -18.5598 -18.3779 -18.3760 -18.2547 -18.2523 -17.7919
   -17.7902 -17.3828 -17.3812 -17.2287 -17.0948 -17.0928 -16.9406 -16.9383
   -16.8329 -16.8316 -16.3774 -16.3744 -16.1355 -16.1335 -16.0061 -16.0046
   -15.5861 -15.4918 -15.4893 -15.3581 -15.3559 -15.0221 -15.0204 -14.8504
   -14.8482 -14.7323 -14.7314 -14.1537 -14.1525 -14.1410 -14.1387 -14.0567
   -14.0549 -13.9158 -13.9143 -13.7691 -13.6608 -13.6581 -13.2980 -13.2958
   -12.9649 -12.9631 -12.5458 -12.5439 -12.3681 -12.3656 -12.3168 -12.3155
   -12.2478 -12.2460 -12.1552 -12.0625 -12.0607 -12.0545 -12.0511 -11.9013
   -11.8675 -11.7857 -11.7836 -11.7246 -11.7239 -11.5480 -11.5458 -11.5324
   -11.5305 -11.4397 -11.4389 -11.4198 -11.4176 -11.2977 -11.1796 -11.1772
   -10.9997 -10.9974 -10.9383 -10.8811 -10.8787 -10.8756 -10.8749 -10.7538
   -10.7489 -10.7455 -10.7437 -10.7019 -10.4607 -10.4585 -10.4572 -10.2454
   -10.1958 -10.1930 -10.1865 -10.1852 -10.1267 -10.1242 -10.1121 -10.0464
   -10.0456  -9.8720  -9.8688  -9.7332  -9.7289  -9.6805  -9.6770  -9.6489
    -9.6477  -9.6049  -9.3870  -8.9969  -8.9928  -8.9825  -8.9817  -8.8617
    -8.8605  -8.8553  -8.7437  -8.7393  -8.6134  -8.4656  -8.4638  -8.3700
    -8.3652  -8.2470  -8.2452  -8.1637  -8.1350  -7.8537  -7.8525  -7.8338
    -7.8319  -7.7622  -7.7612  -7.7168  -7.6661  -7.2846  -7.2828  -7.0996
    -6.7127  -6.7106  -6.6783  -6.6766  -6.6738  -6.6723  -6.2804  -6.2782
    -6.0830  -6.0806  -5.4840  -5.4823  -3.6487  -3.6462  -3.1145  -3.1117
    -3.0825  -3.0801  -2.9277  -2.9253  -2.8188  -2.8151  -2.6843  -2.4400
    -2.4382  -2.4234  -2.4213  -1.6934  -1.6911  -1.4469  -1.4443  -1.2550
    -1.2140  -1.1956  -1.1939  -0.9161  -0.9138  -0.8875  -0.7242  -0.7240
    -0.4583  -0.3977  -0.3975  -0.3728  -0.3705  -0.2345  -0.1261  -0.0031
    -0.0014   0.0398   0.0399

          k = 0.2500 0.1443 0.0000 (523216 PWs)   bands (ev):

   -23.8298 -23.5903 -23.4712 -23.4703 -23.2326 -23.2317 -23.1131 -22.7577
   -22.7567 -22.4043 -22.4028 -22.4013 -22.1681 -22.1666 -22.0510 -22.0500
   -21.6999 -21.6985 -21.4664 -21.1212 -21.1202 -21.0058 -21.0043 -20.6634
   -20.6619 -20.4347 -20.4331 -20.3194 -20.0979 -20.0964 -19.9864 -19.9844
   -19.9830 -19.9809 -19.3302 -19.3285 -19.0243 -19.0010 -18.9994 -18.7092
   -18.7081 -18.5625 -18.5603 -18.3780 -18.3761 -18.2552 -18.2528 -17.7915
   -17.7898 -17.3816 -17.3800 -17.2306 -17.0935 -17.0915 -16.9426 -16.9403
   -16.8321 -16.8307 -16.3791 -16.3761 -16.1339 -16.1319 -16.0053 -16.0038
   -15.5877 -15.4923 -15.4897 -15.3598 -15.3576 -15.0210 -15.0194 -14.8501
   -14.8480 -14.7309 -14.7299 -14.1555 -14.1539 -14.1401 -14.1383 -14.0547
   -14.0528 -13.9153 -13.9137 -13.7711 -13.6628 -13.6602 -13.2970 -13.2949
   -12.9660 -12.9642 -12.5461 -12.5442 -12.3666 -12.3643 -12.3147 -12.3134
   -12.2503 -12.2484 -12.1552 -12.0600 -12.0593 -12.0562 -12.0532 -11.9039
   -11.8675 -11.7868 -11.7847 -11.7247 -11.7239 -11.5449 -11.5438 -11.5302
   -11.5271 -11.4397 -11.4390 -11.4213 -11.4190 -11.2976 -11.1805 -11.1780
   -11.0010 -10.9985 -10.9359 -10.8824 -10.8799 -10.8756 -10.8748 -10.7537
   -10.7506 -10.7437 -10.7409 -10.6994 -10.4605 -10.4586 -10.4574 -10.2426
   -10.1972 -10.1941 -10.1867 -10.1854 -10.1301 -10.1269 -10.1156 -10.0462
   -10.0454  -9.8738  -9.8706  -9.7322  -9.7282  -9.6795  -9.6760  -9.6491
    -9.6478  -9.6016  -9.3865  -8.9935  -8.9894  -8.9821  -8.9813  -8.8618
    -8.8606  -8.8515  -8.7448  -8.7402  -8.6178  -8.4662  -8.4644  -8.3735
    -8.3690  -8.2476  -8.2459  -8.1626  -8.1304  -7.8536  -7.8524  -7.8344
    -7.8327  -7.7613  -7.7601  -7.7219  -7.6609  -7.2855  -7.2836  -7.0975
    -6.7138  -6.7117  -6.6775  -6.6766  -6.6723  -6.6699  -6.2818  -6.2795
    -6.0844  -6.0820  -5.4826  -5.4809  -3.6506  -3.6481  -3.1122  -3.1099
    -3.0805  -3.0778  -2.9260  -2.9235  -2.8222  -2.8185  -2.6879  -2.4406
    -2.4389  -2.4221  -2.4196  -1.6919  -1.6896  -1.4491  -1.4465  -1.2575
    -1.2140  -1.1957  -1.1941  -0.9144  -0.9121  -0.8875  -0.7242  -0.7241
    -0.4583  -0.3977  -0.3975  -0.3710  -0.3686  -0.2345  -0.1261  -0.0027
    -0.0012   0.0399   0.0399

          k = 0.5000-0.2887 0.0000 (523138 PWs)   bands (ev):

   -23.7404 -23.7395 -23.5011 -23.5002 -23.0259 -23.0241 -23.0239 -23.0221
   -22.7878 -22.7854 -22.3163 -22.3144 -22.3143 -22.3129 -21.6154 -21.6129
   -21.6127 -21.6099 -21.3823 -21.3800 -21.3795 -21.3773 -20.9189 -20.9162
   -20.6923 -20.6907 -20.2376 -20.2357 -20.2351 -20.2334 -19.5726 -19.5700
   -19.5696 -19.5671 -19.3548 -19.3525 -19.3523 -19.3500 -18.9477 -18.9457
   -18.9450 -18.9422 -18.5943 -18.3211 -18.3190 -18.3189 -18.3168 -17.7030
   -17.3838 -17.3817 -17.1589 -17.1564 -17.1550 -17.1548 -16.7558 -16.7519
   -16.6199 -16.6167 -16.6161 -16.6154 -16.1806 -16.1802 -16.1797 -16.1760
   -15.5298 -15.5273 -15.5256 -15.5248 -15.1684 -15.1659 -15.1652 -15.1630
   -14.8258 -14.8250 -14.6911 -14.6893 -13.8368 -13.8348 -13.7374 -13.7344
   -13.7327 -13.7317 -13.5929 -13.5919 -13.5911 -13.5894 -13.2596 -13.2586
   -13.2572 -13.2564 -12.8320 -12.8315 -12.8308 -12.8262 -12.4552 -12.4535
   -12.2237 -12.2206 -12.2196 -12.2193 -12.0475 -12.0467 -11.9173 -11.9132
   -11.9116 -11.9108 -11.7604 -11.7596 -11.3234 -11.3224 -11.3220 -11.3189
   -11.1931 -11.1916 -11.1915 -11.1900 -11.1886 -11.1845 -11.1829 -11.1820
   -11.0844 -11.0832 -11.0828 -11.0793 -10.9880 -10.9845 -10.9680 -10.9121
   -10.9100 -10.6192 -10.6183 -10.6177 -10.6131 -10.5014 -10.4978 -10.3571
   -10.3558 -10.3557 -10.3542 -10.2180 -10.2134 -10.2125 -10.2092  -9.9571
    -9.9562  -9.9551  -9.9497  -9.5428  -9.5403  -9.5402  -9.5381  -9.2866
    -9.2846  -9.2844  -9.2823  -9.2397  -9.2346  -9.1620  -9.1592  -9.1582
    -9.1531  -8.8655  -8.8617  -8.7855  -8.7828  -8.4934  -8.4916  -8.3567
    -8.3521  -8.0704  -8.0652  -8.0629  -8.0615  -8.0614  -8.0589  -7.8557
    -7.8504  -7.2839  -7.2810  -7.2809  -7.2785  -7.1646  -7.1608  -7.1606
    -7.1594  -6.9926  -6.9914  -6.9913  -6.9880  -6.9082  -6.1538  -6.1526
    -6.1525  -6.1489  -5.1726  -5.1700  -3.9619  -3.9585  -3.1120  -3.1071
    -3.1071  -3.1069  -2.9225  -2.7146  -2.7104  -2.7101  -2.7094  -2.2231
    -2.2224  -2.2222  -2.2156  -1.8143  -1.8118  -1.8116  -1.8083  -1.2981
    -1.2940  -1.2937  -1.2930  -1.0917  -1.0914  -0.7650  -0.7648  -0.3339
    -0.3335  -0.3308  -0.3272  -0.2938  -0.2915  -0.1120  -0.1118  -0.1117
    -0.1115  -0.0017  -0.0016

          k =-0.5000-0.2887 0.0000 (523138 PWs)   bands (ev):

   -23.7404 -23.7395 -23.5011 -23.5001 -23.0260 -23.0240 -23.0239 -23.0221
   -22.7879 -22.7855 -22.3160 -22.3145 -22.3144 -22.3127 -21.6157 -21.6128
   -21.6125 -21.6102 -21.3823 -21.3800 -21.3795 -21.3772 -20.9191 -20.9163
   -20.6921 -20.6906 -20.2374 -20.2357 -20.2352 -20.2333 -19.5727 -19.5701
   -19.5696 -19.5672 -19.3548 -19.3524 -19.3523 -19.3499 -18.9483 -18.9456
   -18.9448 -18.9429 -18.5930 -18.3213 -18.3192 -18.3191 -18.3171 -17.7059
   -17.3821 -17.3801 -17.1568 -17.1565 -17.1551 -17.1527 -16.7589 -16.7550
   -16.6174 -16.6167 -16.6161 -16.6128 -16.1840 -16.1802 -16.1798 -16.1794
   -15.5280 -15.5272 -15.5255 -15.5231 -15.1683 -15.1661 -15.1653 -15.1629
   -14.8243 -14.8235 -14.6929 -14.6911 -13.8339 -13.8322 -13.7358 -13.7346
   -13.7328 -13.7299 -13.5945 -13.5929 -13.5921 -13.5910 -13.2595 -13.2586
   -13.2572 -13.2562 -12.8363 -12.8316 -12.8309 -12.8305 -12.4582 -12.4565
   -12.2200 -12.2197 -12.2188 -12.2159 -12.0475 -12.0467 -11.9138 -11.9129
   -11.9113 -11.9072 -11.7604 -11.7596 -11.3258 -11.3224 -11.3220 -11.3211
   -11.1931 -11.1916 -11.1914 -11.1900 -11.1843 -11.1834 -11.1819 -11.1780
   -11.0871 -11.0834 -11.0830 -11.0816 -10.9908 -10.9876 -10.9656 -10.9119
   -10.9099 -10.6220 -10.6175 -10.6169 -10.6159 -10.4988 -10.4952 -10.3574
   -10.3559 -10.3559 -10.3546 -10.2174 -10.2141 -10.2132 -10.2085  -9.9614
    -9.9564  -9.9553  -9.9542  -9.5424  -9.5402  -9.5400  -9.5376  -9.2868
    -9.2846  -9.2845  -9.2826  -9.2361  -9.2314  -9.1630  -9.1582  -9.1571
    -9.1539  -8.8611  -8.8569  -8.7847  -8.7821  -8.4940  -8.4923  -8.3614
    -8.3570  -8.0750  -8.0702  -8.0641  -8.0617  -8.0615  -8.0601  -7.8510
    -7.8453  -7.2835  -7.2810  -7.2809  -7.2783  -7.1619  -7.1607  -7.1605
    -7.1565  -6.9946  -6.9913  -6.9913  -6.9900  -6.9058  -6.1564  -6.1528
    -6.1527  -6.1515  -5.1702  -5.1677  -3.9647  -3.9613  -3.1075  -3.1073
    -3.1073  -3.1025  -2.9265  -2.7112  -2.7105  -2.7102  -2.7060  -2.2288
    -2.2222  -2.2220  -2.2213  -1.8149  -1.8119  -1.8116  -1.8092  -1.2948
    -1.2941  -1.2939  -1.2897  -1.0917  -1.0915  -0.7650  -0.7648  -0.3339
    -0.3337  -0.3327  -0.3294  -0.2919  -0.2895  -0.1120  -0.1117  -0.1117
    -0.1115  -0.0016  -0.0016

          k =-0.2500 0.4330 0.0000 (523262 PWs)   bands (ev):

   -23.7699 -23.6506 -23.6497 -23.2927 -23.2909 -23.0537 -22.9353 -22.9344
   -22.6992 -22.6968 -22.5805 -22.5787 -21.9931 -21.9906 -21.8760 -21.8732
   -21.6419 -21.5257 -21.5247 -21.1807 -21.1781 -21.1773 -21.1751 -20.8336
   -20.8309 -20.6044 -20.6019 -20.1552 -20.1523 -19.8186 -19.8156 -19.5992
   -19.5973 -19.5952 -19.4880 -19.4870 -19.1692 -19.1673 -18.9499 -18.9473
   -18.8500 -18.8469 -18.7171 -18.7145 -18.5170 -17.9102 -17.7995 -17.7967
   -17.6279 -17.5336 -17.5311 -17.2357 -17.0549 -16.7361 -16.7346 -16.7039
   -16.6923 -16.6892 -16.4284 -16.4262 -16.3773 -16.3754 -15.9074 -15.9050
   -15.8793 -15.8764 -15.6522 -15.6493 -15.1301 -15.1267 -15.0786 -14.9217
   -14.6427 -14.6408 -14.4608 -14.4586 -14.2631 -14.2615 -14.2230 -14.2194
   -13.6302 -13.5082 -13.4715 -13.4692 -13.3067 -13.3036 -13.2519 -13.2482
   -12.9290 -12.9261 -12.8976 -12.8956 -12.8211 -12.8186 -12.7598 -12.7574
   -12.6339 -12.3751 -12.3711 -12.0831 -11.9396 -11.9389 -11.8526 -11.8493
   -11.7257 -11.7233 -11.6033 -11.6009 -11.5110 -11.5096 -11.4485 -11.4443
   -11.3513 -11.3436 -11.2323 -11.2296 -11.2268 -11.0865 -11.0858 -11.0610
   -11.0583 -11.0380 -11.0348 -10.8844 -10.8812 -10.8777 -10.8738 -10.8066
   -10.8046 -10.7068 -10.7039 -10.6678 -10.6664 -10.5608 -10.5564 -10.5319
   -10.5279 -10.4770 -10.4739 -10.3090 -10.3048 -10.0613  -9.9802  -9.9783
    -9.8474  -9.8450  -9.5726  -9.5690  -9.5643  -9.5156  -9.5109  -9.4817
    -9.4774  -9.4445  -9.4437  -9.2049  -9.1338  -9.1295  -9.0647  -9.0632
    -9.0438  -9.0414  -8.7453  -8.7399  -8.6832  -8.6806  -8.4494  -8.4474
    -8.3893  -8.3836  -8.0449  -8.0391  -7.9477  -7.9011  -7.8985  -7.7977
    -7.6311  -7.6288  -7.4673  -7.4645  -7.2981  -7.2342  -7.2331  -7.0760
    -7.0744  -6.9315  -6.9294  -6.7961  -6.6712  -6.6686  -6.6654  -6.6627
    -5.9236  -5.6452  -5.6425  -4.8996  -4.2120  -3.5436  -3.5409  -3.3584
    -2.9508  -2.8684  -2.8659  -2.6690  -2.6666  -2.5283  -2.5251  -2.4812
    -2.4787  -2.1065  -2.1028  -1.9827  -1.9803  -1.7655  -1.7632  -1.7483
    -1.1324  -1.0563  -1.0534  -0.9692  -0.9690  -0.8135  -0.8112  -0.4792
    -0.4789  -0.3870  -0.3835  -0.3752  -0.2093  -0.2089  -0.1524   0.0102
     0.0104   0.1383   0.1405

          k = 0.5000 0.0000 0.0000 (523262 PWs)   bands (ev):

   -23.7699 -23.6501 -23.6501 -23.2918 -23.2917 -23.0537 -22.9349 -22.9349
   -22.6980 -22.6979 -22.5797 -22.5796 -21.9919 -21.9918 -21.8746 -21.8745
   -21.6420 -21.5252 -21.5252 -21.1806 -21.1787 -21.1769 -21.1750 -20.8322
   -20.8322 -20.6032 -20.6031 -20.1538 -20.1537 -19.8172 -19.8171 -19.5992
   -19.5971 -19.5954 -19.4876 -19.4875 -19.1683 -19.1681 -18.9487 -18.9486
   -18.8485 -18.8483 -18.7160 -18.7151 -18.5177 -17.9110 -17.7984 -17.7974
   -17.6264 -17.5341 -17.5317 -17.2352 -17.0533 -16.7373 -16.7345 -16.7051
   -16.6919 -16.6902 -16.4287 -16.4267 -16.3756 -16.3755 -15.9056 -15.9049
   -15.8791 -15.8773 -15.6521 -15.6506 -15.1296 -15.1279 -15.0783 -14.9230
   -14.6409 -14.6407 -14.4598 -14.4579 -14.2629 -14.2609 -14.2226 -14.2208
   -13.6312 -13.5068 -13.4717 -13.4709 -13.3063 -13.3032 -13.2518 -13.2500
   -12.9297 -12.9274 -12.8973 -12.8951 -12.8190 -12.8184 -12.7587 -12.7569
   -12.6355 -12.3748 -12.3717 -12.0831 -11.9393 -11.9392 -11.8531 -11.8496
   -11.7250 -11.7228 -11.6029 -11.6005 -11.5104 -11.5103 -11.4484 -11.4454
   -11.3525 -11.3418 -11.2321 -11.2320 -11.2268 -11.0862 -11.0860 -11.0602
   -11.0578 -11.0357 -11.0343 -10.8831 -10.8809 -10.8773 -10.8762 -10.8058
   -10.8057 -10.7061 -10.7035 -10.6672 -10.6669 -10.5610 -10.5583 -10.5315
   -10.5279 -10.4760 -10.4734 -10.3086 -10.3080 -10.0634  -9.9794  -9.9791
    -9.8465  -9.8463  -9.5724  -9.5692  -9.5676  -9.5143  -9.5108  -9.4797
    -9.4763  -9.4441  -9.4438  -9.2027  -9.1321  -9.1289  -9.0641  -9.0635
    -9.0429  -9.0423  -8.7460  -8.7425  -8.6824  -8.6822  -8.4487  -8.4477
    -8.3889  -8.3835  -8.0450  -8.0394  -7.9503  -7.9003  -7.8997  -7.7951
    -7.6305  -7.6291  -7.4668  -7.4666  -7.2976  -7.2336  -7.2327  -7.0755
    -7.0738  -6.9310  -6.9287  -6.7973  -6.6708  -6.6700  -6.6649  -6.6630
    -5.9248  -5.6447  -5.6423  -4.8985  -4.2131  -3.5444  -3.5411  -3.3567
    -2.9488  -2.8701  -2.8662  -2.6698  -2.6665  -2.5263  -2.5249  -2.4824
    -2.4794  -2.1033  -2.1030  -1.9834  -1.9817  -1.7663  -1.7633  -1.7491
    -1.1324  -1.0551  -1.0533  -0.9692  -0.9690  -0.8141  -0.8116  -0.4791
    -0.4790  -0.3845  -0.3839  -0.3752  -0.2093  -0.2089  -0.1524   0.0102
     0.0104   0.1379   0.1397

     the Fermi energy is    -4.6898 ev

!    total energy              =   -1746.39365613 Ry
     total all-electron energy =     -1746.393656 Ry
     estimated scf accuracy    <          7.2E-17 Ry
     smearing contrib. (-TS)   =       0.00260611 Ry
     internal energy E=F+TS    =   -1746.39626224 Ry

     The total energy is F=E-TS. E is the sum of the following terms:
     one-electron contribution =  -15337.95170327 Ry
     hartree contribution      =    7710.45804238 Ry
     xc contribution           =    -435.91804427 Ry
     ewald contribution        =    6878.15494188 Ry
     one-center paw contrib.   =    -561.13949897 Ry

     convergence has been achieved in  25 iterations

     negative rho (up, down):  2.248E-03 0.000E+00

     Forces acting on atoms (cartesian axes, Ry/au):

     atom    1 type  1   force =     0.00415410    0.00001590    0.00000000
     atom    2 type  1   force =    -0.02376494   -0.00031431    0.00000000
     atom    3 type  1   force =    -0.00006169    0.00047874    0.00000000
     atom    4 type  1   force =     0.00179772   -0.00012413    0.00000000
     atom    5 type  1   force =    -0.00009140    0.00000017    0.00000000
     atom    6 type  1   force =     0.00003945   -0.00000325    0.00000000
     atom    7 type  1   force =    -0.00001346   -0.00000915    0.00000000
     atom    8 type  1   force =     0.00004711    0.00001138    0.00000000
     atom    9 type  1   force =    -0.00002807    0.00000096    0.00000000
     atom   10 type  1   force =     0.00002615   -0.00001726    0.00000000
     atom   11 type  1   force =    -0.00008513   -0.00000114    0.00000000
     atom   12 type  1   force =     0.00003991   -0.00000678    0.00000000
     atom   13 type  1   force =    -0.00005923   -0.00047389    0.00000000
     atom   14 type  1   force =     0.00176242    0.00011675    0.00000000
     atom   15 type  1   force =     0.00803097   -0.00222038    0.00000000
     atom   16 type  1   force =    -0.00032581   -0.00132678    0.00000000
     atom   17 type  1   force =     0.00846888    0.00251056    0.00000000
     atom   18 type  1   force =    -0.00032221    0.00134377    0.00000000
     atom   19 type  1   force =    -0.00008130   -0.00028424    0.00000000
     atom   20 type  1   force =     0.00016316    0.00007253    0.00000000
     atom   21 type  1   force =    -0.00000267    0.00001181    0.00000000
     atom   22 type  1   force =     0.00006513   -0.00002924    0.00000000
     atom   23 type  1   force =    -0.00004639   -0.00000718    0.00000000
     atom   24 type  1   force =     0.00000296   -0.00000421    0.00000000
     atom   25 type  1   force =     0.00000163   -0.00001068    0.00000000
     atom   26 type  1   force =     0.00004721    0.00003264    0.00000000
     atom   27 type  1   force =    -0.00006980    0.00027658    0.00000000
     atom   28 type  1   force =     0.00016731   -0.00007144    0.00000000
     atom   29 type  1   force =    -0.00026239    0.00016631    0.00000000
     atom   30 type  1   force =    -0.00006439   -0.00005521    0.00000000
     atom   31 type  1   force =     0.00076360   -0.00000844    0.00000000
     atom   32 type  1   force =     0.00004052    0.00000943    0.00000000
     atom   33 type  1   force =    -0.00027406   -0.00017268    0.00000000
     atom   34 type  1   force =    -0.00007247    0.00006569    0.00000000
     atom   35 type  1   force =    -0.00013281   -0.00007881    0.00000000
     atom   36 type  1   force =     0.00002014    0.00008537    0.00000000
     atom   37 type  1   force =    -0.00003644   -0.00002444    0.00000000
     atom   38 type  1   force =     0.00002969    0.00001604    0.00000000
     atom   39 type  1   force =    -0.00001392    0.00001690    0.00000000
     atom   40 type  1   force =     0.00003553   -0.00001156    0.00000000
     atom   41 type  1   force =    -0.00012695    0.00007419    0.00000000
     atom   42 type  1   force =     0.00000754   -0.00006628    0.00000000
     atom   43 type  1   force =     0.00002810    0.00002452    0.00000000
     atom   44 type  1   force =     0.00001675   -0.00001512    0.00000000
     atom   45 type  1   force =     0.00002467    0.00008266    0.00000000
     atom   46 type  1   force =    -0.00000180   -0.00007893    0.00000000
     atom   47 type  1   force =     0.00002772   -0.00005209    0.00000000
     atom   48 type  1   force =    -0.00000861    0.00005246    0.00000000
     atom   49 type  1   force =     0.00002428    0.00001301    0.00000000
     atom   50 type  1   force =     0.00002615   -0.00000625    0.00000000
     atom   51 type  1   force =    -0.00006105    0.00000696    0.00000000
     atom   52 type  1   force =    -0.00000862   -0.00001178    0.00000000
     atom   53 type  1   force =    -0.00004714    0.00002055    0.00000000
     atom   54 type  1   force =     0.00001273   -0.00001493    0.00000000
     atom   55 type  1   force =    -0.00003956    0.00002479    0.00000000
     atom   56 type  1   force =     0.00000354   -0.00002206    0.00000000
     atom   57 type  1   force =     0.00000225    0.00001541    0.00000000
     atom   58 type  1   force =     0.00001401   -0.00001773    0.00000000
     atom   59 type  1   force =    -0.00001493    0.00000334    0.00000000
     atom   60 type  1   force =    -0.00000002   -0.00000439    0.00000000
     atom   61 type  1   force =     0.00004534   -0.00000687    0.00000000
     atom   62 type  1   force =     0.00000852    0.00000181    0.00000000
     atom   63 type  1   force =    -0.00001503   -0.00000970    0.00000000
     atom   64 type  1   force =     0.00000833    0.00001519    0.00000000
     atom   65 type  1   force =    -0.00001903   -0.00002583    0.00000000
     atom   66 type  1   force =     0.00000242    0.00002304    0.00000000
     atom   67 type  1   force =    -0.00000491    0.00001212    0.00000000
     atom   68 type  1   force =    -0.00000969   -0.00001193    0.00000000
     atom   69 type  1   force =    -0.00000877   -0.00001275    0.00000000
     atom   70 type  1   force =    -0.00000660    0.00002052    0.00000000
     atom   71 type  1   force =     0.00000960    0.00001992    0.00000000
     atom   72 type  1   force =    -0.00006606   -0.00006494    0.00000000
     atom   73 type  1   force =    -0.00000361   -0.00000340    0.00000000
     atom   74 type  1   force =     0.00000716    0.00000806    0.00000000
     atom   75 type  1   force =     0.00000232    0.00001517    0.00000000
     atom   76 type  1   force =     0.00003512   -0.00001823    0.00000000
     atom   77 type  1   force =     0.00000638   -0.00001542    0.00000000
     atom   78 type  1   force =     0.00004781    0.00001832    0.00000000
     atom   79 type  1   force =    -0.00001421   -0.00000493    0.00000000
     atom   80 type  1   force =    -0.00000278   -0.00001193    0.00000000
     atom   81 type  1   force =     0.00001089   -0.00001486    0.00000000
     atom   82 type  1   force =    -0.00007065    0.00006381    0.00000000
     atom   83 type  1   force =     0.00000502    0.00000343    0.00000000
     atom   84 type  1   force =     0.00004166    0.00000497    0.00000000
     atom   85 type  1   force =     0.00021511   -0.00011088    0.00000000
     atom   86 type  1   force =    -0.00032865   -0.00109550    0.00000000
     atom   87 type  1   force =     0.00002425    0.00006866    0.00000000
     atom   88 type  1   force =     0.00016854   -0.00007125    0.00000000
     atom   89 type  1   force =    -0.00002034    0.00003690    0.00000000
     atom   90 type  1   force =     0.00004812   -0.00005030    0.00000000
     atom   91 type  1   force =    -0.00002067   -0.00000189    0.00000000
     atom   92 type  1   force =     0.00002435    0.00000079    0.00000000
     atom   93 type  1   force =    -0.00003484   -0.00004235    0.00000000
     atom   94 type  1   force =     0.00004436    0.00004300    0.00000000
     atom   95 type  1   force =     0.00003183   -0.00006689    0.00000000
     atom   96 type  1   force =     0.00016317    0.00007321    0.00000000
     atom   97 type  1   force =     0.00022115    0.00011262    0.00000000
     atom   98 type  1   force =    -0.00031966    0.00109370    0.00000000

     Total force =     0.027280     Total SCF correction =     0.000000

     Writing all to output data dir ./scratch_runs/atom02_x_plus/c_sup.save/ :
     XML data file, charge density, pseudopotentials, collected wavefunctions
 
     init_run     :    202.35s CPU    208.11s WALL (       1 calls)
     electrons    :   4481.39s CPU   4620.87s WALL (       1 calls)
     forces       :     29.36s CPU     30.28s WALL (       1 calls)

     Called by init_run:
     wfcinit      :    200.54s CPU    205.93s WALL (       1 calls)
     potinit      :      0.19s CPU      0.20s WALL (       1 calls)
     hinit0       :      0.15s CPU      0.17s WALL (       1 calls)

     Called by electrons:
     c_bands      :   3805.31s CPU   3926.52s WALL (      25 calls)
     sum_band     :    664.43s CPU    675.77s WALL (      25 calls)
     v_of_rho     :      1.34s CPU      1.35s WALL (      26 calls)
     newd         :      6.44s CPU     13.53s WALL (      26 calls)
     PAW_pot      :      1.68s CPU      1.68s WALL (      26 calls)
     mix_rho      :      2.33s CPU      2.38s WALL (      25 calls)

     Called by c_bands:
     init_us_2    :     87.63s CPU     87.83s WALL (     520 calls)
     cegterg      :   3681.03s CPU   3802.15s WALL (     253 calls)

     Called by *egterg:
     cdiaghg      :     62.45s CPU     64.06s WALL (    1078 calls)
     h_psi        :   2548.45s CPU   2584.51s WALL (    1088 calls)
     s_psi        :    401.94s CPU    402.34s WALL (    1088 calls)
     g_psi        :      8.36s CPU      8.36s WALL (     825 calls)

     Called by h_psi:
     h_psi:calbec :    365.81s CPU    366.10s WALL (    1088 calls)
     vloc_psi     :   1768.86s CPU   1781.34s WALL (    1088 calls)
     add_vuspsi   :    402.91s CPU    403.22s WALL (    1088 calls)

     General routines
     calbec       :    527.90s CPU    528.31s WALL (    1378 calls)
     fft          :      1.18s CPU      1.22s WALL (     108 calls)
     ffts         :      0.24s CPU      0.25s WALL (      25 calls)
     fftw         :   1500.70s CPU   1516.50s WALL (  354984 calls)
 
     Parallel routines
 
     PWSCF        :      1h18m CPU      1h21m WALL

 
   This run was terminated on:  23:42:44  13May2026            

=------------------------------------------------------------------------------=
   JOB DONE.
=------------------------------------------------------------------------------=

===== TIMING =====
Job:           atom02_x_plus
Start:         2026-05-13T22:21:32+02:00
End:           2026-05-13T23:42:44+02:00
Duration (s):  4872
Duration (H:M:S): 01:21:12
==================
