
     Program PWSCF v.7.4 starts on 13May2026 at 19: 2:15 

     This program is part of the open-source Quantum ESPRESSO suite
     for quantum simulation of materials; please cite
         "P. Giannozzi et al., J. Phys.:Condens. Matter 21 395502 (2009);
         "P. Giannozzi et al., J. Phys.:Condens. Matter 29 465901 (2017);
         "P. Giannozzi et al., J. Chem. Phys. 152 154105 (2020);
          URL http://www.quantum-espresso.org", 
     in publications or presentations arising from this work. More details at
     http://www.quantum-espresso.org/quote

     Parallel version (MPI), running on    12 processors

     MPI processes distributed on     1 nodes
     175472 MiB available memory on the printing compute node when the environment starts
 
     Reading input from ./scratch_runs/atom01_y_plus/atom01_y_plus.in

     Current dimensions of program PWSCF are:
     Max number of different atomic species (ntypx) = 10
     Max number of k-points (npk) =  40000
     Max angular momentum in pseudopotentials (lmaxx) =  4
read_pp_mesh; mismatch in mesh size, discarding the one in header
     Message from routine setup:
     using ibrav=0 with symmetry is DISCOURAGED, use correct ibrav instead
 
     R & G space division:  proc/nbgrp/npool/nimage =      12
     Subspace diagonalization in iterative solution of the eigenvalue problem:
     one sub-group per band group will be used
     custom distributed-memory algorithm (size of sub-group:  2*  2 procs)

 
     Parallelization info
     --------------------
     sticks:   dense  smooth     PW     G-vecs:    dense   smooth      PW
     Min        2442    2442    624               348776   348776   45074
     Max        2443    2443    625               348781   348781   45075
     Sum       29305   29305   7495              4185323  4185323  540895
 
     Using Slab Decomposition
 


     bravais-lattice index     =            0
     lattice parameter (alat)  =      32.6115  a.u.
     unit-cell volume          =   30980.7320 (a.u.)^3
     number of atoms/cell      =           98
     number of atomic types    =            1
     number of electrons       =       392.00
     number of Kohn-Sham states=          235
     kinetic-energy cutoff     =     100.0000  Ry
     charge density cutoff     =     400.0000  Ry
     scf convergence threshold =      1.0E-16
     mixing beta               =       0.7000
     number of iterations used =            8  plain     mixing
     Exchange-correlation= SLA PW NOGX NOGC
                           (   1   4   0   0   0   0   0)

     celldm(1)=  32.611523  celldm(2)=   0.000000  celldm(3)=   0.000000
     celldm(4)=   0.000000  celldm(5)=   0.000000  celldm(6)=   0.000000

     crystal axes: (cart. coord. in units of alat)
               a(1) = (   1.000000   0.000000   0.000000 )  
               a(2) = (  -0.500000   0.866025   0.000000 )  
               a(3) = (   0.000000   0.000000   1.031449 )  

     reciprocal axes: (cart. coord. in units 2 pi/alat)
               b(1) = (  1.000000  0.577350  0.000000 )  
               b(2) = (  0.000000  1.154701  0.000000 )  
               b(3) = (  0.000000  0.000000  0.969510 )  


     PseudoPot. # 1 for C  read from file:
     ./C.upf
     MD5 check sum: 1b594deb0bcc8b4bffb8cfaf75c62b92
     Pseudo is Projector augmented-wave + core cor, Zval =  4.0
     Generated using ATOMPAW code
     Shape of augmentation charge: SINC**2
     Using radial grid of 2342 points,  4 beta functions with: 
                l(1) =   0
                l(2) =   0
                l(3) =   1
                l(4) =   1
     Q(r) pseudized with 0 coefficients 


     atomic species   valence    mass     pseudopotential
     C                 4.00    12.01070     C ( 1.00)

      4 Sym. Ops. (no inversion) found



   Cartesian axes

     site n.     atom                  positions (alat units)
         1        C      tau(   1) = (   0.0000000   0.0005795   0.5157245  )
         2        C      tau(   2) = (   0.0000000   0.0824785   0.5157245  )
         3        C      tau(   3) = (   0.1428570   0.0000000   0.5157245  )
         4        C      tau(   4) = (   0.1428570   0.0824785   0.5157245  )
         5        C      tau(   5) = (   0.2857140   0.0000000   0.5157245  )
         6        C      tau(   6) = (   0.2857140   0.0824785   0.5157245  )
         7        C      tau(   7) = (   0.4285710   0.0000000   0.5157245  )
         8        C      tau(   8) = (   0.4285710   0.0824785   0.5157245  )
         9        C      tau(   9) = (   0.5714290   0.0000000   0.5157245  )
        10        C      tau(  10) = (   0.5714290   0.0824785   0.5157245  )
        11        C      tau(  11) = (   0.7142860   0.0000000   0.5157245  )
        12        C      tau(  12) = (   0.7142860   0.0824785   0.5157245  )
        13        C      tau(  13) = (   0.8571430   0.0000000   0.5157245  )
        14        C      tau(  14) = (   0.8571430   0.0824785   0.5157245  )
        15        C      tau(  15) = (  -0.0714285   0.1237178   0.5157245  )
        16        C      tau(  16) = (  -0.0714285   0.2061963   0.5157245  )
        17        C      tau(  17) = (   0.0714285   0.1237178   0.5157245  )
        18        C      tau(  18) = (   0.0714285   0.2061963   0.5157245  )
        19        C      tau(  19) = (   0.2142855   0.1237178   0.5157245  )
        20        C      tau(  20) = (   0.2142855   0.2061963   0.5157245  )
        21        C      tau(  21) = (   0.3571425   0.1237178   0.5157245  )
        22        C      tau(  22) = (   0.3571425   0.2061963   0.5157245  )
        23        C      tau(  23) = (   0.5000005   0.1237178   0.5157245  )
        24        C      tau(  24) = (   0.5000005   0.2061963   0.5157245  )
        25        C      tau(  25) = (   0.6428575   0.1237178   0.5157245  )
        26        C      tau(  26) = (   0.6428575   0.2061963   0.5157245  )
        27        C      tau(  27) = (   0.7857145   0.1237178   0.5157245  )
        28        C      tau(  28) = (   0.7857145   0.2061963   0.5157245  )
        29        C      tau(  29) = (  -0.1428570   0.2474356   0.5157245  )
        30        C      tau(  30) = (  -0.1428570   0.3299141   0.5157245  )
        31        C      tau(  31) = (   0.0000000   0.2474356   0.5157245  )
        32        C      tau(  32) = (   0.0000000   0.3299141   0.5157245  )
        33        C      tau(  33) = (   0.1428570   0.2474356   0.5157245  )
        34        C      tau(  34) = (   0.1428570   0.3299141   0.5157245  )
        35        C      tau(  35) = (   0.2857140   0.2474356   0.5157245  )
        36        C      tau(  36) = (   0.2857140   0.3299141   0.5157245  )
        37        C      tau(  37) = (   0.4285720   0.2474356   0.5157245  )
        38        C      tau(  38) = (   0.4285720   0.3299141   0.5157245  )
        39        C      tau(  39) = (   0.5714290   0.2474356   0.5157245  )
        40        C      tau(  40) = (   0.5714290   0.3299141   0.5157245  )
        41        C      tau(  41) = (   0.7142860   0.2474356   0.5157245  )
        42        C      tau(  42) = (   0.7142860   0.3299141   0.5157245  )
        43        C      tau(  43) = (  -0.2142855   0.3711534   0.5157245  )
        44        C      tau(  44) = (  -0.2142860   0.4536327   0.5157245  )
        45        C      tau(  45) = (  -0.0714285   0.3711534   0.5157245  )
        46        C      tau(  46) = (  -0.0714290   0.4536327   0.5157245  )
        47        C      tau(  47) = (   0.0714285   0.3711534   0.5157245  )
        48        C      tau(  48) = (   0.0714280   0.4536327   0.5157245  )
        49        C      tau(  49) = (   0.2142855   0.3711534   0.5157245  )
        50        C      tau(  50) = (   0.2142850   0.4536327   0.5157245  )
        51        C      tau(  51) = (   0.3571435   0.3711534   0.5157245  )
        52        C      tau(  52) = (   0.3571430   0.4536327   0.5157245  )
        53        C      tau(  53) = (   0.5000005   0.3711534   0.5157245  )
        54        C      tau(  54) = (   0.5000000   0.4536327   0.5157245  )
        55        C      tau(  55) = (   0.6428575   0.3711534   0.5157245  )
        56        C      tau(  56) = (   0.6428570   0.4536327   0.5157245  )
        57        C      tau(  57) = (  -0.2857145   0.4948720   0.5157245  )
        58        C      tau(  58) = (  -0.2857145   0.5773505   0.5157245  )
        59        C      tau(  59) = (  -0.1428575   0.4948720   0.5157245  )
        60        C      tau(  60) = (  -0.1428575   0.5773505   0.5157245  )
        61        C      tau(  61) = (  -0.0000005   0.4948720   0.5157245  )
        62        C      tau(  62) = (  -0.0000005   0.5773505   0.5157245  )
        63        C      tau(  63) = (   0.1428565   0.4948720   0.5157245  )
        64        C      tau(  64) = (   0.1428565   0.5773505   0.5157245  )
        65        C      tau(  65) = (   0.2857145   0.4948720   0.5157245  )
        66        C      tau(  66) = (   0.2857145   0.5773505   0.5157245  )
        67        C      tau(  67) = (   0.4285715   0.4948720   0.5157245  )
        68        C      tau(  68) = (   0.4285715   0.5773505   0.5157245  )
        69        C      tau(  69) = (   0.5714285   0.4948720   0.5157245  )
        70        C      tau(  70) = (   0.5714285   0.5773505   0.5157245  )
        71        C      tau(  71) = (  -0.3571430   0.6185898   0.5157245  )
        72        C      tau(  72) = (  -0.3571430   0.7010683   0.5157245  )
        73        C      tau(  73) = (  -0.2142860   0.6185898   0.5157245  )
        74        C      tau(  74) = (  -0.2142860   0.7010683   0.5157245  )
        75        C      tau(  75) = (  -0.0714290   0.6185898   0.5157245  )
        76        C      tau(  76) = (  -0.0714290   0.7010683   0.5157245  )
        77        C      tau(  77) = (   0.0714280   0.6185898   0.5157245  )
        78        C      tau(  78) = (   0.0714280   0.7010683   0.5157245  )
        79        C      tau(  79) = (   0.2142860   0.6185898   0.5157245  )
        80        C      tau(  80) = (   0.2142860   0.7010683   0.5157245  )
        81        C      tau(  81) = (   0.3571430   0.6185898   0.5157245  )
        82        C      tau(  82) = (   0.3571430   0.7010683   0.5157245  )
        83        C      tau(  83) = (   0.5000000   0.6185898   0.5157245  )
        84        C      tau(  84) = (   0.5000000   0.7010683   0.5157245  )
        85        C      tau(  85) = (  -0.4285715   0.7423076   0.5157245  )
        86        C      tau(  86) = (  -0.4285715   0.8247861   0.5157245  )
        87        C      tau(  87) = (  -0.2857145   0.7423076   0.5157245  )
        88        C      tau(  88) = (  -0.2857145   0.8247861   0.5157245  )
        89        C      tau(  89) = (  -0.1428575   0.7423076   0.5157245  )
        90        C      tau(  90) = (  -0.1428575   0.8247861   0.5157245  )
        91        C      tau(  91) = (  -0.0000005   0.7423076   0.5157245  )
        92        C      tau(  92) = (  -0.0000005   0.8247861   0.5157245  )
        93        C      tau(  93) = (   0.1428575   0.7423076   0.5157245  )
        94        C      tau(  94) = (   0.1428575   0.8247861   0.5157245  )
        95        C      tau(  95) = (   0.2857145   0.7423076   0.5157245  )
        96        C      tau(  96) = (   0.2857145   0.8247861   0.5157245  )
        97        C      tau(  97) = (   0.4285715   0.7423076   0.5157245  )
        98        C      tau(  98) = (   0.4285715   0.8247861   0.5157245  )

     number of k points=     7  Marzari-Vanderbilt smearing, width (Ry)=  0.0200
                       cart. coord. in units 2pi/alat
        k(    1) = (   0.0000000   0.0000000   0.0000000), wk =   0.1250000
        k(    2) = (   0.0000000   0.2886751   0.0000000), wk =   0.2500000
        k(    3) = (   0.0000000  -0.5773503   0.0000000), wk =   0.1250000
        k(    4) = (   0.2500000   0.4330127   0.0000000), wk =   0.5000000
        k(    5) = (  -0.2500000   0.1443376   0.0000000), wk =   0.5000000
        k(    6) = (   0.5000000  -0.2886751   0.0000000), wk =   0.2500000
        k(    7) = (   0.5000000   0.0000000   0.0000000), wk =   0.2500000

     Dense  grid:  4185323 G-vectors     FFT dimensions: ( 216, 216, 216)

     Estimated max dynamical RAM per process >       3.67 GB

     Estimated total dynamical RAM >      44.07 GB
 ----2D----2D----2D----2D----2D----2D----2D----2D----2D----2D----2D----2D
  The code is running with the 2D cutoff
  Please refer to:
  Sohier, T., Calandra, M., & Mauri, F. (2017), 
  Density functional perturbation theory for gated two-dimensional heterostructu
 res:
  Theoretical developments and application to flexural phonons in graphene.
  Physical Review B, 96(7), 75448. https://doi.org/10.1103/PhysRevB.96.075448
 ----2D----2D----2D----2D----2D----2D----2D----2D----2D----2D----2D----2D

     Check: negative core charge=   -0.000011

     Initial potential from superposition of free atoms

     starting charge     391.9962, renormalised to     392.0000

     negative rho (up, down):  2.274E-04 0.000E+00
     Starting wfcs are  784 randomized atomic wfcs
     Checking if some PAW data can be deallocated... 

     total cpu time spent up to now is      146.5 secs

     per-process dynamical memory:  2052.6 Mb

     Self-consistent Calculation

     iteration #  1     ecut=   100.00 Ry     beta= 0.70
     Davidson diagonalization with overlap
     ethr =  1.00E-02,  avg # of iterations =  2.0

     negative rho (up, down):  1.253E-03 0.000E+00

     total cpu time spent up to now is      301.7 secs

     total energy              =   -1744.99098377 Ry
     estimated scf accuracy    <       9.60601967 Ry

     iteration #  2     ecut=   100.00 Ry     beta= 0.70
     Davidson diagonalization with overlap
     ethr =  2.45E-03,  avg # of iterations =  2.0

     negative rho (up, down):  1.772E-03 0.000E+00

     total cpu time spent up to now is      441.1 secs

     total energy              =   -1746.37431806 Ry
     estimated scf accuracy    <       0.12066273 Ry

     iteration #  3     ecut=   100.00 Ry     beta= 0.70
     Davidson diagonalization with overlap
     c_bands:  4 eigenvalues not converged
     c_bands:  5 eigenvalues not converged
     c_bands:  4 eigenvalues not converged
     c_bands:  5 eigenvalues not converged
     c_bands:  5 eigenvalues not converged
     ethr =  3.08E-05,  avg # of iterations = 23.9

     negative rho (up, down):  2.143E-03 0.000E+00

     total cpu time spent up to now is      678.4 secs

     total energy              =   -1746.39018348 Ry
     estimated scf accuracy    <       0.00996133 Ry

     iteration #  4     ecut=   100.00 Ry     beta= 0.70
     Davidson diagonalization with overlap
     c_bands:  1 eigenvalues not converged
     ethr =  2.54E-06,  avg # of iterations = 12.7

     negative rho (up, down):  2.194E-03 0.000E+00

     total cpu time spent up to now is      872.1 secs

     total energy              =   -1746.38972319 Ry
     estimated scf accuracy    <       0.02166543 Ry

     iteration #  5     ecut=   100.00 Ry     beta= 0.70
     Davidson diagonalization with overlap
     ethr =  2.54E-06,  avg # of iterations =  7.7

     negative rho (up, down):  2.212E-03 0.000E+00

     total cpu time spent up to now is     1021.5 secs

     total energy              =   -1746.39345707 Ry
     estimated scf accuracy    <       0.00069274 Ry

     iteration #  6     ecut=   100.00 Ry     beta= 0.70
     Davidson diagonalization with overlap
     ethr =  1.77E-07,  avg # of iterations =  2.3

     negative rho (up, down):  2.232E-03 0.000E+00

     total cpu time spent up to now is     1153.3 secs

     total energy              =   -1746.39363441 Ry
     estimated scf accuracy    <       0.00007307 Ry

     iteration #  7     ecut=   100.00 Ry     beta= 0.70
     Davidson diagonalization with overlap
     ethr =  1.86E-08,  avg # of iterations =  2.6

     negative rho (up, down):  2.245E-03 0.000E+00

     total cpu time spent up to now is     1291.9 secs

     total energy              =   -1746.39365099 Ry
     estimated scf accuracy    <       0.00001655 Ry

     iteration #  8     ecut=   100.00 Ry     beta= 0.70
     Davidson diagonalization with overlap
     ethr =  4.22E-09,  avg # of iterations =  2.0

     negative rho (up, down):  2.248E-03 0.000E+00

     total cpu time spent up to now is     1421.5 secs

     total energy              =   -1746.39365361 Ry
     estimated scf accuracy    <       0.00000281 Ry

     iteration #  9     ecut=   100.00 Ry     beta= 0.70
     Davidson diagonalization with overlap
     ethr =  7.16E-10,  avg # of iterations =  2.0

     negative rho (up, down):  2.248E-03 0.000E+00

     total cpu time spent up to now is     1551.0 secs

     total energy              =   -1746.39365396 Ry
     estimated scf accuracy    <       0.00000072 Ry

     iteration # 10     ecut=   100.00 Ry     beta= 0.70
     Davidson diagonalization with overlap
     ethr =  1.83E-10,  avg # of iterations =  2.0

     negative rho (up, down):  2.248E-03 0.000E+00

     total cpu time spent up to now is     1680.4 secs

     total energy              =   -1746.39365409 Ry
     estimated scf accuracy    <       0.00000021 Ry

     iteration # 11     ecut=   100.00 Ry     beta= 0.70
     Davidson diagonalization with overlap
     ethr =  5.37E-11,  avg # of iterations =  2.0

     negative rho (up, down):  2.248E-03 0.000E+00

     total cpu time spent up to now is     1807.4 secs

     total energy              =   -1746.39365413 Ry
     estimated scf accuracy    <       0.00000003 Ry

     iteration # 12     ecut=   100.00 Ry     beta= 0.70
     Davidson diagonalization with overlap
     ethr =  8.45E-12,  avg # of iterations =  3.0

     negative rho (up, down):  2.248E-03 0.000E+00

     total cpu time spent up to now is     1941.1 secs

     total energy              =   -1746.39365414 Ry
     estimated scf accuracy    <          8.3E-09 Ry

     iteration # 13     ecut=   100.00 Ry     beta= 0.70
     Davidson diagonalization with overlap
     ethr =  2.12E-12,  avg # of iterations =  2.0

     negative rho (up, down):  2.248E-03 0.000E+00

     total cpu time spent up to now is     2066.0 secs

     total energy              =   -1746.39365414 Ry
     estimated scf accuracy    <          5.2E-10 Ry

     iteration # 14     ecut=   100.00 Ry     beta= 0.70
     Davidson diagonalization with overlap
     ethr =  1.34E-13,  avg # of iterations =  4.0

     negative rho (up, down):  2.248E-03 0.000E+00

     total cpu time spent up to now is     2212.4 secs

     total energy              =   -1746.39365414 Ry
     estimated scf accuracy    <          1.0E-10 Ry

     iteration # 15     ecut=   100.00 Ry     beta= 0.70
     Davidson diagonalization with overlap
     ethr =  1.00E-13,  avg # of iterations =  1.1

     negative rho (up, down):  2.248E-03 0.000E+00

     total cpu time spent up to now is     2319.1 secs

     total energy              =   -1746.39365414 Ry
     estimated scf accuracy    <          5.3E-11 Ry

     iteration # 16     ecut=   100.00 Ry     beta= 0.70
     Davidson diagonalization with overlap
     ethr =  1.00E-13,  avg # of iterations =  1.0

     negative rho (up, down):  2.248E-03 0.000E+00

     total cpu time spent up to now is     2424.7 secs

     total energy              =   -1746.39365414 Ry
     estimated scf accuracy    <          8.0E-12 Ry

     iteration # 17     ecut=   100.00 Ry     beta= 0.70
     Davidson diagonalization with overlap
     ethr =  1.00E-13,  avg # of iterations =  1.0

     negative rho (up, down):  2.248E-03 0.000E+00

     total cpu time spent up to now is     2530.2 secs

     total energy              =   -1746.39365414 Ry
     estimated scf accuracy    <          2.6E-12 Ry

     iteration # 18     ecut=   100.00 Ry     beta= 0.70
     Davidson diagonalization with overlap
     ethr =  1.00E-13,  avg # of iterations =  1.0

     negative rho (up, down):  2.248E-03 0.000E+00

     total cpu time spent up to now is     2635.8 secs

     total energy              =   -1746.39365414 Ry
     estimated scf accuracy    <          6.7E-13 Ry

     iteration # 19     ecut=   100.00 Ry     beta= 0.70
     Davidson diagonalization with overlap
     ethr =  1.00E-13,  avg # of iterations =  1.0

     negative rho (up, down):  2.248E-03 0.000E+00

     total cpu time spent up to now is     2741.2 secs

     total energy              =   -1746.39365414 Ry
     estimated scf accuracy    <          6.1E-14 Ry

     iteration # 20     ecut=   100.00 Ry     beta= 0.70
     Davidson diagonalization with overlap
     ethr =  1.00E-13,  avg # of iterations =  1.0

     negative rho (up, down):  2.248E-03 0.000E+00

     total cpu time spent up to now is     2847.2 secs

     total energy              =   -1746.39365414 Ry
     estimated scf accuracy    <          2.0E-14 Ry

     iteration # 21     ecut=   100.00 Ry     beta= 0.70
     Davidson diagonalization with overlap
     ethr =  1.00E-13,  avg # of iterations =  1.0

     negative rho (up, down):  2.248E-03 0.000E+00

     total cpu time spent up to now is     2952.8 secs

     total energy              =   -1746.39365414 Ry
     estimated scf accuracy    <          5.5E-15 Ry

     iteration # 22     ecut=   100.00 Ry     beta= 0.70
     Davidson diagonalization with overlap
     ethr =  1.00E-13,  avg # of iterations =  1.0

     negative rho (up, down):  2.248E-03 0.000E+00

     total cpu time spent up to now is     3058.4 secs

     total energy              =   -1746.39365414 Ry
     estimated scf accuracy    <          2.2E-15 Ry

     iteration # 23     ecut=   100.00 Ry     beta= 0.70
     Davidson diagonalization with overlap
     ethr =  1.00E-13,  avg # of iterations =  1.0

     negative rho (up, down):  2.248E-03 0.000E+00

     total cpu time spent up to now is     3164.0 secs

     total energy              =   -1746.39365414 Ry
     estimated scf accuracy    <          2.5E-16 Ry

     iteration # 24     ecut=   100.00 Ry     beta= 0.70
     Davidson diagonalization with overlap
     ethr =  1.00E-13,  avg # of iterations =  1.0

     negative rho (up, down):  2.248E-03 0.000E+00

     total cpu time spent up to now is     3269.5 secs

     End of self-consistent calculation

          k = 0.0000 0.0000 0.0000 (523289 PWs)   bands (ev):

   -23.8598 -23.3836 -23.3813 -23.3812 -23.3810 -23.3808 -23.3792 -22.4360
   -22.4324 -22.4324 -22.4324 -22.4319 -22.4292 -21.9659 -21.9622 -21.9621
   -21.9618 -21.9615 -21.9586 -20.5855 -20.5773 -20.5768 -20.5768 -20.5768
   -20.5767 -20.5767 -20.5766 -20.5765 -20.5764 -20.5746 -20.5695 -19.6836
   -19.6795 -19.6791 -19.6788 -19.6776 -19.6757 -18.4032 -18.3986 -18.3982
   -18.3982 -18.3964 -18.3953 -18.2943 -18.2900 -18.2900 -18.2898 -18.2876
   -18.2875 -17.4025 -17.3994 -17.3989 -17.3988 -17.3981 -17.3953 -16.4478
   -16.4446 -16.4437 -16.4434 -16.4413 -16.4406 -15.8880 -15.8833 -15.8832
   -15.8831 -15.8813 -15.8802 -14.5203 -14.5126 -14.5110 -14.5109 -14.5109
   -14.5109 -14.5108 -14.5107 -14.5107 -14.5107 -14.5070 -14.5042 -14.4315
   -14.4313 -14.4299 -14.4298 -14.4282 -14.4276 -12.8410 -12.8370 -12.8360
   -12.8358 -12.8343 -12.8315 -12.3502 -12.3477 -12.3469 -12.3468 -12.3459
   -12.3438 -12.1913 -11.8441 -11.8387 -11.8364 -11.8363 -11.8363 -11.8362
   -11.8362 -11.8361 -11.8361 -11.8359 -11.8336 -11.8286 -11.6192 -11.6173
   -11.6172 -11.6171 -11.6169 -11.6156 -11.3644 -11.3592 -11.3587 -11.3585
   -11.3579 -11.3529 -10.8519 -10.8482 -10.8479 -10.8479 -10.8477 -10.8438
   -10.4954 -10.4924 -10.4924 -10.4923 -10.4919 -10.4898 -10.2360 -10.2320
   -10.2305 -10.2304 -10.2289 -10.2249  -9.9528  -9.9497  -9.9496  -9.9494
    -9.9492  -9.9486  -9.9467  -9.9440  -9.9431  -9.9430  -9.9424  -9.9373
    -9.3184  -9.3121  -9.3114  -9.3114  -9.3106  -9.3040  -8.4850  -8.4781
    -8.4774  -8.4773  -8.4768  -8.4694  -8.3899  -8.3824  -8.3822  -8.3822
    -8.3822  -8.3822  -8.3821  -8.3821  -8.3820  -8.3819  -8.3810  -8.3757
    -7.6009  -7.5947  -7.5741  -7.5703  -7.5702  -7.5700  -7.5695  -7.5669
    -6.4730  -6.4690  -6.4690  -6.4688  -6.4682  -6.4657  -6.0648  -6.0606
    -6.0605  -6.0605  -6.0598  -6.0569  -3.0736  -3.0665  -3.0665  -3.0664
    -3.0657  -3.0643  -3.0611  -3.0587  -3.0585  -3.0584  -3.0578  -3.0524
    -2.0804  -2.0758  -2.0756  -2.0755  -2.0749  -2.0712  -1.2548  -0.6021
    -0.6019  -0.6018  -0.6017  -0.6015  -0.6013  -0.6010  -0.5917  -0.5915
    -0.5915  -0.5915  -0.5914  -0.5913  -0.5913  -0.5912  -0.5912  -0.5896
    -0.5833  -0.4998   0.1640

          k = 0.0000 0.2887 0.0000 (523216 PWs)   bands (ev):

   -23.8298 -23.5903 -23.4709 -23.4706 -23.2323 -23.2320 -23.1131 -22.7573
   -22.7570 -22.4042 -22.4027 -22.4015 -22.1675 -22.1672 -22.0507 -22.0504
   -21.6994 -21.6990 -21.4664 -21.1209 -21.1205 -21.0052 -21.0048 -20.6630
   -20.6623 -20.4343 -20.4335 -20.3194 -20.0975 -20.0969 -19.9866 -19.9844
   -19.9823 -19.9813 -19.3300 -19.3287 -19.0243 -19.0004 -18.9999 -18.7087
   -18.7086 -18.5626 -18.5603 -18.3780 -18.3761 -18.2553 -18.2527 -17.7908
   -17.7904 -17.3812 -17.3803 -17.2308 -17.0929 -17.0918 -16.9429 -16.9403
   -16.8313 -16.8313 -16.3794 -16.3761 -16.1329 -16.1327 -16.0047 -16.0042
   -15.5878 -15.4923 -15.4897 -15.3600 -15.3577 -15.0205 -15.0197 -14.8500
   -14.8480 -14.7308 -14.7299 -14.1554 -14.1543 -14.1400 -14.1384 -14.0541
   -14.0531 -13.9146 -13.9144 -13.7712 -13.6631 -13.6602 -13.2969 -13.2949
   -12.9658 -12.9645 -12.5457 -12.5446 -12.3664 -12.3643 -12.3146 -12.3131
   -12.2505 -12.2485 -12.1552 -12.0599 -12.0584 -12.0570 -12.0533 -11.9041
   -11.8675 -11.7867 -11.7849 -11.7245 -11.7241 -11.5447 -11.5438 -11.5300
   -11.5267 -11.4395 -11.4392 -11.4214 -11.4192 -11.2976 -11.1804 -11.1782
   -11.0010 -10.9986 -10.9357 -10.8825 -10.8800 -10.8753 -10.8751 -10.7538
   -10.7508 -10.7434 -10.7408 -10.6992 -10.4605 -10.4580 -10.4580 -10.2424
   -10.1973 -10.1942 -10.1863 -10.1858 -10.1306 -10.1270 -10.1157 -10.0458
   -10.0458  -9.8739  -9.8707  -9.7321  -9.7282  -9.6792  -9.6761  -9.6487
    -9.6482  -9.6014  -9.3864  -8.9934  -8.9890  -8.9818  -8.9815  -8.8614
    -8.8610  -8.8511  -8.7448  -8.7403  -8.6181  -8.4659  -8.4648  -8.3739
    -8.3690  -8.2474  -8.2462  -8.1625  -8.1301  -7.8533  -7.8528  -7.8342
    -7.8330  -7.7611  -7.7601  -7.7223  -7.6606  -7.2854  -7.2838  -7.0973
    -6.7138  -6.7119  -6.6771  -6.6769  -6.6722  -6.6697  -6.2818  -6.2796
    -6.0844  -6.0822  -5.4823  -5.4810  -3.6508  -3.6481  -3.1118  -3.1101
    -3.0800  -3.0779  -2.9255  -2.9237  -2.8228  -2.8185  -2.6882  -2.4405
    -2.4390  -2.4216  -2.4199  -1.6913  -1.6900  -1.4494  -1.4465  -1.2577
    -1.2140  -1.1952  -1.1946  -0.9138  -0.9124  -0.8875  -0.7242  -0.7241
    -0.4583  -0.3976  -0.3976  -0.3704  -0.3689  -0.2345  -0.1261  -0.0021
    -0.0019   0.0399   0.0399

          k = 0.0000-0.5774 0.0000 (523138 PWs)   bands (ev):

   -23.7405 -23.7394 -23.5007 -23.5005 -23.0261 -23.0240 -23.0237 -23.0222
   -22.7881 -22.7853 -22.3155 -22.3145 -22.3140 -22.3136 -21.6160 -21.6128
   -21.6124 -21.6100 -21.3824 -21.3801 -21.3791 -21.3775 -20.9193 -20.9161
   -20.6917 -20.6911 -20.2374 -20.2358 -20.2342 -20.2342 -19.5730 -19.5701
   -19.5690 -19.5674 -19.3551 -19.3524 -19.3520 -19.3498 -18.9487 -18.9456
   -18.9437 -18.9436 -18.5929 -18.3214 -18.3193 -18.3191 -18.3170 -17.7061
   -17.3813 -17.3806 -17.1569 -17.1565 -17.1542 -17.1533 -16.7594 -16.7549
   -16.6172 -16.6170 -16.6146 -16.6137 -16.1846 -16.1799 -16.1798 -16.1797
   -15.5282 -15.5274 -15.5242 -15.5237 -15.1686 -15.1659 -15.1649 -15.1632
   -14.8242 -14.8233 -14.6932 -14.6911 -13.8333 -13.8324 -13.7360 -13.7348
   -13.7324 -13.7297 -13.5945 -13.5930 -13.5919 -13.5913 -13.2591 -13.2585
   -13.2571 -13.2567 -12.8370 -12.8313 -12.8311 -12.8306 -12.4585 -12.4567
   -12.2201 -12.2197 -12.2186 -12.2154 -12.0475 -12.0467 -11.9138 -11.9130
   -11.9109 -11.9069 -11.7602 -11.7599 -11.3259 -11.3224 -11.3220 -11.3213
   -11.1933 -11.1916 -11.1913 -11.1901 -11.1845 -11.1834 -11.1818 -11.1773
   -11.0873 -11.0834 -11.0830 -11.0819 -10.9913 -10.9875 -10.9655 -10.9120
   -10.9097 -10.6222 -10.6175 -10.6167 -10.6163 -10.4988 -10.4947 -10.3571
   -10.3559 -10.3555 -10.3554 -10.2175 -10.2142 -10.2132 -10.2084  -9.9618
    -9.9563  -9.9554  -9.9545  -9.5427  -9.5402  -9.5399  -9.5373  -9.2869
    -9.2847  -9.2841  -9.2828  -9.2362  -9.2307  -9.1630  -9.1582  -9.1570
    -9.1540  -8.8610  -8.8563  -8.7848  -8.7818  -8.4938  -8.4926  -8.3621
    -8.3570  -8.0757  -8.0702  -8.0640  -8.0617  -8.0611  -8.0609  -7.8510
    -7.8445  -7.2837  -7.2810  -7.2806  -7.2783  -7.1620  -7.1607  -7.1603
    -7.1560  -6.9948  -6.9913  -6.9908  -6.9907  -6.9055  -6.1565  -6.1528
    -6.1526  -6.1519  -5.1699  -5.1676  -3.9651  -3.9613  -3.1074  -3.1073
    -3.1064  -3.1027  -2.9268  -2.7107  -2.7102  -2.7100  -2.7064  -2.2298
    -2.2222  -2.2219  -2.2213  -1.8152  -1.8117  -1.8112  -1.8096  -1.2945
    -1.2942  -1.2931  -1.2901  -1.0918  -1.0914  -0.7649  -0.7649  -0.3341
    -0.3337  -0.3330  -0.3292  -0.2913  -0.2898  -0.1120  -0.1118  -0.1117
    -0.1115  -0.0016  -0.0016

          k = 0.2500 0.4330 0.0000 (523262 PWs)   bands (ev):

   -23.7699 -23.6504 -23.6499 -23.2923 -23.2912 -23.0537 -22.9352 -22.9347
   -22.6986 -22.6972 -22.5802 -22.5791 -21.9925 -21.9911 -21.8754 -21.8737
   -21.6420 -21.5255 -21.5250 -21.1809 -21.1783 -21.1768 -21.1752 -20.8330
   -20.8314 -20.6039 -20.6025 -20.1545 -20.1529 -19.8180 -19.8162 -19.5994
   -19.5968 -19.5956 -19.4879 -19.4873 -19.1688 -19.1676 -18.9494 -18.9479
   -18.8492 -18.8475 -18.7163 -18.7146 -18.5180 -17.9114 -17.7987 -17.7969
   -17.6256 -17.5345 -17.5320 -17.2349 -17.0524 -16.7375 -16.7348 -16.7056
   -16.6923 -16.6904 -16.4289 -16.4269 -16.3757 -16.3745 -15.9056 -15.9039
   -15.8795 -15.8773 -15.6527 -15.6507 -15.1302 -15.1278 -15.0780 -14.9236
   -14.6409 -14.6398 -14.4594 -14.4573 -14.2627 -14.2608 -14.2232 -14.2207
   -13.6317 -13.5061 -13.4726 -13.4712 -13.3061 -13.3030 -13.2526 -13.2502
   -12.9304 -12.9278 -12.8971 -12.8950 -12.8188 -12.8173 -12.7585 -12.7563
   -12.6363 -12.3750 -12.3716 -12.0831 -11.9394 -11.9390 -11.8533 -11.8499
   -11.7246 -11.7224 -11.6026 -11.6002 -11.5108 -11.5099 -11.4490 -11.4454
   -11.3531 -11.3409 -11.2334 -11.2321 -11.2267 -11.0863 -11.0859 -11.0598
   -11.0576 -11.0354 -11.0330 -10.8830 -10.8805 -10.8774 -10.8769 -10.8063
   -10.8052 -10.7058 -10.7031 -10.6675 -10.6666 -10.5620 -10.5585 -10.5314
   -10.5278 -10.4757 -10.4729 -10.3103 -10.3080 -10.0645  -9.9799  -9.9787
    -9.8472  -9.8458  -9.5723  -9.5709  -9.5677  -9.5140  -9.5104  -9.4791
    -9.4751  -9.4441  -9.4435  -9.2014  -9.1317  -9.1279  -9.0642  -9.0632
    -9.0434  -9.0420  -8.7473  -8.7431  -8.6833  -8.6817  -8.4488  -8.4474
    -8.3888  -8.3833  -8.0452  -8.0395  -7.9517  -7.9010  -7.8993  -7.7936
    -7.6306  -7.6287  -7.4679  -7.4664  -7.2974  -7.2334  -7.2323  -7.0752
    -7.0735  -6.9307  -6.9283  -6.7980  -6.6716  -6.6699  -6.6648  -6.6628
    -5.9255  -5.6446  -5.6420  -4.8979  -4.2138  -3.5446  -3.5414  -3.3557
    -2.9477  -2.8705  -2.8669  -2.6700  -2.6669  -2.5262  -2.5238  -2.4829
    -2.4801  -2.1035  -2.1011  -1.9840  -1.9822  -1.7665  -1.7636  -1.7498
    -1.1324  -1.0550  -1.0527  -0.9692  -0.9690  -0.8143  -0.8119  -0.4791
    -0.4790  -0.3847  -0.3826  -0.3752  -0.2093  -0.2090  -0.1524   0.0102
     0.0104   0.1375   0.1395

          k =-0.2500 0.1443 0.0000 (523216 PWs)   bands (ev):

   -23.8298 -23.5903 -23.4715 -23.4700 -23.2329 -23.2314 -23.1131 -22.7580
   -22.7564 -22.4046 -22.4026 -22.4011 -22.1686 -22.1661 -22.0513 -22.0497
   -21.7005 -21.6979 -21.4663 -21.1215 -21.1199 -21.0063 -21.0037 -20.6640
   -20.6614 -20.4353 -20.4327 -20.3193 -20.0984 -20.0959 -19.9864 -19.9843
   -19.9829 -19.9811 -19.3306 -19.3280 -19.0246 -19.0015 -18.9989 -18.7099
   -18.7081 -18.5622 -18.5599 -18.3780 -18.3759 -18.2546 -18.2526 -17.7924
   -17.7896 -17.3830 -17.3806 -17.2291 -17.0951 -17.0920 -16.9408 -16.9390
   -16.8333 -16.8309 -16.3774 -16.3751 -16.1359 -16.1324 -16.0064 -16.0039
   -15.5864 -15.4919 -15.4894 -15.3582 -15.3565 -15.0224 -15.0197 -14.8504
   -14.8481 -14.7321 -14.7310 -14.1544 -14.1525 -14.1409 -14.1385 -14.0568
   -14.0539 -13.9162 -13.9136 -13.7695 -13.6609 -13.6588 -13.2979 -13.2955
   -12.9655 -12.9630 -12.5464 -12.5434 -12.3678 -12.3652 -12.3161 -12.3153
   -12.2483 -12.2465 -12.1552 -12.0622 -12.0605 -12.0546 -12.0514 -11.9019
   -11.8675 -11.7862 -11.7836 -11.7249 -11.7236 -11.5470 -11.5453 -11.5321
   -11.5300 -11.4400 -11.4387 -11.4202 -11.4178 -11.2977 -11.1801 -11.1771
   -11.0001 -10.9976 -10.9377 -10.8814 -10.8789 -10.8759 -10.8746 -10.7537
   -10.7492 -10.7455 -10.7428 -10.7014 -10.4607 -10.4588 -10.4569 -10.2448
   -10.1961 -10.1932 -10.1869 -10.1848 -10.1270 -10.1249 -10.1131 -10.0466
   -10.0453  -9.8723  -9.8693  -9.7330  -9.7287  -9.6807  -9.6765  -9.6494
    -9.6473  -9.6042  -9.3869  -8.9958  -8.9924  -8.9827  -8.9814  -8.8621
    -8.8601  -8.8545  -8.7439  -8.7395  -8.6143  -8.4661  -8.4635  -8.3703
    -8.3665  -8.2475  -8.2450  -8.1635  -8.1340  -7.8541  -7.8520  -7.8342
    -7.8318  -7.7622  -7.7608  -7.7179  -7.6649  -7.2851  -7.2827  -7.0992
    -6.7131  -6.7107  -6.6786  -6.6761  -6.6733  -6.6719  -6.2808  -6.2783
    -6.0834  -6.0807  -5.4841  -5.4816  -3.6490  -3.6467  -3.1146  -3.1109
    -3.0825  -3.0792  -2.9279  -2.9244  -2.8187  -2.8165  -2.6851  -2.4405
    -2.4380  -2.4237  -2.4203  -1.6937  -1.6902  -1.4469  -1.4451  -1.2555
    -1.2140  -1.1962  -1.1934  -0.9163  -0.9128  -0.8875  -0.7242  -0.7240
    -0.4583  -0.3977  -0.3975  -0.3730  -0.3695  -0.2345  -0.1261  -0.0036
    -0.0008   0.0398   0.0399

          k = 0.5000-0.2887 0.0000 (523138 PWs)   bands (ev):

   -23.7402 -23.7397 -23.5014 -23.4998 -23.0259 -23.0239 -23.0238 -23.0223
   -22.7873 -22.7860 -22.3170 -22.3145 -22.3145 -22.3119 -21.6149 -21.6128
   -21.6125 -21.6108 -21.3825 -21.3798 -21.3795 -21.3773 -20.9184 -20.9168
   -20.6927 -20.6902 -20.2383 -20.2353 -20.2352 -20.2330 -19.5727 -19.5699
   -19.5690 -19.5678 -19.3545 -19.3525 -19.3518 -19.3508 -18.9479 -18.9452
   -18.9446 -18.9431 -18.5940 -18.3209 -18.3191 -18.3191 -18.3168 -17.7036
   -17.3841 -17.3807 -17.1590 -17.1557 -17.1552 -17.1543 -16.7557 -16.7533
   -16.6203 -16.6166 -16.6157 -16.6145 -16.1809 -16.1802 -16.1794 -16.1775
   -15.5297 -15.5263 -15.5254 -15.5252 -15.1684 -15.1657 -15.1645 -15.1640
   -14.8253 -14.8249 -14.6911 -14.6901 -13.8367 -13.8337 -13.7368 -13.7337
   -13.7330 -13.7320 -13.5933 -13.5925 -13.5910 -13.5897 -13.2602 -13.2587
   -13.2570 -13.2558 -12.8323 -12.8315 -12.8305 -12.8280 -12.4556 -12.4544
   -12.2217 -12.2201 -12.2197 -12.2195 -12.0473 -12.0469 -11.9162 -11.9126
   -11.9119 -11.9106 -11.7606 -11.7594 -11.3240 -11.3225 -11.3218 -11.3195
   -11.1932 -11.1915 -11.1914 -11.1902 -11.1867 -11.1841 -11.1827 -11.1823
   -11.0850 -11.0833 -11.0828 -11.0798 -10.9880 -10.9860 -10.9673 -10.9116
   -10.9104 -10.6200 -10.6180 -10.6176 -10.6136 -10.5000 -10.4980 -10.3578
   -10.3559 -10.3558 -10.3535 -10.2176 -10.2134 -10.2128 -10.2093  -9.9579
    -9.9564  -9.9550  -9.9509  -9.5422  -9.5402  -9.5400  -9.5387  -9.2869
    -9.2845  -9.2844  -9.2823  -9.2379  -9.2349  -9.1623  -9.1588  -9.1582
    -9.1531  -8.8637  -8.8616  -8.7848  -8.7832  -8.4939  -8.4914  -8.3568
    -8.3541  -8.0705  -8.0673  -8.0638  -8.0614  -8.0614  -8.0587  -7.8533
    -7.8506  -7.2837  -7.2809  -7.2805  -7.2790  -7.1634  -7.1607  -7.1604
    -7.1597  -6.9932  -6.9914  -6.9911  -6.9885  -6.9077  -6.1544  -6.1527
    -6.1526  -6.1492  -5.1722  -5.1694  -3.9620  -3.9596  -3.1119  -3.1072
    -3.1071  -3.1050  -2.9233  -2.7150  -2.7103  -2.7100  -2.7077  -2.2231
    -2.2223  -2.2220  -2.2182  -1.8147  -1.8117  -1.8111  -1.8088  -1.2984
    -1.2938  -1.2937  -1.2915  -1.0917  -1.0915  -0.7650  -0.7648  -0.3339
    -0.3336  -0.3305  -0.3284  -0.2940  -0.2905  -0.1120  -0.1118  -0.1117
    -0.1115  -0.0017  -0.0016

          k = 0.5000 0.0000 0.0000 (523262 PWs)   bands (ev):

   -23.7699 -23.6506 -23.6496 -23.2928 -23.2907 -23.0537 -22.9354 -22.9344
   -22.6994 -22.6966 -22.5807 -22.5786 -21.9933 -21.9904 -21.8762 -21.8730
   -21.6419 -21.5257 -21.5246 -21.1809 -21.1776 -21.1774 -21.1753 -20.8338
   -20.8307 -20.6046 -20.6017 -20.1554 -20.1521 -19.8188 -19.8154 -19.5993
   -19.5970 -19.5953 -19.4881 -19.4870 -19.1694 -19.1672 -18.9501 -18.9471
   -18.8502 -18.8467 -18.7173 -18.7144 -18.5169 -17.9101 -17.7998 -17.7966
   -17.6281 -17.5335 -17.5310 -17.2358 -17.0551 -16.7357 -16.7348 -16.7037
   -16.6924 -16.6891 -16.4284 -16.4261 -16.3776 -16.3754 -15.9077 -15.9049
   -15.8794 -15.8762 -15.6522 -15.6490 -15.1302 -15.1265 -15.0787 -14.9215
   -14.6430 -14.6407 -14.4610 -14.4586 -14.2630 -14.2616 -14.2231 -14.2191
   -13.6301 -13.5084 -13.4715 -13.4689 -13.3068 -13.3036 -13.2519 -13.2479
   -12.9290 -12.9259 -12.8976 -12.8957 -12.8215 -12.8186 -12.7600 -12.7574
   -12.6337 -12.3752 -12.3710 -12.0831 -11.9397 -11.9388 -11.8525 -11.8492
   -11.7258 -11.7233 -11.6034 -11.6010 -11.5111 -11.5094 -11.4486 -11.4440
   -11.3511 -11.3439 -11.2323 -11.2292 -11.2268 -11.0866 -11.0857 -11.0611
   -11.0584 -11.0384 -11.0348 -10.8846 -10.8812 -10.8777 -10.8734 -10.8068
   -10.8045 -10.7069 -10.7040 -10.6679 -10.6663 -10.5608 -10.5561 -10.5320
   -10.5279 -10.4771 -10.4739 -10.3091 -10.3042 -10.0610  -9.9804  -9.9781
    -9.8476  -9.8448  -9.5726  -9.5691  -9.5637  -9.5158  -9.5109  -9.4821
    -9.4775  -9.4446  -9.4437  -9.2052  -9.1341  -9.1296  -9.0648  -9.0631
    -9.0439  -9.0412  -8.7453  -8.7394  -8.6833  -8.6803  -8.4495  -8.4473
    -8.3894  -8.3836  -8.0448  -8.0390  -7.9473  -7.9012  -7.8982  -7.7981
    -7.6313  -7.6287  -7.4674  -7.4642  -7.2982  -7.2343  -7.2331  -7.0762
    -7.0744  -6.9316  -6.9295  -6.7959  -6.6713  -6.6684  -6.6654  -6.6625
    -5.9234  -5.6453  -5.6426  -4.8998  -4.2118  -3.5434  -3.5410  -3.3587
    -2.9511  -2.8680  -2.8660  -2.6688  -2.6667  -2.5287  -2.5251  -2.4810
    -2.4786  -2.1070  -2.1027  -1.9827  -1.9801  -1.7653  -1.7632  -1.7482
    -1.1324  -1.0566  -1.0533  -0.9693  -0.9689  -0.8135  -0.8111  -0.4792
    -0.4789  -0.3874  -0.3834  -0.3752  -0.2094  -0.2089  -0.1524   0.0101
     0.0105   0.1383   0.1407

     the Fermi energy is    -4.6898 ev

!    total energy              =   -1746.39365414 Ry
     total all-electron energy =     -1746.393654 Ry
     estimated scf accuracy    <          8.2E-17 Ry
     smearing contrib. (-TS)   =       0.00260623 Ry
     internal energy E=F+TS    =   -1746.39626037 Ry

     The total energy is F=E-TS. E is the sum of the following terms:
     one-electron contribution =  -15337.95170905 Ry
     hartree contribution      =    7710.45804382 Ry
     xc contribution           =    -435.91804523 Ry
     ewald contribution        =    6878.15494925 Ry
     one-center paw contrib.   =    -561.13949917 Ry

     convergence has been achieved in  24 iterations

     negative rho (up, down):  2.248E-03 0.000E+00

     Forces acting on atoms (cartesian axes, Ry/au):

     atom    1 type  1   force =     0.00000000   -0.02407835    0.00000000
     atom    2 type  1   force =     0.00000000    0.00997761    0.00000000
     atom    3 type  1   force =    -0.00013021   -0.00102807    0.00000000
     atom    4 type  1   force =    -0.00048169    0.00048986    0.00000000
     atom    5 type  1   force =    -0.00000125   -0.00010570    0.00000000
     atom    6 type  1   force =    -0.00000116    0.00006307   -0.00000000
     atom    7 type  1   force =     0.00001761   -0.00000126    0.00000000
     atom    8 type  1   force =     0.00001973   -0.00000947    0.00000000
     atom    9 type  1   force =    -0.00001761   -0.00000126    0.00000000
     atom   10 type  1   force =    -0.00001973   -0.00000947    0.00000000
     atom   11 type  1   force =     0.00000125   -0.00010570    0.00000000
     atom   12 type  1   force =     0.00000116    0.00006307    0.00000000
     atom   13 type  1   force =     0.00013021   -0.00102807    0.00000000
     atom   14 type  1   force =     0.00048169    0.00048986    0.00000000
     atom   15 type  1   force =    -0.00134670    0.00108875   -0.00000000
     atom   16 type  1   force =    -0.00011337   -0.00030248    0.00000000
     atom   17 type  1   force =     0.00134670    0.00108875    0.00000000
     atom   18 type  1   force =     0.00011337   -0.00030248    0.00000000
     atom   19 type  1   force =     0.00006677    0.00008121    0.00000000
     atom   20 type  1   force =    -0.00007249   -0.00004912   -0.00000000
     atom   21 type  1   force =    -0.00003654   -0.00001857    0.00000000
     atom   22 type  1   force =    -0.00002837    0.00002503    0.00000000
     atom   23 type  1   force =     0.00000000   -0.00001587    0.00000000
     atom   24 type  1   force =     0.00000000    0.00000862    0.00000000
     atom   25 type  1   force =     0.00003654   -0.00001857    0.00000000
     atom   26 type  1   force =     0.00002837    0.00002503    0.00000000
     atom   27 type  1   force =    -0.00006677    0.00008121    0.00000000
     atom   28 type  1   force =     0.00007249   -0.00004912    0.00000000
     atom   29 type  1   force =    -0.00005770    0.00000173   -0.00000000
     atom   30 type  1   force =     0.00002161    0.00001870    0.00000000
     atom   31 type  1   force =     0.00000000    0.00020432    0.00000000
     atom   32 type  1   force =     0.00000000   -0.00016974    0.00000000
     atom   33 type  1   force =     0.00005770    0.00000173    0.00000000
     atom   34 type  1   force =    -0.00002161    0.00001870    0.00000000
     atom   35 type  1   force =     0.00007136    0.00002354   -0.00000000
     atom   36 type  1   force =     0.00000839   -0.00001058    0.00000000
     atom   37 type  1   force =     0.00000335    0.00001285    0.00000000
     atom   38 type  1   force =    -0.00001903   -0.00001299    0.00000000
     atom   39 type  1   force =    -0.00000335    0.00001285    0.00000000
     atom   40 type  1   force =     0.00001903   -0.00001299    0.00000000
     atom   41 type  1   force =    -0.00007136    0.00002354    0.00000000
     atom   42 type  1   force =    -0.00000839   -0.00001058    0.00000000
     atom   43 type  1   force =     0.00000053    0.00004095    0.00000000
     atom   44 type  1   force =     0.00001237   -0.00002934   -0.00000000
     atom   45 type  1   force =    -0.00006820    0.00005365   -0.00000000
     atom   46 type  1   force =    -0.00000821   -0.00004652    0.00000000
     atom   47 type  1   force =     0.00006820    0.00005365    0.00000000
     atom   48 type  1   force =     0.00000821   -0.00004652    0.00000000
     atom   49 type  1   force =    -0.00000053    0.00004095    0.00000000
     atom   50 type  1   force =    -0.00001237   -0.00002934    0.00000000
     atom   51 type  1   force =    -0.00000388    0.00001908   -0.00000000
     atom   52 type  1   force =    -0.00001373   -0.00002020    0.00000000
     atom   53 type  1   force =     0.00000000    0.00006295    0.00000000
     atom   54 type  1   force =     0.00000000   -0.00005647    0.00000000
     atom   55 type  1   force =     0.00000388    0.00001908    0.00000000
     atom   56 type  1   force =     0.00001373   -0.00002020    0.00000000
     atom   57 type  1   force =    -0.00001060    0.00001743    0.00000000
     atom   58 type  1   force =     0.00001276   -0.00000204    0.00000000
     atom   59 type  1   force =    -0.00000661   -0.00000070   -0.00000000
     atom   60 type  1   force =     0.00000153    0.00000270   -0.00000000
     atom   61 type  1   force =     0.00000000    0.00003603    0.00000000
     atom   62 type  1   force =     0.00000000   -0.00004245    0.00000000
     atom   63 type  1   force =     0.00000661   -0.00000070    0.00000000
     atom   64 type  1   force =    -0.00000153    0.00000270    0.00000000
     atom   65 type  1   force =     0.00001060    0.00001743    0.00000000
     atom   66 type  1   force =    -0.00001276   -0.00000204   -0.00000000
     atom   67 type  1   force =    -0.00001395    0.00003735    0.00000000
     atom   68 type  1   force =    -0.00006929   -0.00004763    0.00000000
     atom   69 type  1   force =     0.00001395    0.00003735   -0.00000000
     atom   70 type  1   force =     0.00006929   -0.00004763   -0.00000000
     atom   71 type  1   force =    -0.00006506    0.00000629    0.00000000
     atom   72 type  1   force =     0.00017255    0.00018255    0.00000000
     atom   73 type  1   force =     0.00001407    0.00002169    0.00000000
     atom   74 type  1   force =     0.00008353   -0.00004408    0.00000000
     atom   75 type  1   force =    -0.00001728    0.00001651    0.00000000
     atom   76 type  1   force =     0.00001145   -0.00002320    0.00000000
     atom   77 type  1   force =     0.00001728    0.00001651   -0.00000000
     atom   78 type  1   force =    -0.00001145   -0.00002320    0.00000000
     atom   79 type  1   force =    -0.00001407    0.00002169    0.00000000
     atom   80 type  1   force =    -0.00008353   -0.00004408    0.00000000
     atom   81 type  1   force =     0.00006506    0.00000629    0.00000000
     atom   82 type  1   force =    -0.00017255    0.00018255    0.00000000
     atom   83 type  1   force =     0.00000000    0.00021443    0.00000000
     atom   84 type  1   force =     0.00000000   -0.00033689    0.00000000
     atom   85 type  1   force =    -0.00108994    0.00107446    0.00000000
     atom   86 type  1   force =    -0.00228536    0.00549533    0.00000000
     atom   87 type  1   force =    -0.00007710    0.00008391    0.00000000
     atom   88 type  1   force =     0.00028407   -0.00000838    0.00000000
     atom   89 type  1   force =    -0.00004091   -0.00002117    0.00000000
     atom   90 type  1   force =    -0.00000876    0.00002247    0.00000000
     atom   91 type  1   force =     0.00000000   -0.00001096    0.00000000
     atom   92 type  1   force =     0.00000000    0.00001154    0.00000000
     atom   93 type  1   force =     0.00004091   -0.00002117    0.00000000
     atom   94 type  1   force =     0.00000876    0.00002247    0.00000000
     atom   95 type  1   force =     0.00007710    0.00008391    0.00000000
     atom   96 type  1   force =    -0.00028407   -0.00000838    0.00000000
     atom   97 type  1   force =     0.00108994    0.00107446   -0.00000000
     atom   98 type  1   force =     0.00228536    0.00549533    0.00000000

     Total force =     0.027656     Total SCF correction =     0.000000

     Writing all to output data dir ./scratch_runs/atom01_y_plus/c_sup.save/ :
     XML data file, charge density, pseudopotentials, collected wavefunctions
 
     init_run     :    142.11s CPU    146.43s WALL (       1 calls)
     electrons    :   3019.88s CPU   3123.12s WALL (       1 calls)
     forces       :     21.16s CPU     22.09s WALL (       1 calls)

     Called by init_run:
     wfcinit      :    140.33s CPU    144.28s WALL (       1 calls)
     potinit      :      0.18s CPU      0.20s WALL (       1 calls)
     hinit0       :      0.15s CPU      0.17s WALL (       1 calls)

     Called by electrons:
     c_bands      :   2560.47s CPU   2647.53s WALL (      24 calls)
     sum_band     :    448.00s CPU    457.65s WALL (      24 calls)
     v_of_rho     :      1.28s CPU      1.30s WALL (      25 calls)
     newd         :      6.31s CPU     13.00s WALL (      25 calls)
     PAW_pot      :      1.61s CPU      1.61s WALL (      25 calls)
     mix_rho      :      2.35s CPU      2.40s WALL (      24 calls)

     Called by c_bands:
     init_us_2    :     58.24s CPU     58.44s WALL (     350 calls)
     cegterg      :   2476.90s CPU   2563.89s WALL (     170 calls)

     Called by *egterg:
     cdiaghg      :     42.16s CPU     43.22s WALL (     732 calls)
     h_psi        :   1717.56s CPU   1746.04s WALL (     739 calls)
     s_psi        :    271.15s CPU    271.28s WALL (     739 calls)
     g_psi        :      5.50s CPU      5.50s WALL (     562 calls)

     Called by h_psi:
     h_psi:calbec :    249.06s CPU    249.21s WALL (     739 calls)
     vloc_psi     :   1189.42s CPU   1202.45s WALL (     739 calls)
     add_vuspsi   :    271.74s CPU    271.87s WALL (     739 calls)

     General routines
     calbec       :    359.59s CPU    359.85s WALL (     935 calls)
     fft          :      1.16s CPU      1.20s WALL (     104 calls)
     ffts         :      0.23s CPU      0.24s WALL (      24 calls)
     fftw         :   1012.75s CPU   1028.12s WALL (  238934 calls)
 
     Parallel routines
 
     PWSCF        :  53m 7.19s CPU  55m 0.34s WALL

 
   This run was terminated on:  19:57:15  13May2026            

=------------------------------------------------------------------------------=
   JOB DONE.
=------------------------------------------------------------------------------=

===== TIMING =====
Job:           atom01_y_plus
Start:         2026-05-13T19:02:14+02:00
End:           2026-05-13T19:57:15+02:00
Duration (s):  3301
Duration (H:M:S): 00:55:01
==================
