
     Program PWSCF v.7.4 starts on 26Apr2026 at 21:32:19 

     This program is part of the open-source Quantum ESPRESSO suite
     for quantum simulation of materials; please cite
         "P. Giannozzi et al., J. Phys.:Condens. Matter 21 395502 (2009);
         "P. Giannozzi et al., J. Phys.:Condens. Matter 29 465901 (2017);
         "P. Giannozzi et al., J. Chem. Phys. 152 154105 (2020);
          URL http://www.quantum-espresso.org", 
     in publications or presentations arising from this work. More details at
     http://www.quantum-espresso.org/quote

     Parallel version (MPI), running on    12 processors

     MPI processes distributed on     1 nodes
     131210 MiB available memory on the printing compute node when the environment starts
 
     Reading input from si_sup.scf.in

     Current dimensions of program PWSCF are:
     Max number of different atomic species (ntypx) = 10
     Max number of k-points (npk) =  40000
     Max angular momentum in pseudopotentials (lmaxx) =  4
     Found identity + (  0.0000  0.0000  0.2500) symmetry
     This is a supercell, fractional translations are disabled
     Message from routine setup:
     using ibrav=0 with symmetry is DISCOURAGED, use correct ibrav instead
 
     R & G space division:  proc/nbgrp/npool/nimage =      12
     Subspace diagonalization in iterative solution of the eigenvalue problem:
     one sub-group per band group will be used
     custom distributed-memory algorithm (size of sub-group:  3*  3 procs)

 
     Parallelization info
     --------------------
     sticks:   dense  smooth     PW     G-vecs:    dense   smooth      PW
     Min         668     668    175                39492    39492    5301
     Max         669     669    177                39495    39495    5302
     Sum        8017    8017   2107               473921   473921   63615
 
     Using Slab Decomposition
 


     bravais-lattice index     =            0
     lattice parameter (alat)  =      28.8295  a.u.
     unit-cell volume          =   16943.2702 (a.u.)^3
     number of atoms/cell      =          128
     number of atomic types    =            1
     number of electrons       =       512.00
     number of Kohn-Sham states=          256
     kinetic-energy cutoff     =      35.0000  Ry
     charge density cutoff     =     140.0000  Ry
     scf convergence threshold =      1.0E-16
     mixing beta               =       0.7000
     number of iterations used =            8  plain     mixing
     Exchange-correlation= SLA  PW   NOGX NOGC
                           (   1   4   0   0   0   0   0)

     celldm(1)=  28.829520  celldm(2)=   0.000000  celldm(3)=   0.000000
     celldm(4)=   0.000000  celldm(5)=   0.000000  celldm(6)=   0.000000

     crystal axes: (cart. coord. in units of alat)
               a(1) = (  -0.707107   0.000000   0.707107 )  
               a(2) = (   0.000000   0.707107   0.707107 )  
               a(3) = (  -0.707107   0.707107   0.000000 )  

     reciprocal axes: (cart. coord. in units 2 pi/alat)
               b(1) = ( -0.707107 -0.707107  0.707107 )  
               b(2) = (  0.707107  0.707107  0.707107 )  
               b(3) = ( -0.707107  0.707107 -0.707107 )  


     PseudoPot. # 1 for Si read from file:
     ./Si.upf
     MD5 check sum: 9e2d726316af3d4752eea8ab0afbb951
     Pseudo is Norm-conserving + core correction, Zval =  4.0
     Generated using ONCVPSP code by D. R. Hamann
     Using radial grid of 1510 points,  6 beta functions with: 
                l(1) =   0
                l(2) =   0
                l(3) =   1
                l(4) =   1
                l(5) =   2
                l(6) =   2

     atomic species   valence    mass     pseudopotential
     Si                4.00    28.08600     Si( 1.00)

     24 Sym. Ops. (no inversion) found



   Cartesian axes

     site n.     atom                  positions (alat units)
         1        Si     tau(   1) = (   0.0000000   0.0000000   0.0000000  )
         2        Si     tau(   2) = (  -0.0883883   0.0883883   0.0883883  )
         3        Si     tau(   3) = (  -0.1767767   0.1767767   0.0000000  )
         4        Si     tau(   4) = (  -0.2651650   0.2651650   0.0883883  )
         5        Si     tau(   5) = (  -0.3535534   0.3535534   0.0000000  )
         6        Si     tau(   6) = (  -0.4419417   0.4419417   0.0883883  )
         7        Si     tau(   7) = (  -0.5303301   0.5303301   0.0000000  )
         8        Si     tau(   8) = (  -0.6187184   0.6187184   0.0883883  )
         9        Si     tau(   9) = (   0.0000000   0.1767767   0.1767767  )
        10        Si     tau(  10) = (  -0.0883883   0.2651650   0.2651650  )
        11        Si     tau(  11) = (  -0.1767767   0.3535534   0.1767767  )
        12        Si     tau(  12) = (  -0.2651650   0.4419417   0.2651650  )
        13        Si     tau(  13) = (  -0.3535534   0.5303301   0.1767767  )
        14        Si     tau(  14) = (  -0.4419417   0.6187184   0.2651650  )
        15        Si     tau(  15) = (  -0.5303301   0.7071068   0.1767767  )
        16        Si     tau(  16) = (  -0.6187184   0.7954951   0.2651650  )
        17        Si     tau(  17) = (   0.0000000   0.3535534   0.3535534  )
        18        Si     tau(  18) = (  -0.0883883   0.4419417   0.4419417  )
        19        Si     tau(  19) = (  -0.1767767   0.5303301   0.3535534  )
        20        Si     tau(  20) = (  -0.2651650   0.6187184   0.4419417  )
        21        Si     tau(  21) = (  -0.3535534   0.7071068   0.3535534  )
        22        Si     tau(  22) = (  -0.4419417   0.7954951   0.4419417  )
        23        Si     tau(  23) = (  -0.5303301   0.8838835   0.3535534  )
        24        Si     tau(  24) = (  -0.6187184   0.9722718   0.4419417  )
        25        Si     tau(  25) = (   0.0000000   0.5303301   0.5303301  )
        26        Si     tau(  26) = (  -0.0883883   0.6187184   0.6187184  )
        27        Si     tau(  27) = (  -0.1767767   0.7071068   0.5303301  )
        28        Si     tau(  28) = (  -0.2651650   0.7954951   0.6187184  )
        29        Si     tau(  29) = (  -0.3535534   0.8838835   0.5303301  )
        30        Si     tau(  30) = (  -0.4419417   0.9722718   0.6187184  )
        31        Si     tau(  31) = (  -0.5303301   1.0606602   0.5303301  )
        32        Si     tau(  32) = (  -0.6187184   1.1490485   0.6187184  )
        33        Si     tau(  33) = (  -0.1767767   0.0000000   0.1767767  )
        34        Si     tau(  34) = (  -0.2651650   0.0883883   0.2651650  )
        35        Si     tau(  35) = (  -0.3535534   0.1767767   0.1767767  )
        36        Si     tau(  36) = (  -0.4419417   0.2651650   0.2651650  )
        37        Si     tau(  37) = (  -0.5303301   0.3535534   0.1767767  )
        38        Si     tau(  38) = (  -0.6187184   0.4419417   0.2651650  )
        39        Si     tau(  39) = (  -0.7071068   0.5303301   0.1767767  )
        40        Si     tau(  40) = (  -0.7954951   0.6187184   0.2651650  )
        41        Si     tau(  41) = (  -0.1767767   0.1767767   0.3535534  )
        42        Si     tau(  42) = (  -0.2651650   0.2651650   0.4419417  )
        43        Si     tau(  43) = (  -0.3535534   0.3535534   0.3535534  )
        44        Si     tau(  44) = (  -0.4419417   0.4419417   0.4419417  )
        45        Si     tau(  45) = (  -0.5303301   0.5303301   0.3535534  )
        46        Si     tau(  46) = (  -0.6187184   0.6187184   0.4419417  )
        47        Si     tau(  47) = (  -0.7071068   0.7071068   0.3535534  )
        48        Si     tau(  48) = (  -0.7954951   0.7954951   0.4419417  )
        49        Si     tau(  49) = (  -0.1767767   0.3535534   0.5303301  )
        50        Si     tau(  50) = (  -0.2651650   0.4419417   0.6187184  )
        51        Si     tau(  51) = (  -0.3535534   0.5303301   0.5303301  )
        52        Si     tau(  52) = (  -0.4419417   0.6187184   0.6187184  )
        53        Si     tau(  53) = (  -0.5303301   0.7071068   0.5303301  )
        54        Si     tau(  54) = (  -0.6187184   0.7954951   0.6187184  )
        55        Si     tau(  55) = (  -0.7071068   0.8838835   0.5303301  )
        56        Si     tau(  56) = (  -0.7954951   0.9722718   0.6187184  )
        57        Si     tau(  57) = (  -0.1767767   0.5303301   0.7071068  )
        58        Si     tau(  58) = (  -0.2651650   0.6187184   0.7954951  )
        59        Si     tau(  59) = (  -0.3535534   0.7071068   0.7071068  )
        60        Si     tau(  60) = (  -0.4419417   0.7954951   0.7954951  )
        61        Si     tau(  61) = (  -0.5303301   0.8838835   0.7071068  )
        62        Si     tau(  62) = (  -0.6187184   0.9722718   0.7954951  )
        63        Si     tau(  63) = (  -0.7071068   1.0606602   0.7071068  )
        64        Si     tau(  64) = (  -0.7954951   1.1490485   0.7954951  )
        65        Si     tau(  65) = (  -0.3535534   0.0000000   0.3535534  )
        66        Si     tau(  66) = (  -0.4419417   0.0883883   0.4419417  )
        67        Si     tau(  67) = (  -0.5303301   0.1767767   0.3535534  )
        68        Si     tau(  68) = (  -0.6187184   0.2651650   0.4419417  )
        69        Si     tau(  69) = (  -0.7071068   0.3535534   0.3535534  )
        70        Si     tau(  70) = (  -0.7954951   0.4419417   0.4419417  )
        71        Si     tau(  71) = (  -0.8838835   0.5303301   0.3535534  )
        72        Si     tau(  72) = (  -0.9722718   0.6187184   0.4419417  )
        73        Si     tau(  73) = (  -0.3535534   0.1767767   0.5303301  )
        74        Si     tau(  74) = (  -0.4419417   0.2651650   0.6187184  )
        75        Si     tau(  75) = (  -0.5303301   0.3535534   0.5303301  )
        76        Si     tau(  76) = (  -0.6187184   0.4419417   0.6187184  )
        77        Si     tau(  77) = (  -0.7071068   0.5303301   0.5303301  )
        78        Si     tau(  78) = (  -0.7954951   0.6187184   0.6187184  )
        79        Si     tau(  79) = (  -0.8838835   0.7071068   0.5303301  )
        80        Si     tau(  80) = (  -0.9722718   0.7954951   0.6187184  )
        81        Si     tau(  81) = (  -0.3535534   0.3535534   0.7071068  )
        82        Si     tau(  82) = (  -0.4419417   0.4419417   0.7954951  )
        83        Si     tau(  83) = (  -0.5303301   0.5303301   0.7071068  )
        84        Si     tau(  84) = (  -0.6187184   0.6187184   0.7954951  )
        85        Si     tau(  85) = (  -0.7071068   0.7071068   0.7071068  )
        86        Si     tau(  86) = (  -0.7954951   0.7954951   0.7954951  )
        87        Si     tau(  87) = (  -0.8838835   0.8838835   0.7071068  )
        88        Si     tau(  88) = (  -0.9722718   0.9722718   0.7954951  )
        89        Si     tau(  89) = (  -0.3535534   0.5303301   0.8838835  )
        90        Si     tau(  90) = (  -0.4419417   0.6187184   0.9722718  )
        91        Si     tau(  91) = (  -0.5303301   0.7071068   0.8838835  )
        92        Si     tau(  92) = (  -0.6187184   0.7954951   0.9722718  )
        93        Si     tau(  93) = (  -0.7071068   0.8838835   0.8838835  )
        94        Si     tau(  94) = (  -0.7954951   0.9722718   0.9722718  )
        95        Si     tau(  95) = (  -0.8838835   1.0606602   0.8838835  )
        96        Si     tau(  96) = (  -0.9722718   1.1490485   0.9722718  )
        97        Si     tau(  97) = (  -0.5303301   0.0000000   0.5303301  )
        98        Si     tau(  98) = (  -0.6187184   0.0883883   0.6187184  )
        99        Si     tau(  99) = (  -0.7071068   0.1767767   0.5303301  )
       100        Si     tau( 100) = (  -0.7954951   0.2651650   0.6187184  )
       101        Si     tau( 101) = (  -0.8838835   0.3535534   0.5303301  )
       102        Si     tau( 102) = (  -0.9722718   0.4419417   0.6187184  )
       103        Si     tau( 103) = (  -1.0606602   0.5303301   0.5303301  )
       104        Si     tau( 104) = (  -1.1490485   0.6187184   0.6187184  )
       105        Si     tau( 105) = (  -0.5303301   0.1767767   0.7071068  )
       106        Si     tau( 106) = (  -0.6187184   0.2651650   0.7954951  )
       107        Si     tau( 107) = (  -0.7071068   0.3535534   0.7071068  )
       108        Si     tau( 108) = (  -0.7954951   0.4419417   0.7954951  )
       109        Si     tau( 109) = (  -0.8838835   0.5303301   0.7071068  )
       110        Si     tau( 110) = (  -0.9722718   0.6187184   0.7954951  )
       111        Si     tau( 111) = (  -1.0606602   0.7071068   0.7071068  )
       112        Si     tau( 112) = (  -1.1490485   0.7954951   0.7954951  )
       113        Si     tau( 113) = (  -0.5303301   0.3535534   0.8838835  )
       114        Si     tau( 114) = (  -0.6187184   0.4419417   0.9722718  )
       115        Si     tau( 115) = (  -0.7071068   0.5303301   0.8838835  )
       116        Si     tau( 116) = (  -0.7954951   0.6187184   0.9722718  )
       117        Si     tau( 117) = (  -0.8838835   0.7071068   0.8838835  )
       118        Si     tau( 118) = (  -0.9722718   0.7954951   0.9722718  )
       119        Si     tau( 119) = (  -1.0606602   0.8838835   0.8838835  )
       120        Si     tau( 120) = (  -1.1490485   0.9722718   0.9722718  )
       121        Si     tau( 121) = (  -0.5303301   0.5303301   1.0606602  )
       122        Si     tau( 122) = (  -0.6187184   0.6187184   1.1490485  )
       123        Si     tau( 123) = (  -0.7071068   0.7071068   1.0606602  )
       124        Si     tau( 124) = (  -0.7954951   0.7954951   1.1490485  )
       125        Si     tau( 125) = (  -0.8838835   0.8838835   1.0606602  )
       126        Si     tau( 126) = (  -0.9722718   0.9722718   1.1490485  )
       127        Si     tau( 127) = (  -1.0606602   1.0606602   1.0606602  )
       128        Si     tau( 128) = (  -1.1490485   1.1490485   1.1490485  )

     number of k points=     4
                       cart. coord. in units 2pi/alat
        k(    1) = (   0.0000000   0.0000000   0.0000000), wk =   0.0740741
        k(    2) = (  -0.2357023   0.2357023  -0.2357023), wk =   0.5925926
        k(    3) = (   0.0000000   0.4714045   0.0000000), wk =   0.4444444
        k(    4) = (   0.4714045  -0.0000000   0.4714045), wk =   0.8888889

     Dense  grid:   473921 G-vectors     FFT dimensions: ( 120, 120, 120)

     Estimated max dynamical RAM per process >     384.72 MB

     Estimated total dynamical RAM >       4.51 GB

     Initial potential from superposition of free atoms

     starting charge     511.9291, renormalised to     512.0000
     Starting wfcs are  512 randomized atomic wfcs

     total cpu time spent up to now is        7.4 secs

     per-process dynamical memory:   359.3 Mb

     Self-consistent Calculation

     iteration #  1     ecut=    35.00 Ry     beta= 0.70
     Davidson diagonalization with overlap
     ethr =  1.00E-02,  avg # of iterations =  2.0

     Threshold (ethr) on eigenvalues was too large:
     Diagonalizing with lowered threshold

     Davidson diagonalization with overlap
     ethr =  6.13E-04,  avg # of iterations =  2.5

     total cpu time spent up to now is       31.2 secs

     total energy              =   -1091.04384362 Ry
     estimated scf accuracy    <       3.71401322 Ry

     iteration #  2     ecut=    35.00 Ry     beta= 0.70
     Davidson diagonalization with overlap
     ethr =  7.25E-04,  avg # of iterations =  1.0

     total cpu time spent up to now is       39.9 secs

     total energy              =   -1091.19458918 Ry
     estimated scf accuracy    <       0.15795152 Ry

     iteration #  3     ecut=    35.00 Ry     beta= 0.70
     Davidson diagonalization with overlap
     ethr =  3.08E-05,  avg # of iterations =  4.8

     total cpu time spent up to now is       54.6 secs

     total energy              =   -1091.24894782 Ry
     estimated scf accuracy    <       0.00613191 Ry

     iteration #  4     ecut=    35.00 Ry     beta= 0.70
     Davidson diagonalization with overlap
     ethr =  1.20E-06,  avg # of iterations =  5.0

     total cpu time spent up to now is       71.3 secs

     total energy              =   -1091.25331621 Ry
     estimated scf accuracy    <       0.00025802 Ry

     iteration #  5     ecut=    35.00 Ry     beta= 0.70
     Davidson diagonalization with overlap
     ethr =  5.04E-08,  avg # of iterations =  6.0

     total cpu time spent up to now is       88.6 secs

     total energy              =   -1091.25346629 Ry
     estimated scf accuracy    <       0.00021709 Ry

     iteration #  6     ecut=    35.00 Ry     beta= 0.70
     Davidson diagonalization with overlap
     ethr =  4.24E-08,  avg # of iterations =  2.0

     total cpu time spent up to now is       99.6 secs

     total energy              =   -1091.25348591 Ry
     estimated scf accuracy    <       0.00001797 Ry

     iteration #  7     ecut=    35.00 Ry     beta= 0.70
     Davidson diagonalization with overlap
     ethr =  3.51E-09,  avg # of iterations =  5.5

     total cpu time spent up to now is      117.0 secs

     total energy              =   -1091.25349484 Ry
     estimated scf accuracy    <       0.00001296 Ry

     iteration #  8     ecut=    35.00 Ry     beta= 0.70
     Davidson diagonalization with overlap
     ethr =  2.53E-09,  avg # of iterations =  1.5

     total cpu time spent up to now is      126.8 secs

     total energy              =   -1091.25349424 Ry
     estimated scf accuracy    <       0.00000903 Ry

     iteration #  9     ecut=    35.00 Ry     beta= 0.70
     Davidson diagonalization with overlap
     ethr =  1.76E-09,  avg # of iterations =  1.2

     total cpu time spent up to now is      136.4 secs

     total energy              =   -1091.25349399 Ry
     estimated scf accuracy    <       0.00000516 Ry

     iteration # 10     ecut=    35.00 Ry     beta= 0.70
     Davidson diagonalization with overlap
     ethr =  1.01E-09,  avg # of iterations =  2.0

     total cpu time spent up to now is      146.6 secs

     total energy              =   -1091.25349368 Ry
     estimated scf accuracy    <       0.00000284 Ry

     iteration # 11     ecut=    35.00 Ry     beta= 0.70
     Davidson diagonalization with overlap
     ethr =  5.55E-10,  avg # of iterations =  4.0

     total cpu time spent up to now is      159.1 secs

     total energy              =   -1091.25349395 Ry
     estimated scf accuracy    <       0.00000022 Ry

     iteration # 12     ecut=    35.00 Ry     beta= 0.70
     Davidson diagonalization with overlap
     ethr =  4.35E-11,  avg # of iterations =  5.8

     total cpu time spent up to now is      178.2 secs

     total energy              =   -1091.25349410 Ry
     estimated scf accuracy    <       0.00000053 Ry

     iteration # 13     ecut=    35.00 Ry     beta= 0.70
     Davidson diagonalization with overlap
     ethr =  4.35E-11,  avg # of iterations =  2.0

     total cpu time spent up to now is      189.6 secs

     total energy              =   -1091.25349407 Ry
     estimated scf accuracy    <       0.00000019 Ry

     iteration # 14     ecut=    35.00 Ry     beta= 0.70
     Davidson diagonalization with overlap
     ethr =  3.65E-11,  avg # of iterations =  3.0

     total cpu time spent up to now is      202.3 secs

     total energy              =   -1091.25349410 Ry
     estimated scf accuracy    <          1.3E-09 Ry

     iteration # 15     ecut=    35.00 Ry     beta= 0.70
     Davidson diagonalization with overlap
     ethr =  2.61E-13,  avg # of iterations = 10.5

     total cpu time spent up to now is      223.8 secs

     total energy              =   -1091.25349410 Ry
     estimated scf accuracy    <          1.1E-09 Ry

     iteration # 16     ecut=    35.00 Ry     beta= 0.70
     Davidson diagonalization with overlap
     ethr =  2.16E-13,  avg # of iterations =  4.2

     total cpu time spent up to now is      238.3 secs

     total energy              =   -1091.25349410 Ry
     estimated scf accuracy    <          6.8E-10 Ry

     iteration # 17     ecut=    35.00 Ry     beta= 0.70
     Davidson diagonalization with overlap
     ethr =  1.34E-13,  avg # of iterations =  1.8

     total cpu time spent up to now is      248.3 secs

     total energy              =   -1091.25349410 Ry
     estimated scf accuracy    <          3.8E-10 Ry

     iteration # 18     ecut=    35.00 Ry     beta= 0.70
     Davidson diagonalization with overlap
     ethr =  1.00E-13,  avg # of iterations =  2.8

     total cpu time spent up to now is      260.6 secs

     total energy              =   -1091.25349410 Ry
     estimated scf accuracy    <          4.1E-12 Ry

     iteration # 19     ecut=    35.00 Ry     beta= 0.70
     Davidson diagonalization with overlap
     ethr =  1.00E-13,  avg # of iterations =  1.0

     total cpu time spent up to now is      270.1 secs

     total energy              =   -1091.25349410 Ry
     estimated scf accuracy    <          1.4E-11 Ry

     iteration # 20     ecut=    35.00 Ry     beta= 0.70
     Davidson diagonalization with overlap
     ethr =  1.00E-13,  avg # of iterations =  1.0

     total cpu time spent up to now is      279.5 secs

     total energy              =   -1091.25349410 Ry
     estimated scf accuracy    <          7.4E-12 Ry

     iteration # 21     ecut=    35.00 Ry     beta= 0.70
     Davidson diagonalization with overlap
     ethr =  1.00E-13,  avg # of iterations =  1.0

     total cpu time spent up to now is      288.8 secs

     total energy              =   -1091.25349410 Ry
     estimated scf accuracy    <          5.5E-13 Ry

     iteration # 22     ecut=    35.00 Ry     beta= 0.70
     Davidson diagonalization with overlap
     ethr =  1.00E-13,  avg # of iterations =  1.0

     total cpu time spent up to now is      298.3 secs

     total energy              =   -1091.25349410 Ry
     estimated scf accuracy    <          9.8E-13 Ry

     iteration # 23     ecut=    35.00 Ry     beta= 0.70
     Davidson diagonalization with overlap
     ethr =  1.00E-13,  avg # of iterations =  1.0

     total cpu time spent up to now is      307.9 secs

     total energy              =   -1091.25349410 Ry
     estimated scf accuracy    <          1.4E-12 Ry

     iteration # 24     ecut=    35.00 Ry     beta= 0.70
     Davidson diagonalization with overlap
     ethr =  1.00E-13,  avg # of iterations =  1.0

     total cpu time spent up to now is      317.3 secs

     total energy              =   -1091.25349410 Ry
     estimated scf accuracy    <          4.5E-13 Ry

     iteration # 25     ecut=    35.00 Ry     beta= 0.70
     Davidson diagonalization with overlap
     ethr =  1.00E-13,  avg # of iterations =  1.0

     total cpu time spent up to now is      326.1 secs

     total energy              =   -1091.25349410 Ry
     estimated scf accuracy    <          2.3E-14 Ry

     iteration # 26     ecut=    35.00 Ry     beta= 0.70
     Davidson diagonalization with overlap
     ethr =  1.00E-13,  avg # of iterations =  1.0

     total cpu time spent up to now is      334.8 secs

     total energy              =   -1091.25349410 Ry
     estimated scf accuracy    <          1.2E-14 Ry

     iteration # 27     ecut=    35.00 Ry     beta= 0.70
     Davidson diagonalization with overlap
     ethr =  1.00E-13,  avg # of iterations =  1.0

     total cpu time spent up to now is      343.5 secs

     total energy              =   -1091.25349410 Ry
     estimated scf accuracy    <          6.5E-14 Ry

     iteration # 28     ecut=    35.00 Ry     beta= 0.70
     Davidson diagonalization with overlap
     ethr =  1.00E-13,  avg # of iterations =  1.0

     total cpu time spent up to now is      352.2 secs

     total energy              =   -1091.25349410 Ry
     estimated scf accuracy    <          4.9E-14 Ry

     iteration # 29     ecut=    35.00 Ry     beta= 0.70
     Davidson diagonalization with overlap
     ethr =  1.00E-13,  avg # of iterations =  1.0

     total cpu time spent up to now is      360.9 secs

     total energy              =   -1091.25349410 Ry
     estimated scf accuracy    <          2.2E-14 Ry

     iteration # 30     ecut=    35.00 Ry     beta= 0.70
     Davidson diagonalization with overlap
     ethr =  1.00E-13,  avg # of iterations =  1.0

     total cpu time spent up to now is      369.6 secs

     total energy              =   -1091.25349410 Ry
     estimated scf accuracy    <          4.3E-15 Ry

     iteration # 31     ecut=    35.00 Ry     beta= 0.70
     Davidson diagonalization with overlap
     ethr =  1.00E-13,  avg # of iterations =  1.0

     total cpu time spent up to now is      378.3 secs

     total energy              =   -1091.25349410 Ry
     estimated scf accuracy    <          5.3E-16 Ry

     iteration # 32     ecut=    35.00 Ry     beta= 0.70
     Davidson diagonalization with overlap
     ethr =  1.00E-13,  avg # of iterations =  1.0

     total cpu time spent up to now is      386.9 secs

     total energy              =   -1091.25349410 Ry
     estimated scf accuracy    <          1.8E-15 Ry

     iteration # 33     ecut=    35.00 Ry     beta= 0.70
     Davidson diagonalization with overlap
     ethr =  1.00E-13,  avg # of iterations =  1.0

     total cpu time spent up to now is      395.6 secs

     total energy              =   -1091.25349410 Ry
     estimated scf accuracy    <          1.9E-15 Ry

     iteration # 34     ecut=    35.00 Ry     beta= 0.70
     Davidson diagonalization with overlap
     ethr =  1.00E-13,  avg # of iterations =  1.0

     total cpu time spent up to now is      404.3 secs

     total energy              =   -1091.25349410 Ry
     estimated scf accuracy    <          1.2E-16 Ry

     iteration # 35     ecut=    35.00 Ry     beta= 0.70
     Davidson diagonalization with overlap
     ethr =  1.00E-13,  avg # of iterations =  1.0

     total cpu time spent up to now is      413.0 secs

     End of self-consistent calculation

          k = 0.0000 0.0000 0.0000 ( 58887 PWs)   bands (ev):

    -5.8518  -5.0379  -5.0379  -5.0379  -5.0379  -5.0379  -5.0379  -5.0379
    -5.0379  -4.7517  -4.7517  -4.7517  -4.7517  -4.7517  -4.7517  -3.7697
    -3.7697  -3.7697  -3.7697  -3.7697  -3.7697  -3.7697  -3.7697  -3.7697
    -3.7697  -3.7697  -3.7697  -3.4657  -3.4657  -3.4657  -3.4657  -3.0814
    -3.0814  -3.0814  -3.0814  -3.0814  -3.0814  -3.0814  -3.0814  -3.0814
    -3.0814  -3.0814  -3.0814  -3.0814  -3.0814  -3.0814  -3.0814  -3.0814
    -3.0814  -3.0814  -3.0814  -3.0814  -3.0814  -3.0814  -3.0814  -1.6384
    -1.6384  -1.6384  -1.6384  -1.6384  -1.6384  -1.4627  -1.4627  -1.4627
    -1.4627  -1.4627  -1.4627  -1.4627  -1.4627  -1.4627  -1.4627  -1.4627
    -1.4627  -0.8374  -0.8374  -0.8374  -0.8374  -0.2006  -0.2006  -0.2006
    -0.2006  -0.2006  -0.2006  -0.2006  -0.2006  -0.2006  -0.2006  -0.2006
    -0.2006  -0.2006  -0.2006  -0.2006  -0.2006  -0.2006  -0.2006  -0.2006
    -0.2006  -0.2006  -0.2006  -0.2006  -0.2006   0.7193   0.7193   0.7193
     0.7193   0.7193   0.7193   0.7193   0.7193   0.7193   0.7193   0.7193
     0.7193   2.2658   2.2658   2.2658   2.2658   2.2658   2.2658   2.2658
     2.2658   2.2904   2.2904   2.2904   2.2904   2.2904   2.2904   2.2904
     2.2904   2.2904   2.2904   2.2904   2.2904   2.3970   2.3970   2.3970
     2.3970   2.3970   2.3970   2.3970   2.3970   2.3970   2.3970   2.3970
     2.3970   2.6294   2.6294   2.6294   2.6294   2.6294   2.6294   2.6294
     2.6294   2.6294   2.6294   2.6294   2.6294   2.6294   2.6294   2.6294
     2.6294   2.6294   2.6294   2.6294   2.6294   2.6294   2.6294   2.6294
     2.6294   2.7170   2.7170   2.7170   2.7170   2.7170   2.7170   3.3452
     3.3452   3.3452   3.3452   3.3452   3.3452   4.0044   4.0044   4.0044
     4.0044   4.0044   4.0044   4.0044   4.0044   4.0044   4.0044   4.0044
     4.0044   4.0044   4.0044   4.0044   4.0044   4.0044   4.0044   4.0044
     4.0044   4.0044   4.0044   4.0044   4.0044   4.3215   4.3215   4.3215
     4.3215   4.3215   4.3215   4.3215   4.3215   4.3215   4.3215   4.3215
     4.3215   4.9007   4.9007   4.9007   4.9007   4.9007   4.9007   4.9007
     4.9007   4.9007   4.9007   4.9007   4.9007   5.0360   5.0360   5.0360
     5.0360   5.0360   5.0360   5.0360   5.0360   5.4775   5.4775   5.4775
     5.4775   5.4775   5.4775   5.4775   5.4775   5.4775   5.4775   5.4775
     5.4775   5.4775   5.4775   5.4775   5.4775   6.2489   6.2489   6.2489

          k =-0.2357 0.2357-0.2357 ( 59225 PWs)   bands (ev):

    -5.7592  -5.4844  -5.1230  -5.1230  -5.1230  -5.0268  -5.0268  -5.0268
    -4.7747  -4.7747  -4.7747  -4.4490  -4.3434  -4.3434  -4.3434  -4.3074
    -4.3074  -4.3074  -3.8122  -3.7209  -3.7209  -3.7209  -3.6904  -3.6904
    -3.6904  -3.6904  -3.6904  -3.6904  -3.4565  -3.4565  -3.4565  -3.4565
    -3.4565  -3.4565  -3.4291  -3.4291  -3.4291  -3.3085  -3.3085  -3.3085
    -3.1327  -3.1327  -3.1327  -2.7456  -2.7456  -2.7456  -2.7289  -2.7289
    -2.7289  -2.5914  -2.5914  -2.5914  -2.5914  -2.5914  -2.5914  -2.2442
    -2.2442  -2.2442  -2.0306  -2.0306  -2.0306  -2.0306  -2.0306  -2.0306
    -0.9601  -0.9601  -0.9601  -0.9573  -0.9573  -0.9573  -0.9573  -0.9573
    -0.9573  -0.7286  -0.7286  -0.7286  -0.6292  -0.6292  -0.6292  -0.5494
    -0.5494  -0.5494  -0.5494  -0.5494  -0.5494  -0.4507  -0.4507  -0.4507
    -0.3677  -0.3677  -0.3677  -0.3173  -0.1205  -0.1205  -0.1205   0.1569
     0.1569   0.1569   0.1569   0.1569   0.1569   0.5232   0.5232   0.5232
     0.5232   0.5232   0.5232   0.7473   0.7473   0.7473   0.8357   1.3358
     1.3358   1.3358   1.7879   1.7879   1.7879   1.7949   1.7949   1.7949
     2.0541   2.0541   2.0541   2.0541   2.0541   2.0541   2.1306   2.1306
     2.1306   2.1982   2.1982   2.1982   2.1982   2.1982   2.1982   2.2570
     2.2570   2.2570   2.5228   2.5228   2.5228   2.6488   2.6488   2.6488
     2.6488   2.6488   2.6488   2.7754   2.7754   2.7754   2.8579   2.8579
     2.8579   2.8579   2.8579   2.8579   2.9526   2.9526   2.9526   2.9526
     2.9526   2.9526   3.0029   3.0029   3.0029   3.1008   3.1008   3.1008
     3.1894   3.1894   3.1894   3.2748   3.2748   3.2748   3.4147   3.4147
     3.4147   3.4223   3.4223   3.4223   3.5693   3.5693   3.5693   3.5693
     3.5693   3.5693   3.6486   3.6486   3.6486   3.8346   3.8410   3.8410
     3.8410   3.9639   3.9639   3.9639   4.0717   4.0717   4.0717   4.0766
     4.0766   4.0766   4.0766   4.0766   4.0766   4.1887   4.1887   4.1887
     4.4361   4.4361   4.4361   4.4424   4.4424   4.4424   4.5000   4.5000
     4.5000   4.5221   4.5221   4.5221   4.5610   4.5610   4.5610   4.5610
     4.5610   4.5610   4.6766   4.6766   4.6766   4.6902   4.6902   4.6902
     4.8532   4.8532   4.8532   5.0860   5.0860   5.1196   5.1196   5.1196
     5.2350   5.2350   5.3049   5.3049   5.3049   5.3083   5.3083   5.3083
     5.3779   5.5592   5.5592   5.5592   5.7902   5.7902   6.1020   6.1020

          k = 0.0000 0.4714 0.0000 ( 59278 PWs)   bands (ev):

    -5.7282  -5.3596  -5.2727  -5.2727  -5.2727  -5.2727  -4.6389  -4.6389
    -4.6389  -4.6389  -4.5766  -4.5766  -4.5766  -4.5766  -4.3058  -4.3058
    -4.3058  -4.3058  -3.9156  -3.9088  -3.9088  -3.9088  -3.9088  -3.7046
    -3.7046  -3.7046  -3.7046  -3.5546  -3.5546  -3.5546  -3.5546  -3.1965
    -3.1965  -3.1965  -3.1965  -3.1965  -3.1965  -3.1965  -3.1965  -3.0673
    -3.0673  -3.0673  -3.0673  -2.9438  -2.9438  -2.9438  -2.9438  -2.9438
    -2.9438  -2.9438  -2.9438  -2.8689  -2.2659  -2.2659  -2.2659  -2.2659
    -2.2445  -2.2445  -2.2445  -2.2445  -1.5977  -1.5977  -1.5977  -1.5977
    -1.5102  -1.5102  -1.5102  -1.5102  -0.8714  -0.8714  -0.8714  -0.8714
    -0.7253  -0.7253  -0.7253  -0.7253  -0.5703  -0.5703  -0.5703  -0.5703
    -0.5703  -0.5703  -0.5703  -0.5703  -0.5454  -0.5454  -0.5454  -0.5454
    -0.2627  -0.0220  -0.0220  -0.0220  -0.0220   0.1637   0.1637   0.1637
     0.1637   0.1820   0.1820   0.1820   0.1820   0.1820   0.1820   0.1820
     0.1820   0.5068   0.5068   0.5068   0.5068   1.2079   1.3155   1.3155
     1.3155   1.3155   1.5210   1.5210   1.5210   1.5210   1.9239   1.9239
     1.9239   1.9239   1.9252   1.9252   1.9252   1.9252   1.9873   1.9873
     1.9873   1.9873   2.3030   2.3030   2.3030   2.3030   2.5081   2.5081
     2.5081   2.5081   2.7026   2.7026   2.7026   2.7026   2.7026   2.7026
     2.7026   2.7026   2.7353   2.7353   2.7353   2.7353   2.7353   2.7353
     2.7353   2.7353   3.0192   3.0192   3.0192   3.0192   3.0686   3.0686
     3.0686   3.0686   3.0897   3.0897   3.0897   3.0897   3.1336   3.1336
     3.1336   3.1336   3.2707   3.2707   3.2707   3.2707   3.4562   3.4562
     3.5609   3.5609   3.5609   3.5609   3.5609   3.5609   3.5609   3.5609
     3.7663   3.7663   3.7663   3.7663   3.7860   3.7860   3.8057   3.8057
     3.8057   3.8057   3.8620   3.8620   3.8620   3.8620   4.0581   4.0581
     4.0581   4.0581   4.0581   4.0581   4.0581   4.0581   4.1271   4.1271
     4.1271   4.1271   4.2057   4.3375   4.3375   4.3375   4.3375   4.3859
     4.3859   4.3859   4.3859   4.5912   4.5912   4.5912   4.5912   4.8282
     4.8282   4.8282   4.8282   4.9085   4.9085   4.9085   4.9085   4.9326
     4.9326   4.9326   4.9326   4.9460   4.9460   4.9460   4.9460   4.9533
     4.9533   4.9533   4.9533   5.0002   5.0002   5.0002   5.0002   5.0296
     5.0296   5.5548   5.8073   5.8073   5.8933   5.8933   5.8933   5.8933

          k = 0.4714-0.0000 0.4714 ( 59291 PWs)   bands (ev):

    -5.6057  -5.5137  -5.5137  -5.2403  -5.2403  -4.8857  -4.7960  -4.7960
    -4.7960  -4.7960  -4.5296  -4.5296  -4.2091  -4.2091  -4.2091  -4.2091
    -4.1535  -4.1535  -4.0962  -4.0962  -4.0962  -4.0962  -3.9362  -3.9362
    -3.8145  -3.8145  -3.5713  -3.5713  -3.5713  -3.5713  -3.5207  -3.5207
    -3.3713  -3.3713  -3.2208  -3.2208  -3.1894  -3.1894  -3.0840  -3.0840
    -3.0840  -3.0840  -2.8819  -2.8819  -2.8819  -2.8819  -2.7888  -2.7888
    -2.5674  -2.5674  -2.5213  -2.5158  -2.5158  -2.5158  -2.5158  -2.5102
    -2.5102  -2.1459  -2.1459  -2.1459  -2.1459  -1.9811  -1.9811  -1.7736
    -1.3733  -1.0693  -1.0693  -0.9497  -0.9497  -0.9497  -0.9497  -0.7157
    -0.7157  -0.6638  -0.6638  -0.6243  -0.6243  -0.6243  -0.6243  -0.6160
    -0.6160  -0.5825  -0.4423  -0.4423  -0.3774  -0.3774  -0.3774  -0.3774
    -0.2979  -0.2979  -0.2217  -0.2217  -0.2217  -0.2217  -0.2025  -0.2025
    -0.2025  -0.2025   0.0616   0.0616   0.4122   0.4122   0.4497   0.4497
     0.5623   0.5623   0.9116   0.9116   0.9116   0.9116   1.0295   1.0295
     1.2352   1.2352   1.2352   1.2352   1.7153   1.7660   1.7660   1.8812
     1.8812   1.8997   1.8997   1.8997   1.8997   2.1392   2.1392   2.2325
     2.2325   2.2325   2.2325   2.2383   2.2383   2.2383   2.2383   2.3021
     2.3827   2.3827   2.3984   2.3984   2.3984   2.3984   2.4977   2.5792
     2.5792   2.5792   2.5792   2.5870   2.5870   3.0170   3.0170   3.0547
     3.0547   3.1949   3.1949   3.2113   3.2113   3.2113   3.2113   3.2569
     3.2569   3.2797   3.2797   3.3133   3.3133   3.3133   3.3133   3.3432
     3.3432   3.4132   3.4132   3.4171   3.4171   3.4996   3.4996   3.5418
     3.5507   3.5507   3.5507   3.5507   3.5995   3.5995   3.6344   3.6344
     3.6344   3.6344   3.6416   3.6416   3.7606   3.7606   3.7606   3.7606
     3.7706   3.7730   3.7730   3.7730   3.7730   3.7856   3.7856   3.8992
     3.8992   4.0303   4.0303   4.0303   4.0303   4.1001   4.2140   4.2140
     4.2355   4.2355   4.2355   4.2355   4.2935   4.2935   4.2935   4.2935
     4.3006   4.3006   4.3627   4.3627   4.4694   4.4694   4.5710   4.5710
     4.5714   4.5714   4.6311   4.6311   4.6438   4.6451   4.6451   4.6654
     4.6654   4.6654   4.6654   4.8197   4.8197   4.9176   4.9176   4.9176
     4.9176   5.2443   5.2443   5.2522   5.2522   5.2522   5.2522   5.3595
     5.4366   5.4366   5.5329   5.5329   5.6346   5.6346   5.6794   6.1315

     highest occupied level (ev):     6.2489

!    total energy              =   -1091.25349410 Ry
     estimated scf accuracy    <          3.3E-17 Ry

     The total energy is the sum of the following terms:
     one-electron contribution =     320.28136468 Ry
     hartree contribution      =      68.98046427 Ry
     xc contribution           =    -398.16405980 Ry
     ewald contribution        =   -1082.35126325 Ry

     convergence has been achieved in  35 iterations

     Forces acting on atoms (cartesian axes, Ry/au):

     atom    1 type  1   force =    -0.00000000   -0.00000000    0.00000000
     atom    2 type  1   force =    -0.00000000    0.00000000    0.00000000
     atom    3 type  1   force =    -0.00000000    0.00000000    0.00000000
     atom    4 type  1   force =    -0.00000000    0.00000000    0.00000000
     atom    5 type  1   force =     0.00000000    0.00000000    0.00000000
     atom    6 type  1   force =     0.00000000   -0.00000000    0.00000000
     atom    7 type  1   force =     0.00000000   -0.00000000    0.00000000
     atom    8 type  1   force =     0.00000000   -0.00000000    0.00000000
     atom    9 type  1   force =    -0.00000000    0.00000000    0.00000000
     atom   10 type  1   force =    -0.00000000    0.00000000    0.00000000
     atom   11 type  1   force =    -0.00000000    0.00000000    0.00000000
     atom   12 type  1   force =    -0.00000000   -0.00000000    0.00000000
     atom   13 type  1   force =     0.00000000   -0.00000000    0.00000000
     atom   14 type  1   force =     0.00000000   -0.00000000    0.00000000
     atom   15 type  1   force =     0.00000000   -0.00000000    0.00000000
     atom   16 type  1   force =    -0.00000000   -0.00000000    0.00000000
     atom   17 type  1   force =    -0.00000000    0.00000000    0.00000000
     atom   18 type  1   force =    -0.00000000   -0.00000000   -0.00000000
     atom   19 type  1   force =    -0.00000000   -0.00000000   -0.00000000
     atom   20 type  1   force =    -0.00000000   -0.00000000   -0.00000000
     atom   21 type  1   force =     0.00000000   -0.00000000    0.00000000
     atom   22 type  1   force =    -0.00000000   -0.00000000    0.00000000
     atom   23 type  1   force =    -0.00000000   -0.00000000    0.00000000
     atom   24 type  1   force =    -0.00000000   -0.00000000    0.00000000
     atom   25 type  1   force =    -0.00000000   -0.00000000   -0.00000000
     atom   26 type  1   force =    -0.00000000   -0.00000000   -0.00000000
     atom   27 type  1   force =    -0.00000000   -0.00000000   -0.00000000
     atom   28 type  1   force =    -0.00000000   -0.00000000    0.00000000
     atom   29 type  1   force =    -0.00000000   -0.00000000    0.00000000
     atom   30 type  1   force =    -0.00000000   -0.00000000    0.00000000
     atom   31 type  1   force =    -0.00000000   -0.00000000    0.00000000
     atom   32 type  1   force =    -0.00000000   -0.00000000    0.00000000
     atom   33 type  1   force =    -0.00000000    0.00000000    0.00000000
     atom   34 type  1   force =    -0.00000000    0.00000000    0.00000000
     atom   35 type  1   force =    -0.00000000    0.00000000    0.00000000
     atom   36 type  1   force =     0.00000000    0.00000000    0.00000000
     atom   37 type  1   force =     0.00000000   -0.00000000    0.00000000
     atom   38 type  1   force =     0.00000000   -0.00000000    0.00000000
     atom   39 type  1   force =     0.00000000   -0.00000000    0.00000000
     atom   40 type  1   force =     0.00000000    0.00000000    0.00000000
     atom   41 type  1   force =    -0.00000000    0.00000000    0.00000000
     atom   42 type  1   force =    -0.00000000    0.00000000   -0.00000000
     atom   43 type  1   force =     0.00000000    0.00000000    0.00000000
     atom   44 type  1   force =     0.00000000   -0.00000000   -0.00000000
     atom   45 type  1   force =     0.00000000   -0.00000000    0.00000000
     atom   46 type  1   force =     0.00000000   -0.00000000    0.00000000
     atom   47 type  1   force =    -0.00000000   -0.00000000    0.00000000
     atom   48 type  1   force =    -0.00000000    0.00000000    0.00000000
     atom   49 type  1   force =    -0.00000000   -0.00000000   -0.00000000
     atom   50 type  1   force =    -0.00000000   -0.00000000   -0.00000000
     atom   51 type  1   force =    -0.00000000   -0.00000000   -0.00000000
     atom   52 type  1   force =    -0.00000000   -0.00000000   -0.00000000
     atom   53 type  1   force =    -0.00000000   -0.00000000    0.00000000
     atom   54 type  1   force =    -0.00000000   -0.00000000    0.00000000
     atom   55 type  1   force =    -0.00000000   -0.00000000    0.00000000
     atom   56 type  1   force =    -0.00000000   -0.00000000   -0.00000000
     atom   57 type  1   force =    -0.00000000   -0.00000000   -0.00000000
     atom   58 type  1   force =    -0.00000000    0.00000000   -0.00000000
     atom   59 type  1   force =    -0.00000000   -0.00000000    0.00000000
     atom   60 type  1   force =    -0.00000000    0.00000000    0.00000000
     atom   61 type  1   force =    -0.00000000   -0.00000000    0.00000000
     atom   62 type  1   force =     0.00000000   -0.00000000    0.00000000
     atom   63 type  1   force =     0.00000000   -0.00000000    0.00000000
     atom   64 type  1   force =     0.00000000   -0.00000000   -0.00000000
     atom   65 type  1   force =     0.00000000    0.00000000    0.00000000
     atom   66 type  1   force =     0.00000000    0.00000000   -0.00000000
     atom   67 type  1   force =     0.00000000    0.00000000   -0.00000000
     atom   68 type  1   force =     0.00000000    0.00000000   -0.00000000
     atom   69 type  1   force =     0.00000000    0.00000000    0.00000000
     atom   70 type  1   force =     0.00000000    0.00000000    0.00000000
     atom   71 type  1   force =     0.00000000    0.00000000    0.00000000
     atom   72 type  1   force =     0.00000000    0.00000000    0.00000000
     atom   73 type  1   force =     0.00000000    0.00000000   -0.00000000
     atom   74 type  1   force =     0.00000000    0.00000000   -0.00000000
     atom   75 type  1   force =     0.00000000    0.00000000   -0.00000000
     atom   76 type  1   force =     0.00000000    0.00000000   -0.00000000
     atom   77 type  1   force =     0.00000000    0.00000000    0.00000000
     atom   78 type  1   force =     0.00000000    0.00000000    0.00000000
     atom   79 type  1   force =     0.00000000    0.00000000    0.00000000
     atom   80 type  1   force =     0.00000000    0.00000000   -0.00000000
     atom   81 type  1   force =    -0.00000000   -0.00000000   -0.00000000
     atom   82 type  1   force =    -0.00000000    0.00000000   -0.00000000
     atom   83 type  1   force =    -0.00000000    0.00000000   -0.00000000
     atom   84 type  1   force =    -0.00000000    0.00000000   -0.00000000
     atom   85 type  1   force =    -0.00000000   -0.00000000   -0.00000000
     atom   86 type  1   force =     0.00000000   -0.00000000   -0.00000000
     atom   87 type  1   force =     0.00000000   -0.00000000   -0.00000000
     atom   88 type  1   force =     0.00000000   -0.00000000   -0.00000000
     atom   89 type  1   force =    -0.00000000    0.00000000   -0.00000000
     atom   90 type  1   force =    -0.00000000    0.00000000   -0.00000000
     atom   91 type  1   force =    -0.00000000    0.00000000   -0.00000000
     atom   92 type  1   force =     0.00000000    0.00000000   -0.00000000
     atom   93 type  1   force =     0.00000000   -0.00000000   -0.00000000
     atom   94 type  1   force =     0.00000000   -0.00000000   -0.00000000
     atom   95 type  1   force =     0.00000000   -0.00000000   -0.00000000
     atom   96 type  1   force =     0.00000000    0.00000000   -0.00000000
     atom   97 type  1   force =     0.00000000    0.00000000   -0.00000000
     atom   98 type  1   force =     0.00000000    0.00000000   -0.00000000
     atom   99 type  1   force =     0.00000000    0.00000000   -0.00000000
     atom  100 type  1   force =     0.00000000    0.00000000    0.00000000
     atom  101 type  1   force =     0.00000000    0.00000000    0.00000000
     atom  102 type  1   force =     0.00000000    0.00000000    0.00000000
     atom  103 type  1   force =     0.00000000    0.00000000    0.00000000
     atom  104 type  1   force =     0.00000000    0.00000000    0.00000000
     atom  105 type  1   force =     0.00000000    0.00000000   -0.00000000
     atom  106 type  1   force =    -0.00000000    0.00000000   -0.00000000
     atom  107 type  1   force =     0.00000000    0.00000000    0.00000000
     atom  108 type  1   force =    -0.00000000    0.00000000    0.00000000
     atom  109 type  1   force =     0.00000000    0.00000000    0.00000000
     atom  110 type  1   force =     0.00000000   -0.00000000    0.00000000
     atom  111 type  1   force =     0.00000000   -0.00000000    0.00000000
     atom  112 type  1   force =     0.00000000   -0.00000000   -0.00000000
     atom  113 type  1   force =    -0.00000000    0.00000000   -0.00000000
     atom  114 type  1   force =    -0.00000000    0.00000000   -0.00000000
     atom  115 type  1   force =    -0.00000000    0.00000000   -0.00000000
     atom  116 type  1   force =    -0.00000000   -0.00000000   -0.00000000
     atom  117 type  1   force =     0.00000000   -0.00000000   -0.00000000
     atom  118 type  1   force =     0.00000000   -0.00000000   -0.00000000
     atom  119 type  1   force =     0.00000000   -0.00000000   -0.00000000
     atom  120 type  1   force =    -0.00000000   -0.00000000   -0.00000000
     atom  121 type  1   force =    -0.00000000    0.00000000   -0.00000000
     atom  122 type  1   force =    -0.00000000    0.00000000   -0.00000000
     atom  123 type  1   force =     0.00000000    0.00000000   -0.00000000
     atom  124 type  1   force =     0.00000000   -0.00000000   -0.00000000
     atom  125 type  1   force =     0.00000000   -0.00000000   -0.00000000
     atom  126 type  1   force =     0.00000000   -0.00000000    0.00000000
     atom  127 type  1   force =    -0.00000000   -0.00000000    0.00000000
     atom  128 type  1   force =    -0.00000000    0.00000000    0.00000000

     Total force =     0.000000     Total SCF correction =     0.000000
     SCF correction compared to forces is large: reduce conv_thr to get better values

     Writing all to output data dir ./tmp/si_sup.save/ :
     XML data file, charge density, pseudopotentials, collected wavefunctions
 
     init_run     :      6.99s CPU      7.39s WALL (       1 calls)
     electrons    :    397.10s CPU    405.56s WALL (       1 calls)
     forces       :      4.00s CPU      4.07s WALL (       1 calls)

     Called by init_run:
     wfcinit      :      6.80s CPU      7.17s WALL (       1 calls)
     potinit      :      0.01s CPU      0.02s WALL (       1 calls)
     hinit0       :      0.03s CPU      0.04s WALL (       1 calls)

     Called by electrons:
     c_bands      :    365.43s CPU    373.25s WALL (      36 calls)
     sum_band     :     31.14s CPU     31.77s WALL (      36 calls)
     v_of_rho     :      0.24s CPU      0.25s WALL (      36 calls)
     mix_rho      :      0.25s CPU      0.26s WALL (      36 calls)

     Called by c_bands:
     init_us_2    :     15.66s CPU     15.75s WALL (     296 calls)
     cegterg      :    328.95s CPU    336.73s WALL (     144 calls)

     Called by *egterg:
     cdiaghg      :     21.88s CPU     22.38s WALL (     478 calls)
     h_psi        :    247.82s CPU    251.25s WALL (     486 calls)
     g_psi        :      0.60s CPU      0.60s WALL (     338 calls)

     Called by h_psi:
     h_psi:calbec :     77.64s CPU     77.67s WALL (     486 calls)
     vloc_psi     :     91.67s CPU     93.35s WALL (     486 calls)
     add_vuspsi   :     77.77s CPU     77.82s WALL (     486 calls)

     General routines
     calbec       :     80.85s CPU     80.89s WALL (     502 calls)
     fft          :      0.11s CPU      0.12s WALL (     112 calls)
     ffts         :      0.03s CPU      0.03s WALL (      36 calls)
     fftw         :     90.36s CPU     92.26s WALL (  220008 calls)
 
     Parallel routines
 
     PWSCF        :   6m48.38s CPU   6m57.64s WALL

 
   This run was terminated on:  21:39:17  26Apr2026            

=------------------------------------------------------------------------------=
   JOB DONE.
=------------------------------------------------------------------------------=
